200
Lattice="12.76842 0.0 0.0 0.0 14.11374 0.0 0.0 0.0 46.1721071381954" Properties=species:S:1:pos:R:3:spacegroup_kinds:I:1:tags:I:1:forces:R:3 stress="0.006355031747883839 0.00012721336691454805 8.09795864416271e-09 0.00012721336691454805 0.004190431014720613 1.9608780318855147e-08 8.09795864416271e-09 1.9608780318855147e-08 1.285010331215225e-08" energy=-1441.2333345964305 pbc="T T T"
Ca       2.37353859      13.75865756       7.27757029        0        1       0.00000135       0.00000136       0.00000053
Ca       4.23334712      13.67191526      10.70029214        0        1      -0.00000125       0.00000066      -0.00000011
Ca       5.59453042       3.15515861       7.30229384        0        1      -0.00000041       0.00000047      -0.00000022
Ca       1.03725976       3.10783073      10.82012952        0        1      -0.00000086      -0.00000117       0.00000075
S        1.08097258      13.69047168      10.68713446        1        1      -0.00000051       0.00000040       0.00000020
S        5.40585804      13.73502003       7.18810651        1        1       0.00000115      -0.00000207      -0.00000075
S        4.29807114       3.07397447      10.69250265        1        1       0.00000124       0.00000161      -0.00000046
S        2.23804260       3.15652803       7.28593669        1        1      -0.00000010       0.00000322      -0.00000009
O        0.21581297       5.45425421      10.84074081        2        1      -0.00000041       0.00000015      -0.00000173
O        6.28438819       5.51789751       7.17178751        2        1      -0.00000088      -0.00000013      -0.00000172
O        6.30973066       0.80006648       7.19595062        2        1      -0.00000113      -0.00000005      -0.00000025
O        0.21050003       0.76889113      10.62931005        2        1      -0.00000066      -0.00000018       0.00000034
O        3.45977686       1.86659476      10.69819253        2        1       0.00000290       0.00000129       0.00000027
O        3.14060950       1.97946918       7.22687033        2        1       0.00000164       0.00000415       0.00000195
O        3.11297088       4.35454378       7.27873935        2        1      -0.00000043       0.00000358      -0.00000018
O        3.39941800       4.24305547      10.84840638        2        1       0.00000119       0.00000234      -0.00000126
O        1.97760826      13.73391997      11.85035615        3        1      -0.00000024      -0.00000042      -0.00000004
O        4.46994958      13.76317424       6.07017189        3        1      -0.00000026      -0.00000061       0.00000110
O        1.94955851      13.62634966       9.49133874        3        1      -0.00000131       0.00000064       0.00000045
O        4.57919597      13.71596419       8.42618142        3        1       0.00000141      -0.00000231      -0.00000055
O        5.29184942       3.05712358      11.77834963        3        1       0.00000312      -0.00000153      -0.00000270
O        1.28862115       3.16868024       6.17615732        3        1      -0.00000173       0.00000095       0.00000121
O        5.06550589       3.18190843       9.45041443        3        1      -0.00000015      -0.00000237      -0.00000160
O        1.43066862       3.11746101       8.53416354        3        1      -0.00000137       0.00000263      -0.00000107
Ca       2.33652303       6.67292926       7.31733816        0        1       0.00000069       0.00000243      -0.00000069
Ca       4.21887791       6.51647515      10.61568697        0        1       0.00000009      -0.00000076      -0.00000091
Ca       5.53116366      10.22251389       7.20817512        0        1      -0.00000069      -0.00000161      -0.00000022
Ca       0.94983933      10.16572097      10.53835009        0        1       0.00000051       0.00000063       0.00000092
S        1.10937153       6.62542600      10.78283684        1        1      -0.00000063       0.00000045      -0.00000101
S        5.38072256       6.69450604       7.15818448        1        1      -0.00000022       0.00000047       0.00000055
S        4.16005920      10.16345531      10.60965736        1        1      -0.00000007      -0.00000019      -0.00000067
S        2.18475357      10.20905701       7.10640925        1        1      -0.00000000       0.00000158       0.00000142
O        0.19986409      12.49960341      10.73285488        2        1       0.00000004       0.00000008      -0.00000221
O        6.29056748      12.54300218       7.15048982        2        1       0.00000253      -0.00000173      -0.00000337
O        6.25970714       7.88909841       7.12204472        2        1       0.00000071       0.00000015       0.00000515
O        0.26291372       7.83438930      10.73980399        2        1       0.00000112       0.00000167       0.00000078
O        3.26186277       8.99153627      10.55599715        2        1       0.00000013       0.00000053       0.00000297
O        3.07142747       9.02076344       7.13441834        2        1       0.00000053       0.00000260       0.00000029
O        3.07890849      11.39255530       7.08976258        2        1       0.00000131       0.00000153       0.00000528
O        3.29915764      11.35847846      10.70872439        2        1       0.00000041       0.00000021       0.00000155
O        2.02662001       6.64160918      11.93183175        3        1      -0.00000046      -0.00000085      -0.00000107
O        4.43130449       6.65960034       6.05507307        3        1       0.00000051       0.00000347      -0.00000000
O        1.96634506       6.55816260       9.56983767        3        1      -0.00000106       0.00000123      -0.00000094
O        4.56036602       6.71928183       8.40647893        3        1      -0.00000091      -0.00000254       0.00000019
O        5.05327320      10.07039315      11.78864813        3        1       0.00000116       0.00000020      -0.00000183
O        1.25006081      10.18866027       5.99089485        3        1       0.00000260      -0.00000063      -0.00000021
O        5.03745292      10.22375323       9.43335907        3        1      -0.00000180      -0.00000297      -0.00000164
O        1.34554782      10.23526335       8.34179263        3        1      -0.00000096      -0.00000371       0.00000085
Ca       8.74962545      13.75259971       7.24049634        0        1       0.00000041      -0.00000084       0.00000215
Ca      10.61042384      13.71740217      10.62462326        0        1      -0.00000176      -0.00000069      -0.00000209
Ca      11.97084715       3.14110386       7.35125089        0        1      -0.00000086       0.00000260      -0.00000147
Ca       7.56030468       2.95728624      10.90398792        0        1       0.00000290      -0.00000034       0.00000131
S        7.48392360      13.58712198      10.64347183        1        1      -0.00000053      -0.00000023       0.00000209
S       11.79203625      13.72612397       7.14944326        1        1      -0.00000033      -0.00000048       0.00000052
S       10.71445307       3.13899175      10.72517230        1        1       0.00000101       0.00000076      -0.00000075
S        8.62585301       3.15366775       7.34155727        1        1      -0.00000006      -0.00000082      -0.00000053
O        6.51269843       5.52453885      10.61409463        2        1      -0.00000075       0.00000157       0.00000093
O       12.70009573       5.49677155       7.26470459        2        1       0.00000193       0.00000119       0.00000249
O       12.69933411       0.78744360       7.17956632        2        1      -0.00000259       0.00000080       0.00000070
O        6.63803693       0.67621579      10.78310427        2        1      -0.00000073       0.00000049       0.00000065
O        9.85245707       1.94712328      10.56172764        2        1      -0.00000065       0.00000152      -0.00000143
O        9.52404111       1.97081154       7.31739795        2        1      -0.00000016      -0.00000124      -0.00000214
O        9.51637849       4.34258697       7.33104400        2        1       0.00000111      -0.00000221      -0.00000112
O        9.81950844       4.31429084      10.81409063        2        1       0.00000170       0.00000196       0.00000054
O        8.40223127      13.40840069      11.77476689        3        1      -0.00000152      -0.00000082       0.00000264
O       10.85284156      13.77830499       6.03493851        3        1       0.00000187       0.00000009      -0.00000032
O        8.34668714      13.72501307       9.44731759        3        1       0.00000090      -0.00000265       0.00000229
O       10.96592013      13.69300437       8.38753395        3        1      -0.00000207      -0.00000018      -0.00000024
O       11.58434504       3.03266284      11.89812599        3        1       0.00000050      -0.00000151      -0.00000114
O        7.71042826       3.15841646       6.20224031        3        1      -0.00000088       0.00000597       0.00000047
O       11.61233817       3.26330108       9.55511820        3        1       0.00000197      -0.00000173      -0.00000017
O        7.78318402       3.14540481       8.56628167        3        1       0.00000213       0.00000287       0.00000074
Ca       8.76281720       6.66476417       7.24672935        0        1       0.00000169      -0.00000114       0.00000035
Ca      10.60066965       6.65307633      10.73817623        0        1       0.00000228       0.00000140      -0.00000041
Ca      11.90041396      10.20247350       7.21995630        0        1      -0.00000072       0.00000090      -0.00000027
Ca       7.39091231      10.16383383      10.58607257        0        1      -0.00000139      -0.00000002       0.00000251
S        7.42197826       6.68045598      10.61350238        1        1       0.00000103      -0.00000102      -0.00000068
S       11.80284132       6.67897757       7.23987501        1        1       0.00000152       0.00000096      -0.00000113
S       10.71008621      10.15438278      10.69963686        1        1       0.00000071      -0.00000021      -0.00000003
S        8.57684321      10.20365225       7.12047475        1        1      -0.00000237      -0.00000254       0.00000154
O        6.58017493      12.42710569      10.50027268        2        1      -0.00000027      -0.00000001       0.00000247
O       12.66592812      12.52951197       7.10129045        2        1       0.00000104      -0.00000004       0.00000178
O       12.69444719       7.86678699       7.19823389        2        1       0.00000154       0.00000030       0.00000192
O        6.58822309       7.90364231      10.64145913        2        1       0.00000285      -0.00000106      -0.00000045
O        9.78737889       8.99813677      10.72868773        2        1       0.00000268      -0.00000144       0.00000000
O        9.46792387       9.01576212       7.10133652        2        1      -0.00000024      -0.00000172      -0.00000020
O        9.47407192      11.38678297       7.12609329        2        1      -0.00000389      -0.00000208      -0.00000044
O        9.88012790      11.37662919      10.68343236        2        1       0.00000007      -0.00000104       0.00000159
O        8.32264013       6.66564413      11.78873425        3        1      -0.00000127      -0.00000187      -0.00000089
O       10.88092674       6.64513621       6.10844232        3        1       0.00000239       0.00000265      -0.00000241
O        8.30610417       6.67308224       9.44005337        3        1      -0.00000087      -0.00000031      -0.00000045
O       10.96531233       6.71632678       8.46635657        3        1       0.00000284       0.00000263      -0.00000054
O       11.64525792      10.14782324      11.82595070        3        1       0.00000034       0.00000048      -0.00000018
O        7.64061888      10.21804321       6.00533713        3        1      -0.00000255      -0.00000023       0.00000205
O       11.54247491      10.10249182       9.46292325        3        1      -0.00000061       0.00000177      -0.00000124
O        7.74836190      10.19086032       8.36143985        3        1      -0.00000369      -0.00000052       0.00000099
O        8.42820111       1.68896251      13.06930277        0        0       0.00000327      -0.00000285       0.00000219
H        7.97918936       0.90985787      13.49498557        0        0      -0.00000108      -0.00000047      -0.00000203
H        8.37281651       2.44706726      13.67388250        0        0      -0.00000506      -0.00000062      -0.00000043
O        5.84762540      10.32004975      14.39084143        0        0       0.00000466      -0.00000178      -0.00000143
H        5.28574887      10.55312920      13.63264809        0        0       0.00000121      -0.00000113      -0.00000047
H        5.81026592      11.08471979      15.02658138        0        0      -0.00000114       0.00000240       0.00000409
O        3.96230993       0.23429452      16.63830246        0        0      -0.00000415      -0.00000079       0.00000074
H        4.60916484      13.65994587      16.33274338        0        0       0.00000019       0.00000254       0.00000170
H        4.52688054       0.89899764      17.11036891        0        0       0.00000129       0.00000150      -0.00000350
O        7.15517806       6.88882820      18.20240324        0        0       0.00000144      -0.00000456      -0.00000149
H        7.47327113       7.50307987      18.91036107        0        0       0.00000074       0.00000177      -0.00000112
H        7.24114319       5.96855382      18.50394521        0        0      -0.00000098       0.00000459       0.00000211
O        3.65803149      10.90244027      16.81213714        0        0      -0.00000244       0.00000026       0.00000207
H        2.94119985      11.52354435      17.03871153        0        0      -0.00000244      -0.00000176      -0.00000141
H        3.49876358       9.18542260      15.96012632        0        0       0.00000014       0.00000744       0.00000226
O        4.34830044       7.61462854      12.78382561        0        0       0.00000104       0.00000163       0.00000053
H        4.61289906       8.51583376      12.49509279        0        0      -0.00000018       0.00000283      -0.00000288
H        3.37559180       7.56437480      12.69636658        0        0      -0.00000227       0.00000132       0.00000027
O        8.55180101       5.80722713      15.35477315        0        0      -0.00000184      -0.00000278       0.00000004
H        7.96222676       5.06906776      15.65463726        0        0      -0.00000163       0.00000216      -0.00000517
H        6.00948926       1.08177592      14.29913024        0        0      -0.00000494      -0.00000055       0.00000009
O        9.68076539       9.11365327      14.20039732        0        0      -0.00000044       0.00000357      -0.00000032
H        9.08705108       9.61377550      13.61163269        0        0      -0.00000111      -0.00000056       0.00000118
H        9.17273128       8.97422726      15.02875549        0        0       0.00000404       0.00000041       0.00000248
O        7.92004962      10.80707058      12.78970458        0        0       0.00000132       0.00000493       0.00000121
H        8.09370089      11.76650585      12.66608305        0        0      -0.00000260       0.00000183       0.00000043
H        7.20522833      10.72751707      13.47679576        0        0       0.00000297      -0.00000641      -0.00000276
O        7.89554599       8.93828300      19.69571942        0        0      -0.00000122      -0.00000251       0.00000477
H        8.48465039       9.04423831      20.44593016        0        0       0.00000189      -0.00000028      -0.00000188
H        8.00982143       9.72210353      19.11536366        0        0      -0.00000348       0.00000193      -0.00000210
O        0.28757138      13.11385365      14.74481032        0        0       0.00000378       0.00000126      -0.00000008
H        0.23909386      14.00108769      14.36339995        0        0      -0.00000331       0.00000150       0.00000405
H        0.75469608      13.18794244      15.60439784        0        0      -0.00000103      -0.00000399      -0.00000088
O        5.28740441       5.22906473      14.09260672        0        0       0.00000165      -0.00000380      -0.00000170
H        5.63970633       4.81351147      14.92493881        0        0      -0.00000086       0.00000021      -0.00000248
H        4.38167002       4.91593628      13.97573156        0        0       0.00000135       0.00000255       0.00000365
O        1.50461270       2.14239217      12.95686760        0        0       0.00000190       0.00000018      -0.00000172
H        1.94678276       2.41594595      13.78669312        0        0      -0.00000111       0.00000049      -0.00000029
H        1.86127139       1.26158471      12.72267494        0        0       0.00000033      -0.00000057       0.00000092
O        7.70683949      10.92067670      17.87443765        0        0       0.00000104       0.00000324       0.00000035
H        8.12605183      11.44893505      17.12232226        0        0      -0.00000870      -0.00000228      -0.00000325
H        6.83320505      11.31939661      17.98119736        0        0       0.00000104      -0.00000153      -0.00000021
O        7.97961444       8.69157850      16.31937649        0        0      -0.00000098      -0.00000554      -0.00000347
H        7.76828140       7.92564693      16.88724638        0        0       0.00000599       0.00000325       0.00000254
H        7.78827526       9.48417711      16.86223444        0        0      -0.00000133      -0.00000068       0.00000304
O        4.75319594      13.47293378      12.92016410        0        0      -0.00000316       0.00000297      -0.00000289
H        5.62661195      13.45540787      13.37531220        0        0       0.00000218      -0.00000303       0.00000067
H        4.44842002      11.45443203      16.66467124        0        0       0.00000557       0.00000043      -0.00000047
O        1.78017659      13.00558622      17.07203697        0        0      -0.00000332       0.00000284       0.00000057
H        2.56851957      13.62046565      17.06922072        0        0       0.00000251      -0.00000062       0.00000010
H        1.31926762      13.13100164      17.90749363        0        0       0.00000040      -0.00000370      -0.00000155
O        7.61854960       4.24305224      12.93632265        0        0       0.00000601      -0.00000400      -0.00000032
H        8.10501701       5.06240119      12.73076476        0        0      -0.00000414      -0.00000239       0.00000077
H        6.71680441       4.54872557      13.16828375        0        0      -0.00000544      -0.00000017      -0.00000118
O       10.93439267       0.43795128      12.84225507        0        0      -0.00000381       0.00000577      -0.00000281
H       10.05740665       0.86324942      12.99868821        0        0      -0.00000058      -0.00000567       0.00000155
H       11.51058994       1.21019888      12.68227749        0        0       0.00000316       0.00000384       0.00000001
O        2.92281366       2.46617188      15.31886302        0        0      -0.00000425       0.00000053      -0.00000103
H        3.26898729       3.11964110      15.97894340        0        0       0.00000011      -0.00000239       0.00000163
H        3.04659626       1.59339689      15.74124830        0        0       0.00000113       0.00000088      -0.00000051
N        5.56816400       2.02047004      14.22990476        0        0       0.00000146      -0.00000123      -0.00000267
H        5.46965657       2.30277996      13.24151779        0        0      -0.00000095      -0.00000010       0.00000054
H        6.15145954       2.70202575      14.73718919        0        0       0.00000027      -0.00000302       0.00000055
H        4.62312961       2.03024457      14.64145389        0        0      -0.00000135       0.00000071      -0.00000250
N        3.39601641       8.21417462      15.65483430        0        0       0.00000287      -0.00000845       0.00000099
H        3.91146503       8.07548079      14.79059052        0        0       0.00000482       0.00000060      -0.00000599
H        2.41382012       8.05133877      15.45321376        0        0      -0.00000360      -0.00000224       0.00000027
H        3.97578635       7.25446847      16.88560753        0        0      -0.00000217      -0.00000048       0.00000032
N        4.34153672       6.62015423      17.69160178        0        0      -0.00000169       0.00000017       0.00000140
H        3.78955553       6.77381641      18.52810519        0        0       0.00000308      -0.00000044      -0.00000145
H        5.32901605       6.83504289      17.90270773        0        0      -0.00000031       0.00000141      -0.00000074
H        4.27134351       5.59672145      17.40973404        0        0       0.00000240       0.00000025       0.00000174
N        2.94988809      11.75697532      13.89887938        0        0       0.00000107      -0.00000238      -0.00000255
H        3.07977354      11.26140875      14.77976898        0        0      -0.00000218      -0.00000011       0.00000060
H        2.05422249      12.24380890      13.93142595        0        0       0.00000076       0.00000113      -0.00000073
H        2.91907761      11.09428205      13.13365338        0        0       0.00000134       0.00000197       0.00000221
H        4.12391354      12.85774896      13.41237646        0        0      -0.00000166       0.00000203       0.00000091
N       10.89906041       6.68002020      13.11673293        0        0      -0.00000122       0.00000056       0.00000182
H       10.36616462       5.94956927      13.58329744        0        0      -0.00000219      -0.00000065      -0.00000287
H       11.86121674       6.57811162      13.42631459        0        0      -0.00000091      -0.00000396      -0.00000055
H        9.03700164       6.08706975      16.14042034        0        0       0.00000150      -0.00000164       0.00000352
H       10.54115586       7.56390381      13.49750975        0        0       0.00000094      -0.00000169      -0.00000063
N        6.84794376       7.55361246      14.01962190        0        0       0.00000044      -0.00000128      -0.00000051
H        6.61209725       8.47810656      14.39642305        0        0       0.00000154       0.00000122       0.00000123
H        6.00782996       6.97096210      13.90441178        0        0       0.00000055      -0.00000016      -0.00000053
H        7.50429643       7.06168311      14.65658274        0        0       0.00000087      -0.00000076      -0.00000008
H        7.33064131       7.61473582      13.11574413        0        0      -0.00000072       0.00000144      -0.00000159
N       10.53893160      11.84666840      14.24290836        0        0      -0.00000056      -0.00000213       0.00000275
H       10.58367739      10.81442510      14.25579769        0        0       0.00000075       0.00000047      -0.00000042
H       11.42083785      12.28417663      14.55923822        0        0      -0.00000033      -0.00000156       0.00000174
H        9.70683583      12.12392334      14.83583261        0        0      -0.00000134      -0.00000135       0.00000043
H       10.38296845      12.13371804      13.28031841        0        0       0.00000072      -0.00000065       0.00000171
P        7.18384544      13.18346949      15.65900256        0        0       0.00000014       0.00000230       0.00000090
O        8.32805640      12.18745396      15.71552608        0        0      -0.00000086       0.00000177      -0.00000012
O        5.84026265      12.49548170      15.99980319        0        0      -0.00000126      -0.00000068      -0.00000094
O        7.04654894      13.85528649      14.28922000        0        0       0.00000112       0.00000181      -0.00000045
O        7.52038762       0.14573285      16.75517637        0        0       0.00000050      -0.00000018       0.00000059
H        6.87110344       0.87076584      16.96831450        0        0      -0.00000365      -0.00000125      -0.00000180
P        5.75326369       3.51202208      17.13916146        0        0      -0.00000157      -0.00000109       0.00000095
O        6.65977054       4.00707334      16.01647641        0        0      -0.00000060       0.00000044      -0.00000074
O        5.79070342       2.02145486      17.35663404        0        0      -0.00000013       0.00000121       0.00000047
O        4.34818367       4.06860974      16.95698534        0        0       0.00000085      -0.00000394       0.00000159
O        6.37149216       4.20317095      18.48656308        0        0       0.00000543       0.00000133      -0.00000320
H        6.31475014       3.60448247      19.24034097        0        0      -0.00000199       0.00000017      -0.00000159
