464
Lattice="24.0688 0.0 0.0 -0.11705465205553547 25.348880266190132 0.0 0.0 0.0 43.258032669458935" Properties=species:S:1:pos:R:3:spacegroup_kinds:I:1:tags:I:1:forces:R:3 energy=-3456.0125605167405 pbc="T T T"
Ca       1.89926098       4.48020339       6.45325519        0        1      -0.00818251       0.00407047       0.00362567
Ca      18.68636162      10.43703915      10.08950923        0        1       0.00050035      -0.01033303       0.00612091
Ca      20.42173377       8.64909523       7.42899078        0        1       0.00704606       0.01255623      -0.01145254
Ca       1.55600796       2.80645865       9.62546126        0        1      -0.00177213      -0.00692933      -0.00359776
Ca      14.37335243      10.82691140       4.83246486        1        1      -0.00253825       0.01337599      -0.00575953
Ca      20.39473640       4.52235234       8.38386914        1        1       0.00969505       0.00509294       0.01004862
Ca       7.66237777       2.10117494       5.91140234        1        1      -0.00464575       0.00453358       0.00996565
Ca       0.97835094       8.77353481       8.00744898        1        1       0.01385321      -0.00100560      -0.01295001
Ca       4.43617732       0.38488940       7.58627895        2        1       0.00004557      -0.00860870       0.00094571
Ca      22.73194227       6.64650830       5.23891603        2        1      -0.00032133       0.00505815       0.00765437
Ca      22.84698231       0.25926719       3.93537925        3        1       0.00157485      -0.00381038       0.00304427
Ca      17.00396773       6.33952426       6.65827374        3        1       0.01218844      -0.00815928      -0.00961887
S        1.12190001       1.46862882       6.37809244        4        1       0.00404296       0.00920466       0.00366896
S       18.93189590       7.02844735       9.55258629        4        1      -0.00739238       0.00268600      -0.00312150
S       20.51884808      11.67675895       7.36159697        4        1       0.00942638      -0.00181380       0.00402423
S        1.77266590       5.73533678       9.23655609        4        1       0.00207921       0.00285784       0.00392451
S       23.93197675       3.92172043       3.78323617        5        1       0.00259412       0.00214546      -0.00254105
S       16.88952584       9.37682010       7.02216988        5        1       0.00568353       0.00539978       0.00794677
S       23.50959891       9.29848999       3.07332678        5        1      -0.00508247       0.01680534       0.00326760
S        4.73393756       3.60629406       7.52354975        5        1       0.01157634      -0.00388702      -0.00851524
S        1.61116815       7.30852457       5.33870664        6        1      -0.00149254       0.00835536       0.00098667
S        6.92959160       1.25076729      10.14118367        6        1      -0.01096932      -0.00345484      -0.01129698
S       19.96258377       5.70529005       5.19425708        6        1       0.00036199      -0.00054297       0.00369789
S       14.57039947      11.35816319       9.21658673        6        1       0.00267402      -0.00279686       0.00738844
O        2.02298651       0.37848088       6.79057350        7        1      -0.01106626      -0.00985354      -0.01691940
O       19.65377683       5.89080278      10.17031783        7        1       0.00735737      -0.01121902       0.00293259
O       19.37635551      12.56035883       7.23543587        7        1       0.01143521      -0.01110413       0.00184793
O        1.16332509       7.01762154       9.55482485        7        1       0.00872853       0.01447890       0.00008479
O       23.93106436       0.89691963       5.90486372        8        1       0.01266031      -0.00178906       0.00136757
O       18.93885605       6.73134174       8.06529115        8        1       0.00169297       0.00675664      -0.00506272
O       21.78150549      12.45578457       7.33392456        8        1       0.00714864       0.00496058      -0.02861075
O        2.85926573       5.92141563       8.24400120        8        1      -0.00219270      -0.00839023      -0.00172229
O        1.79699063       2.33509072       5.38667902        9        1       0.00134164      -0.00053184      -0.00978502
O       19.74015537       8.28314100       9.68586131        9        1      -0.00794757      -0.01256252      -0.00047583
O       20.58895019      10.71823861       6.21836988        9        1      -0.00579976       0.00804632       0.00389687
O        0.77247854       4.82838413       8.53733154        9        1       0.00902153      -0.00902190      -0.00065584
O        0.80242860       2.34577619       7.53224194       10        1      -0.00787158       0.00511078       0.01066553
O       17.59981748       7.21944167      10.04848911       10        1      -0.00858088       0.00824443       0.02576795
O       20.47588518      10.87371023       8.59912893       10        1      -0.01952078      -0.01390353       0.00453832
O        2.22583156       4.97339958      10.39601025       10        1       0.00492798       0.00352777       0.00175750
O       23.33056889       2.59443216       3.58656239       11        1       0.00515948       0.00525743       0.00790448
O       16.03522985       8.41822773       7.74772322       11        1      -0.00312075      -0.00155255       0.00179343
O       23.86674382      10.64526090       3.63733835       11        1       0.00253284      -0.01700010       0.00012699
O        5.44631077       4.54079180       8.39386482       11        1      -0.01789503       0.00618653       0.00424744
O        5.58020533       2.45483456       7.13939170       12        1       0.00499669      -0.02225443      -0.00153728
O       22.66080623       8.62590538       6.54573242       12        1      -0.00081935       0.00522072       0.00975895
O       16.09455223      10.54012792       6.55963467       12        1      -0.00657705      -0.01113781      -0.00580940
O       22.21872307       3.77866439       9.94843718       12        1      -0.00057798      -0.00905531      -0.00305867
O       23.75844664       4.40719548       5.22459811       13        1       0.00567953      -0.01050350      -0.00493599
O       17.94899008       9.88603884       7.91596607       13        1       0.00794927       0.00468774       0.00370640
O       22.42605425       8.67941305       3.86944831       13        1       0.00708570       0.00074492      -0.00432396
O        3.50789804       3.04960976       8.14782607       13        1       0.01653471       0.00454117      -0.01213301
O        0.82916530       7.12487110       4.11569203       14        1       0.00975537      -0.00360547      -0.00029708
O        7.39641064       2.54308135       9.69286397       14        1      -0.00026071      -0.00424217       0.01257864
O       20.86631514       5.48693551       4.07123190       14        1      -0.00839937      -0.00200938       0.00678087
O       13.56926747      10.37136184       8.71383802       14        1       0.00106862      -0.00279522      -0.01181042
O        1.83374765       8.72748788       5.65822320       15        1      -0.00376330       0.01213960      -0.01623686
O        6.19691520       1.52432150       4.32695626       15        1       0.00356493       0.00035963      -0.00717954
O       20.05670540       4.51757135       6.11010418       15        1      -0.00021758       0.00301037       0.00335034
O       16.19096241      10.81734904       3.57194053       15        1      -0.00134748      -0.00897796       0.00298383
O        2.87001653       6.53853512       5.33333224       16        1      -0.00469679      -0.00273773       0.01113587
O        7.96458961       0.22591276       9.92540486       16        1      -0.00374718       0.00307483       0.00104704
O       18.56316094       5.93172720       4.88550225       16        1      -0.00835608       0.00317362       0.00355234
O       14.34207362      11.64135131      10.61779719       16        1      -0.00163978       0.01150622      -0.01003852
O        0.78025651       6.76104919       6.47331839       17        1       0.00705045      -0.00986513       0.00179202
O        5.66711439       0.84347080       9.58163895       17        1      -0.00421678       0.00207333      -0.00707786
O       20.51891206       6.88842829       5.93352980       17        1       0.00384913      -0.00421239       0.00036335
O       14.54713624      12.55584162       8.36710730       17        1       0.00763350       0.00225661      -0.00416936
O        4.31555882       4.33944757       6.29509112       18        1      -0.00718142       0.00731662       0.00399013
O       22.69414875       8.38525006       8.01406004       18        1      -0.00233618      -0.00353491       0.00664976
O       17.51991648       8.65789810       5.90325421       18        1      -0.00206701       0.00535948       0.00203018
O       23.08180294       2.86939416       9.71555277       18        1      -0.00276712       0.00654530      -0.00693304
O        4.00595549       0.57007943       5.05061160       19        1      -0.00278544      -0.00086475      -0.00933831
O       22.38558989       5.80835549       7.76800150       19        1      -0.00520942      -0.01243492       0.00480408
O       23.95213693      10.71069840       6.49364301       20        1      -0.01454317       0.00247915      -0.00291542
O        6.21801697       3.00375849       4.27089161       20        1      -0.00282428       0.01086641      -0.00240220
O       22.05184895       2.98079552       7.01912545       20        1      -0.00077471       0.01078840       0.00548106
O       15.84349333       9.38745843       3.71612603       20        1       0.00894097      -0.00433884      -0.00777562
H       23.76252457      11.18315696       7.31828816       21        1       0.00213149      -0.00664515      -0.00086205
H        5.43035675       3.28520419       4.77389974       21        1      -0.00149011      -0.00199703       0.00268003
H       22.63130568       2.40006137       7.53640782       21        1      -0.00481980       0.00559225      -0.00211302
H       16.52845407       9.04972935       4.32899367       21        1       0.00379512       0.00662677      -0.00661211
H       23.15879221       9.58794176       6.48337713       22        1      -0.00115786       0.01588701      -0.00794537
H        6.76060327       1.33764614      11.49076347       22        1       0.00492693       0.00556689      -0.00329056
H       22.64943221       3.44403059       6.40211360       22        1      -0.00038370      -0.00336046       0.00101222
H       15.76206689      10.76535851       9.04641982       22        1       0.00164857      -0.00284269       0.01088979
H        4.88878288       0.92379283       4.65091045       23        1       0.00539787      -0.00412336      -0.00102054
H       23.20724280       5.38532681       8.10792223       23        1       0.00729768       0.00593012      -0.01196711
H       17.39681113      11.38239047       4.25122080       23        1      -0.00373600      -0.00734823       0.00897584
H       22.50890101       6.78338213       8.02021835       23        1      -0.00612902       0.00195450      -0.00128717
Ca      13.91150079      17.01431580       5.28628169        0        1      -0.01371646      -0.00631167       0.00714606
Ca       7.61617093      23.36721922       9.17501631        0        1      -0.00240548      -0.00172219      -0.00526744
Ca       7.60079889      21.35981971       6.00209890        0        1       0.01102276       0.00023237      -0.00383358
Ca      13.54478878      14.76050287       8.53953596        0        1      -0.00740546      -0.00079441       0.00768644
Ca       2.34238655      23.92790673       5.06982259        1        1       0.00828561       0.01459240       0.00105025
Ca       7.50262343      17.44966397       9.18504948        1        1      -0.00248947      -0.00004539       0.00025458
Ca      19.96335558      15.20546717       5.03124868        1        1      -0.00058682      -0.00023551      -0.00185953
Ca      13.54064845      20.89655023       8.72897618        1        1      -0.00703359       0.00335071       0.01675063
Ca      17.06006640      12.79492039       6.83291884        2        1       0.00326689      -0.00229824      -0.00394771
Ca      10.87781855      18.45507854       7.14524651        2        1      -0.01175894      -0.00273543      -0.00712200
Ca      11.35388254      13.30241845       5.97568125        3        1      -0.00472868       0.00273716      -0.00777065
Ca       4.72738090      19.22282964       7.44709012        3        1       0.01004776      -0.00008493      -0.00430030
S       14.14615883      13.97816341       4.91111496        4        1       0.01001166      -0.00029431       0.00092503
S        7.59685285      20.41816844       9.45923178        4        1       0.00401036       0.00252124       0.00593405
S        7.61757032      24.39717495       5.99014620        4        1       0.00725199      -0.00656810      -0.00955059
S       13.61007278      17.81244854       8.73209248        4        1      -0.00010879      -0.00375717      -0.00658896
S       10.48028184      16.07359520       4.17061973        5        1      -0.00332251      -0.00231338       0.00068155
S        4.48176286      22.51759248       7.67740799        5        1      -0.00118774       0.00910054       0.00291337
S       10.72727706      22.53816317       4.54274664        5        1       0.00474229      -0.00019343       0.00318366
S       16.91278145      15.87558848       7.07853599        5        1       0.01031131       0.00765239       0.00298682
S       13.76551726      20.08897789       5.37019833        6        1       0.00034874      -0.00093647      -0.00546854
S       18.18611786      13.52140497      10.06427064        6        1       0.00135222      -0.00417321      -0.00067037
S        7.56924213      18.35353866       5.80732153        6        1       0.00387681       0.00283027      -0.00377664
S        1.67155959      25.14942071      10.09957704        6        1       0.00445718      -0.00128044      -0.00317061
O       15.27391756      13.12159594       5.32435455        7        1       0.01201579      -0.01265171      -0.01296465
O        8.58037572      19.43228293       9.90386227        7        1       0.00357039      -0.00741396       0.00000312
O        6.67294070      25.24944506       6.75168181        7        1       0.01313870      -0.01439029      -0.00123980
O       12.49070685      18.71758301       9.06653671        7        1       0.00791909      -0.00039318       0.00766573
O       13.13526203      13.08843456       4.29536920        8        1      -0.00016362       0.00250487       0.00984206
O        6.38831206      19.63751417       9.06284914        8        1       0.00903343      -0.00131252      -0.00429853
O        8.64765225      25.27852471       5.39129103        8        1       0.00793767       0.00811566       0.00330918
O       14.75674128      18.70604061       8.42547792        8        1       0.00412887      -0.00148187       0.01549641
O       14.55430535      15.08163640       4.05441947        9        1      -0.00309909       0.00373546       0.00325087
O        8.10578487      21.17429645       8.26537784        9        1       0.00099192       0.00596408       0.00384662
O        6.96276227      23.51301458       5.04595276        9        1      -0.01126440       0.00111005      -0.00860111
O       13.19803393      17.05147390       7.50226212        9        1      -0.00603268      -0.01162162      -0.00980962
O       13.49339799      14.58850670       6.12228171       10        1      -0.00632122       0.01179732      -0.01131697
O        7.28634493      21.44483141      10.45312186       10        1      -0.00765876       0.00514869       0.00684244
O        8.36420136      23.53190858       6.97267177       10        1      -0.00654276       0.00680235       0.00518337
O       13.92728925      16.82604313       9.74334127       10        1       0.00233733       0.00762810      -0.00296334
O        9.94616855      14.91504667       4.95952995       11        1       0.00227622       0.00094344       0.00204329
O        3.39232448      21.76455888       8.29339125       11        1      -0.00232518       0.00046859      -0.00375013
O       11.39468174      22.85237900       5.87734445       11        1       0.00580261       0.00893009      -0.00367176
O       17.70932646      16.77011918       7.92989295       11        1      -0.00093566       0.01236766       0.01370687
O       17.80443615      15.05270214       6.21708643       12        1      -0.00588832      -0.00397801      -0.00148106
O       12.29805022      22.08701034      10.28886849       12        1      -0.01558194       0.00464226      -0.01261363
O        3.92479064      23.51824954       6.72744983       12        1      -0.01049041       0.00649264      -0.00721838
O        9.69222409      16.36096295       7.23187934       12        1       0.00249260      -0.00688291       0.00650037
O       11.59139951      16.74128298       4.91896935       13        1      -0.00031505      -0.00776372       0.00014111
O        5.27746774      23.30147159       8.64877263       13        1       0.01276725      -0.00439012       0.01363916
O        9.56231983      21.64887833       4.76602031       13        1      -0.00330401      -0.00179876      -0.00123903
O       16.08113483      14.93617025       7.85252052       13        1       0.01241489       0.00179158      -0.01028223
O       13.52722251      20.94919259       4.23616628       14        1      -0.01069347      -0.00169107      -0.01357581
O       18.99637991      14.48681959       9.34785970       14        1       0.00212346      -0.00888854       0.00298581
O        7.82985424      17.39343080       4.75424188       14        1      -0.00541806       0.00900499       0.01803440
O        1.28061292      23.99636911       9.32491601       14        1      -0.00309923       0.00419161      -0.00373916
O       13.99866327      20.99313364       6.54186412       15        1       0.00822620      -0.01588887       0.00506974
O       20.69689710      13.13418971       4.48439766       15        1      -0.00747736       0.00834162      -0.00370248
O        7.07211766      17.57915387       6.98529912       15        1       0.00695420       0.01027094      -0.01465237
O        0.88691074      25.08187917       3.84533125       15        1      -0.00204418       0.00104828       0.00543189
O       14.95483902      19.19047303       5.25037709       16        1       0.00879416       0.01174870       0.00461334
O       18.91979607      12.72342634      11.02974590       16        1       0.00787362       0.00334912      -0.00422396
O        6.50300293      19.34932772       5.51007903       16        1      -0.00232404      -0.01820295      -0.00385964
O        0.70838038       0.72947433      10.40926257       16        1       0.00386544      -0.00210360       0.00222935
O       12.62926041      19.17419702       5.64478540       17        1      -0.00204558      -0.00279608       0.00774114
O       17.44553749      12.59605022       9.18608501       17        1      -0.00300286      -0.00306864       0.00266685
O        8.77933178      19.13468825       6.17032260       17        1      -0.00021558      -0.01341676       0.00279402
O        2.88119476       0.56977994       9.48665578       17        1       0.00617173       0.00083989      -0.00303918
O       16.05137028      16.75162902       6.24442051       18        1       0.00743839       0.00392933      -0.00038027
O       10.98906032      21.92610561       9.97404710       18        1       0.01150900       0.00379020       0.01427831
O        5.36916818      21.57207276       6.95732569       18        1      -0.01511585       0.00160930      -0.00116274
O        9.59495211      17.18479977       8.46235060       18        1      -0.00172001      -0.00088088      -0.00555442
O       18.06309997      11.96241455       4.77221202       19        1      -0.00166765      -0.00100336       0.00328478
O       11.24463621      20.77159186       7.71162331       19        1       0.00654661      -0.00234022       0.00277966
O       10.13487018      24.06265910       9.02884349       20        1       0.00147203       0.00388291      -0.00219142
O       19.70745699      13.53223007       3.45845883       20        1       0.00036009       0.00196667       0.01705611
O       11.30364992      14.49573762       7.89991469       20        1      -0.00702817       0.00164005       0.01103888
O        1.78315343      24.47747479       2.82520767       20        1      -0.00292692       0.01183751      -0.00373159
H       10.47403915      24.73136865       9.64245907       21        1      -0.00382457      -0.00136018       0.00525234
H       18.95662940      12.96380262       3.76939923       21        1       0.01282791      -0.00624331       0.00517989
H       10.74196112      14.13799009       8.60273777       21        1       0.00146065       0.00012704      -0.00265164
H        2.25100352      25.27541286       2.53512203       21        1      -0.00732442      -0.01767504      -0.00210405
H       10.54752853      23.18226348       9.38912582       22        1       0.00471381      -0.00462849       0.00191802
H       17.23144798      14.25086429      10.71450569       22        1       0.00263065       0.00175980       0.00389181
H       10.37929411      15.63821268       7.52834578       22        1      -0.00621211       0.00509292      -0.00256729
H        2.14838354      24.66396755      11.27738455       22        1       0.00698069       0.00428930      -0.00086284
H       18.84830779      11.43836587       4.99888451       23        1      -0.00143220       0.00439294      -0.00539746
H       10.86447673      21.14666240       8.55838019       23        1       0.00062050       0.00291406      -0.00233647
H        3.35167041       1.28789601       4.95501791       23        1       0.00052958       0.00345467      -0.00111057
H       11.16110953      21.47290923       7.03556851       23        1       0.00153380       0.00595794       0.00183182
Ca      13.93320249       4.42607469       5.48642575        0        1      -0.00367435       0.00406668      -0.00667913
Ca       7.32526860      10.81581882       9.68628745        0        1       0.00855939      -0.00486487      -0.01142907
Ca       7.65422266       8.74792829       6.67969578        0        1       0.00267760      -0.00517986       0.01542650
Ca      14.03647619       2.00593678       8.85812674        0        1       0.00377988       0.00061640      -0.01092595
Ca       1.81042582      11.09439728       5.13536641        1        1       0.00120643      -0.00939152      -0.00205237
Ca       7.92625303       4.66611668       8.89921233        1        1      -0.00250696       0.00670748       0.00619873
Ca      20.14011894       2.10466724       5.86128700        1        1      -0.00525900      -0.00488681      -0.00338713
Ca      13.78564161       7.99352558       8.25997136        1        1      -0.01026815       0.00081579       0.00254325
Ca      16.97980133       0.17475693       6.85382612        2        1      -0.00138205      -0.00793982      -0.00401373
Ca      11.08412598       5.64863244       7.67441729        2        1      -0.01768905      -0.00224878      -0.00223042
Ca      10.65508679      25.03119744       6.79109330        3        1      -0.00623037       0.00610439      -0.00407857
Ca       4.72183292       6.68428233       7.06870929        3        1       0.00260571      -0.00530666       0.00469763
S       13.41994825       0.93006196       5.72556047        4        1       0.00504536       0.00186926      -0.00536972
S        7.30932655       7.79939466       9.61712291        4        1      -0.00651929       0.00152367       0.00651784
S        8.18620227      11.73551376       6.31214539        4        1       0.00859381       0.01937192      -0.00128879
S       14.12498200       4.93270253       8.75684535        4        1       0.00753967      -0.00426049       0.02807871
S       10.59722523       3.80999670       4.52258015        5        1      -0.00818238       0.00019388       0.00050128
S        4.38507982       9.74447030       7.37955450        5        1      -0.00741839       0.00049571      -0.00206337
S       10.49563968       8.94826400       4.41314936        5        1       0.00215990      -0.00267700      -0.00080953
S       16.95946630       3.25569386       6.97332361        5        1      -0.00400393       0.00388025       0.00358631
S       13.65497156       7.33159561       5.33040653        6        1       0.00035175       0.00363572      -0.00644862
S       19.52355946       0.84456510       9.22279874        6        1       0.00115608       0.00211515      -0.00215369
S        8.04842506       5.71072846       5.98389607        6        1       0.00742046      -0.00345066       0.00944347
S        1.56192260      12.20186812       9.49679116        6        1      -0.00079333      -0.00178045      -0.00130839
O       14.73352168       0.28561320       5.90302278        7        1      -0.00688994      -0.00562977      -0.00319978
O        7.80079566       6.56351917      10.19971197        7        1       0.00039393       0.02486959      -0.02051627
O        7.52475448      13.02489376       6.58333843        7        1       0.00097521       0.00633451       0.00457453
O       13.02853443       5.81699453       9.15943357        7        1      -0.00803116       0.02063454       0.00546105
O       12.40941741      25.30693260       5.06063399        8        1      -0.00370852      -0.01092512       0.01646027
O        6.37033304       7.48594431       8.49905516        8        1      -0.00281375       0.00835261       0.00189071
O        9.56977741      11.96698821       5.88746622        8        1      -0.00077179      -0.00852042      -0.00423245
O       15.19967139       5.76473547       8.21011160        8        1       0.00241793       0.01377850      -0.00694873
O       13.54882556       2.19106022       5.00126699        9        1       0.00664820       0.01086590      -0.00149232
O        8.40801376       8.59887359       8.96954478        9        1       0.00756165      -0.01001825      -0.00547389
O        7.44460558      10.93995722       5.31538093        9        1       0.00704395       0.01080783       0.02349903
O       13.57601850       4.00267222       7.70397200        9        1       0.00871783      -0.00143899       0.00668594
O       12.78749954       1.18563939       7.05995543       10        1      -0.01022639      -0.00287167      -0.01438343
O        6.67958122       8.67335651      10.61176121       10        1      -0.00113174      -0.00384610      -0.02867866
O        8.18887436      10.90190946       7.54482353       10        1      -0.00851363      -0.01309622      -0.02356658
O       14.57903028       4.06050829       9.85146603       10        1      -0.00822224      -0.02096018      -0.01982857
O        9.83824411       2.72257537       5.13787800       11        1      -0.00219913      -0.00571749      -0.00733309
O        3.52470818       8.76804668       8.07008555       11        1       0.00100938      -0.00225726       0.01137695
O       11.52958502       9.97746577       4.37045477       11        1       0.00272764       0.00698484       0.00546468
O       17.73415113       4.15814987       7.82573675       11        1       0.01323466      -0.00582895       0.00102240
O       17.84151793       2.33409753       6.22324494       12        1      -0.00849615       0.01528632       0.00946402
O       10.67102761      10.44908119       8.22484756       12        1      -0.01082018      -0.00734975       0.01979653
O        3.54641937      10.75909036       6.69317871       12        1       0.00927780       0.00762492      -0.00824331
O       10.01551087       3.78188168       8.27047155       12        1       0.00909999       0.00498549       0.02489621
O       11.53261988       4.44206156       5.48691823       13        1       0.00451500       0.00004901      -0.00530642
O        5.28009023      10.48735141       8.27847459       13        1      -0.00420455      -0.00566558      -0.01313613
O        9.90158545       8.77016284       5.74447422       13        1       0.00416505      -0.00485197       0.00625500
O       16.04386370       2.38374892       7.74043478       13        1      -0.00238027      -0.00563867      -0.00340204
O       12.91938433       7.28519569       4.10274779       14        1      -0.00549478       0.00143222      -0.00487607
O       20.06866626       1.98015452       8.45889942       14        1      -0.00457720       0.00609813      -0.00368118
O        8.83561428       5.55658214       4.77433766       14        1      -0.00669381       0.00657404       0.00681634
O        1.04542111      10.92821691       9.01362526       14        1       0.00756169      -0.00081157       0.00688862
O       13.85289930       8.69881372       5.87534697       15        1       0.00158682      -0.00429923       0.00937411
O       20.72492206       0.97438750       4.03219986       15        1       0.01630968      -0.00746488       0.00733983
O        7.58211273       4.40386768       6.51157468       15        1       0.00075384      -0.01200245      -0.00375619
O        3.39741549      11.65368031       3.67616954       15        1       0.01120682      -0.00315682      -0.00612615
O       14.96214506       6.60802807       5.23031702       16        1       0.00739756       0.00130860      -0.00559918
O       20.28038309      25.03326970       9.22702172       16        1      -0.00218124      -0.00311489       0.00035890
O        6.87980680       6.61292963       5.78305344       16        1       0.01131869      -0.00919333      -0.00824083
O        0.73756735      13.32653801       9.08622545       16        1       0.00467403      -0.00222282       0.00102096
O       12.92645867       6.58918487       6.43478502       17        1       0.00017152       0.00492960      -0.00246235
O       18.15460208       0.55049622       8.86049566       17        1      -0.00111952       0.00403802       0.00622334
O        8.86259170       6.33066131       7.08598172       17        1       0.00399277       0.01728357      -0.00708994
O        2.96813881      12.38247286       9.20502866       17        1       0.00155448       0.00543560      -0.00173545
O       16.17904988       4.08469969       6.02192548       18        1      -0.00175408      -0.00536402      -0.00652371
O       10.72120995      11.61008897       8.64294422       18        1       0.00867994      -0.00279762      -0.00531746
O        5.18939642       8.98955415       6.37740613       18        1       0.00040049       0.01118880      -0.00064334
O       10.08244727       4.67772709       9.47298563       18        1       0.00189086      -0.01282107      -0.02862864
O       17.41774424      25.09812975       4.51198584       19        1      -0.00460901       0.00683063       0.00996631
O       11.30002285       7.79038842       8.86188308       19        1       0.00369348      -0.01693510       0.01683134
O       12.61414635      11.33818995       6.44081738       20        1      -0.00315973       0.00774535       0.00299821
O       19.47824958       1.68107147       3.66794088       20        1      -0.00539529       0.00717328       0.00015099
O        9.48677595       1.41135210       7.84645321       20        1       0.00057924      -0.00411562       0.00078516
O        3.50114869      10.18108916       3.73923568       20        1      -0.00320312      -0.00511062       0.00028032
H       12.85977182      11.01358072       7.33675864       21        1       0.00074743       0.00492345      -0.00771937
H       18.80213030       0.97772954       3.79228519       21        1      -0.01326890       0.00626796      -0.00463489
H        8.99057241       1.04296520       8.60037309       21        1      -0.00246810      -0.00339846      -0.00836103
H        4.24349420      10.01813837       4.35082645       21        1      -0.00332278       0.00598686      -0.00069532
H       11.97901712      10.69706481       6.06669952       22        1      -0.00547308      -0.00117251      -0.00265225
H       19.47940216       1.28855877      10.50427281       22        1      -0.00573004       0.00178234       0.02090539
H        9.78105751       2.36730397       8.15821568       22        1       0.00829232       0.00546516      -0.00454571
H        1.46086746      12.13270234      10.84523140       22        1       0.00376165       0.00306287       0.00115189
H       18.14759453      24.45854063       4.41188450       23        1      -0.00415284      -0.00991929       0.00251225
H       11.45726807       7.52049057       9.82238559       23        1      -0.00752702       0.01531167       0.00615406
H        4.45286124      12.20537916       4.43861696       23        1      -0.00367404       0.01467786       0.00601704
H       10.44638177       8.26431918       8.83655380       23        1       0.01175999       0.00212366       0.00460799
Ca       1.90924946      17.25807297       5.61119488        0        1       0.00046374       0.00322629       0.00659824
Ca      20.39161707      22.60707710       9.17203475        0        1      -0.00071233      -0.00426278      -0.00427637
Ca      19.39232183      21.17905058       5.85187602        0        1       0.00586520       0.00705763       0.00218075
Ca       0.48217938      15.67948402       8.75775010        0        1      -0.00195911      -0.00170941      -0.00323829
Ca      14.06250673      23.18090052       5.48043109        1        1      -0.00648857      -0.00252514      -0.00471689
Ca      20.14476279      16.40305391       8.61236640        1        1       0.00308221      -0.00078932      -0.00346644
Ca       7.63614095      15.31662845       6.14152873        1        1      -0.00400508      -0.01412319      -0.00338158
Ca       0.77764547      21.90057801       8.48179062        1        1       0.00063803      -0.00325812       0.00624773
Ca       4.39404303      12.96425134       7.38050156        2        1       0.00335083      -0.00238539       0.00384075
Ca      23.08890692      19.55857986       5.71289989        2        1      -0.00384405       0.00356790       0.00152070
Ca      22.48242795      12.04017476       5.07912873        3        1       0.00204839      -0.00520459       0.01098826
Ca      16.65861960      18.96669929       7.11675119        3        1      -0.00798556      -0.00232804      -0.00097100
S        1.38034483      14.23336809       5.52305912        4        1      -0.00237953       0.00328344      -0.00398259
S       19.30216604      19.77204227       9.25169045        4        1       0.00211015      -0.00184992       0.00614687
S       20.24526646      24.05275373       5.93496990        4        1      -0.00359461       0.01339523       0.00165735
S        1.58977032      18.50376581       8.97018207        4        1      -0.00308628       0.00353753      -0.00279770
S       23.10171584      16.72500056       3.90742502        5        1      -0.00325656      -0.00564840       0.00061022
S       16.77914110      22.26520190       7.81218957        5        1      -0.00569003      -0.00002814       0.00683080
S       22.12013247      21.96496069       3.53107433        5        1       0.00165345      -0.00224468      -0.00512860
S        4.43860006      16.08005112       7.70798275        5        1       0.00646441       0.00680042      -0.00893605
S        1.89189982      20.36101135       5.37963322        6        1       0.00343520       0.00308902      -0.00662863
S        7.25125776      13.93508877       9.52707857        6        1      -0.01265432       0.01514914       0.02205580
S       19.73977071      18.24940262       5.31915627        6        1       0.00038446      -0.00499850       0.00479549
S       13.80771818      24.42265996       9.05511470        6        1      -0.00054704       0.00700857       0.00534327
O        2.40341382      13.32198663       6.08852109        7        1      -0.01105355       0.00995448       0.00529417
O       20.04793982      18.51797936       9.52523302        7        1       0.00118404      -0.00028565       0.01610576
O       19.39197739      25.16927968       6.39135883        7        1      -0.01864949       0.01325936      -0.00026035
O        0.78482448      19.71221892       9.27159403        7        1       0.00080406       0.00409112       0.00543202
O        0.34774128      13.34816725       4.93478252        8        1       0.00474024      -0.00949693       0.01118426
O       17.89925695      19.49216045       9.02204380        8        1       0.00428587       0.00111936      -0.00598336
O       21.60452230      24.50412587       5.68859936        8        1       0.00364014      -0.00603234      -0.00800139
O        2.99385973      18.85456284       8.90121207        8        1       0.00318032      -0.00105347       0.00220875
O        1.95692413      15.14490392       4.53325270        9        1       0.00298845       0.00395385       0.00123927
O       19.91927209      20.39039673       8.00977534        9        1      -0.01366545       0.00865707       0.00235430
O       19.61249525      23.37157185       4.77279560        9        1       0.00595043      -0.00293187       0.01537763
O        1.13083279      17.90919671       7.66375569        9        1      -0.00304306       0.00039539      -0.00806436
O        0.78745030      15.09048617       6.57157691       10        1      -0.00509108      -0.00001413      -0.00774759
O       19.54747777      20.72945664      10.32951139       10        1       0.01647915       0.00745137       0.00013610
O       20.28382304      22.99281091       6.97281052       10        1       0.00258689      -0.00014725      -0.01218662
O        1.30017900      17.47959185       9.98736809       10        1       0.00061506       0.01372600       0.00995223
O       22.07279262      15.68888495       4.04925752       11        1       0.00328101       0.00388244      -0.00478515
O       15.76377127      21.67441694       8.68537207       11        1      -0.00714331      -0.01453732       0.00746311
O       22.36542956      23.35748816       3.13696502       11        1      -0.00052344       0.00924362       0.00015289
O        5.16140851      16.84652992       8.73409394       11        1      -0.01049495      -0.00326161       0.00556276
O        5.34189306      15.12643140       7.01112428       12        1       0.00582265      -0.01422421       0.00414379
O       22.51482463      22.02000885       8.29841120       12        1       0.02013694       0.00244019      -0.00286099
O       16.14972564      23.33939095       6.98574700       12        1       0.01077748       0.00435455      -0.01250840
O       22.32637092      16.15727181       9.53410583       12        1       0.00543007       0.00427607       0.00213028
O       23.49046246      17.30912302       5.24489288       13        1      -0.00092677       0.01172550      -0.00380710
O       17.91186394      22.79801736       8.54829559       13        1       0.00083389       0.00210753       0.00481054
O       22.47745827      21.69683959       4.97462091       13        1       0.00479776       0.00163439       0.00846278
O        3.32276591      15.30245665       8.25442656       13        1       0.01027853       0.00668970      -0.00295096
O        1.10475468      19.43566279       4.51259196       14        1      -0.00890359       0.00429773       0.00110166
O        7.54675286      15.12507718       8.73943865       14        1       0.01115151      -0.00589337      -0.00053984
O       19.58180402      17.42320296       4.13899944       14        1       0.00268050       0.00376206      -0.00091106
O       13.31784545      23.56633360       7.96886645       14        1       0.00329679       0.00861473       0.00532093
O        2.31768506      21.56770579       4.70078540       15        1      -0.00244772      -0.00795963      -0.00219843
O        7.38948664      14.44829794       3.97727832       15        1      -0.00195836       0.01433327       0.00063454
O       20.13463969      17.39126131       6.44600197       15        1       0.00194309      -0.00345908       0.00806368
O       15.46845993      23.64714502       3.82607006       15        1       0.00016104       0.00229557       0.00081570
O        3.02509998      19.56640415       5.87522761       16        1       0.01156351       0.00660125       0.00292387
O        8.38929503      13.02716506       9.58494490       16        1      -0.00301043       0.01021603       0.00037366
O       18.49131994      18.99603840       5.63856085       16        1      -0.00269126       0.00467288      -0.00805509
O       12.78035090      25.32357087       9.58664698       16        1      -0.00566471      -0.00714655      -0.00252097
O        0.96256249      20.70443118       6.49590632       17        1       0.01019091       0.00001456      -0.00840269
O        6.05566849      13.20860117       9.12288786       17        1      -0.00883699      -0.00775336      -0.02389980
O       20.77026413      19.32737085       5.11854274       17        1      -0.00420505      -0.00261274      -0.00838703
O       14.96936442      25.25091793       8.70073101       17        1      -0.00243355       0.00720954      -0.00931515
O        3.94441188      17.06281309       6.69353283       18        1      -0.01879118       0.01528948       0.00285312
O       22.74783105      22.15763573       9.64715666       18        1      -0.00492773       0.00324877      -0.00075314
O       17.25032820      21.23855606       6.81691313       18        1      -0.00664605      -0.00058366       0.00560049
O       22.55310364      16.66477069       8.14568938       18        1      -0.00982238      -0.01032946       0.00277270
O        5.20276813      12.59225625       5.07583461       19        1      -0.00027754      -0.00363027      -0.00835411
O       22.38397078      19.18448956       7.79872038       19        1       0.00168230       0.00297446       0.00843957
O        0.35292248      23.39709666       6.46627045       20        1       0.00943123       0.00304372      -0.00353110
O        6.11400768      14.78267318       4.32181981       20        1       0.00708873       0.00521145       0.00269565
O       21.14086428      14.95353738       7.02485230       20        1       0.00117049       0.00216058      -0.00731659
O       16.02846143      22.39525998       4.38599303       20        1       0.00476304       0.01280816       0.00749963
H        0.01753585      24.28905752       6.66623734       21        1       0.00092088       0.00442460      -0.00378902
H        5.66646538      13.86670409       4.57668299       21        1      -0.00488855      -0.00499470       0.00752215
H       21.90419515      15.57938999       7.26740937       21        1       0.00146308       0.00831878       0.00396157
H       16.69629182      22.73677092       5.00477555       21        1       0.00176995      -0.00161656      -0.01013278
H       23.69545914      22.95375495       5.98786433       22        1      -0.00083114      -0.00243137       0.00126949
H        7.01479676      14.38278481      10.79298110       22        1       0.01642546      -0.01717948      -0.00358135
H       21.38982958      14.03730265       7.29406968       22        1       0.00154251       0.00364018      -0.00146633
H       14.21246967      23.60650321      10.06241481       22        1       0.00036874      -0.00628585       0.00684723
H        5.98875115      12.00537888       5.01969366       23        1      -0.00470050       0.00907285       0.00033061
H       22.41864426      18.18689711       7.98206849       23        1       0.00120328      -0.00192125      -0.01146522
H       16.61206430      24.67850505       4.05731323       23        1       0.00169462      -0.00008049       0.00354567
H       21.47075944      19.50105497       7.93597695       23        1       0.00437467       0.00091252      -0.00568884
O       13.45039852      13.62132294      15.01544644        0        0       0.02876042      -0.00647806      -0.05688131
H       12.74931133      13.71636103      15.70597250        0        0       0.00863084      -0.00126480       0.00671515
H       12.95757404      13.58899277      14.17783217        0        0      -0.01720180      -0.00740181       0.05115963
O       17.67355864      11.43463794      13.91030983        0        0      -0.03269007      -0.01931958      -0.03508988
H       17.05328396      12.15910592      13.54386451        0        0       0.01751110      -0.00960983       0.00599937
H       18.33322913      11.80682994      14.53391364        0        0       0.00820315       0.00028295       0.02233287
O       13.74790918      10.91829703      15.06588967        0        0      -0.01157413       0.04867814       0.02105746
H       13.80487056      11.88078966      15.27868875        0        0       0.02780706      -0.04541631      -0.00057261
H       14.62704688      10.50592879      15.22517103        0        0      -0.02939655       0.00516160      -0.02932880
O       12.19850943      11.92795226      13.04107083        0        0       0.03296922       0.01794068      -0.00923818
H       11.26529379      11.87230335      13.34558439        0        0      -0.00952947      -0.02658959       0.00633023
H       12.75956601      11.42907616      13.66964291        0        0      -0.00688836      -0.01009529       0.00108553
O       19.10638617       9.95014836      12.30528306        0        0      -0.07588880       0.01758261       0.00850574
H       19.84184213       9.62518173      12.85183261        0        0       0.01590909       0.01268075       0.02212548
H       18.58214148      10.56760582      12.89712068        0        0       0.04036925      -0.03628589      -0.01509134
O       16.17134705       9.53696780      15.05385670        0        0       0.00834796       0.00993654      -0.05900006
H       16.70090312      10.25639583      14.61815242        0        0      -0.00466942      -0.03806614       0.01428034
H       15.60876982       9.05608989      14.34330544        0        0      -0.00996299       0.03094257       0.04691535
O       19.74287174      11.65861241      15.65507482        0        0       0.02364461      -0.11060644      -0.02501025
H       19.40722504      11.36156005      16.50728640        0        0       0.02987334       0.06719769       0.02586343
H       20.16210477      10.85381379      15.27762102        0        0      -0.04876168       0.02568121       0.02351638
O       14.45412336       8.04147535      10.50103824        0        0       0.08911799      -0.11245531      -0.02288172
H       13.57627921       7.76010047      10.91190288        0        0       0.02142188      -0.00809285      -0.00377144
H       15.04981942       7.28161997      10.77878989        0        0      -0.07623729       0.10970924       0.03327040
O        9.51330563      11.89243616      16.01674383        0        0       0.02292061      -0.00782794       0.00588390
H        8.65178349      12.02116560      16.42460796        0        0      -0.02243118      -0.02491649      -0.01945422
H        9.36034585      11.83818187      15.01372028        0        0       0.00193143       0.01457954       0.00684660
O       11.44857686      13.57743413      16.80114046        0        0       0.06020323       0.01152806       0.01803447
H       11.66246546      13.39143844      17.71984124        0        0      -0.06836171       0.01954009       0.00822621
H       10.69587003      12.98910951      16.55523533        0        0      -0.00987188      -0.03573796      -0.01966626
O       11.94250934       7.09495192      16.16810819        0        0       0.00740448      -0.00237621      -0.03933467
H       11.91844470       6.65436003      15.29275176        0        0      -0.02194021       0.02279370       0.03510337
H       10.98075309       4.75170096      10.76039779        0        0       0.00165928       0.00597985       0.11460361
O       18.31978236       7.77751937      14.81019243        0        0       0.01597659       0.00697934      -0.03694341
H       17.54888118       8.37917327      14.91520370        0        0      -0.01471036       0.00954653       0.01282636
H       18.27336247       7.37016262      13.91349554        0        0      -0.00508551      -0.01376075       0.04445680
O       18.14214487       6.10905813      12.67810254        0        0      -0.00444220      -0.06515743       0.11370922
H       18.83085303       5.79460313      12.06960922        0        0      -0.04203057       0.09482057      -0.06277491
H       17.96805419       5.44265016      13.41684417        0        0       0.03030433      -0.03009587      -0.03706576
O       20.49181616       9.22349802      14.58088248        0        0       0.01144739      -0.00874411       0.01546131
H       21.30217190       8.76865811      14.82986924        0        0      -0.02646641       0.00513261      -0.01084620
H       19.72014728       8.60954047      14.77247056        0        0       0.00105392       0.02361139       0.00273090
O       14.31346359       5.02185816      14.70918525        0        0      -0.04750463      -0.02850678      -0.03520877
H       13.58809462       5.39475381      14.13624388        0        0       0.03021387      -0.00904474       0.04972627
H       13.89185422       4.29830211      15.18866092        0        0       0.00994658       0.02967855      -0.03074322
O       12.77774517      13.90189895      10.57418968        0        0       0.01211172      -0.01418609       0.00304472
H       11.86881562      13.85645826      10.96363839        0        0      -0.00502412      -0.01138154       0.00578140
H       13.20860379      13.06939915      10.84010823        0        0      -0.00475673       0.01286808      -0.00841975
O       10.23170836      13.64687873      11.49913995        0        0       0.01425284      -0.00986434       0.00539482
H        9.95432718      13.11542624      12.26598449        0        0      -0.01292031       0.00417075      -0.00358922
H        9.62102206      13.35213445      10.79990852        0        0      -0.00009472       0.01122776      -0.00496648
O       15.61425269       6.01500956      11.71359773        0        0       0.03235477      -0.10742622       0.05266924
H       15.39781187       5.20093885      11.22642619        0        0       0.00549104       0.09187108       0.05374877
H       16.58864556       6.02740044      11.88222136        0        0      -0.05104919       0.02409899      -0.10480170
O       16.62544082       9.76399412      11.20682264        0        0       0.07054788      -0.07640410       0.05945921
H       15.86517594       9.23197086      10.89408280        0        0      -0.04428214       0.05642730      -0.03342100
H       17.11290309       9.15436495      11.78554041        0        0      -0.01874661      -0.00039623      -0.02643518
O        6.12025510      11.72543025      11.54115294        0        0      -0.00713925       0.00820367       0.00007216
H        6.32463879      11.24638218      12.36814815        0        0      -0.00124802      -0.00879579      -0.01215478
H        5.20041366      12.00718772      11.54167839        0        0      -0.00575808       0.00394217      -0.00987997
N       15.84074252      13.09600881      12.97341033        0        0      -0.00116161      -0.01186311      -0.03628217
H       16.11680908      14.02719947      12.68433426        0        0       0.01561893       0.01727796      -0.00343513
H       15.13817547      13.22482492      13.69671353        0        0      -0.01171906      -0.00824853      -0.00608641
H       15.40066669      12.63526868      12.17748882        0        0      -0.00028978      -0.01157105       0.04835446
N       14.54281317       8.20665057      13.48895434        0        0       0.05268394      -0.01780188      -0.01140326
H       14.26391612       8.75016890      12.67672461        0        0      -0.01373866      -0.04150724       0.04360652
H       13.68623960       7.93713791      13.97093361        0        0       0.00327911       0.01051916      -0.00501748
H       14.90760972       7.32968020      13.10558538        0        0      -0.03094729       0.03937308      -0.02613527
N       17.23853649       4.92969285      14.83759692        0        0      -0.01079799       0.05051485      -0.04143730
H       17.46289727       4.09000012      15.35475847        0        0       0.00697518       0.00542912      -0.02931121
H       16.23585201       4.93371171      14.62756174        0        0       0.00710085      -0.05061742       0.08793275
H       17.46286214       5.73548199      15.41641252        0        0      -0.00881103      -0.03315035      -0.02073111
N       11.73575677      10.09779805      10.95341759        0        0      -0.12453978       0.05551006      -0.05698923
H       10.75268936      10.29076363      10.67712213        0        0       0.07531905      -0.02904823       0.17016352
H       11.98206109      10.78547438      11.68778515        0        0       0.08511999      -0.07794859      -0.06796900
H       12.38452023      10.19252155      10.16768539        0        0      -0.05725156      -0.00068408      -0.00704232
H       11.77594864       9.13366078      11.33661468        0        0      -0.00972892       0.02371903      -0.02844308
N       11.20984555       9.57201484      15.43874447        0        0      -0.02300675      -0.06296991       0.01919748
H       10.78330278       9.44444037      14.48206039        0        0      -0.02440014       0.00376600       0.03032365
H       10.55588614      10.13738674      15.98584071        0        0       0.04002372      -0.01820683       0.00574619
H       12.10542645      10.07701156      15.36897104        0        0       0.00306764       0.01948714       0.00250074
H       11.41021947       8.60959441      15.85390911        0        0       0.00612954       0.03087463      -0.07187938
N       22.67061740      18.54690485      10.64538467        0        0      -0.00957465      -0.00138944       0.00282227
H       23.34091688      19.08049896      10.06260835        0        0       0.00354158      -0.00821880       0.00857395
H       22.59272693      17.53412538      10.27329175        0        0       0.01235198      -0.00040026      -0.00212182
H       21.73049551      18.94495285      10.57150330        0        0       0.00712160       0.00880624       0.00194523
H       23.00802407      18.53464339      11.60032346        0        0      -0.00381792       0.00165518      -0.00603727
N       14.65880356       7.26087870      16.67025472        0        0       0.02753718      -0.00024746       0.01150005
H       14.87515700       6.46358048      16.06788155        0        0      -0.02983448       0.02463639       0.02688369
H       12.90877520       7.16270748      16.39520999        0        0      -0.00675396      -0.00497632      -0.01382211
H       15.22612830       8.05362490      16.38666890        0        0      -0.01138942      -0.05239222       0.02629801
H       14.90495219       7.01869372      17.62356226        0        0       0.01419387       0.01622071      -0.06841108
P        9.05252123      10.40881142      12.67053945        0        0       0.07397606       0.00636897       0.03526265
O        9.05197720      10.69330022      11.17718031        0        0      -0.01837164      -0.10452104       0.14470434
O        9.39239720      11.65597001      13.48792851        0        0       0.02598665      -0.06562287      -0.12613006
O        9.94685450       9.24387612      13.05340037        0        0      -0.10709117       0.08718055       0.04264291
O        7.53370505      10.03307034      13.08708057        0        0       0.03532674       0.03536680       0.04867971
H        7.21385466       9.25982890      12.59048109        0        0      -0.00952953      -0.01819246      -0.05096546
P       11.50300383       6.32169520      12.27490007        0        0      -0.01780001       0.03590086       0.04005387
O       12.07135907       7.39500955      11.32803401        0        0      -0.08738681      -0.03031373       0.06690797
O       12.27837352       6.22914687      13.56026674        0        0      -0.00361570      -0.00586637      -0.14836810
O       11.50208832       4.91120157      11.61307296        0        0      -0.01201659       0.08943006      -0.11674356
O        9.99555858       6.67972983      12.52742248        0        0       0.08078698      -0.06126704      -0.00526455
H        9.86262488       7.64501820      12.74820940        0        0       0.00462761       0.03226574      -0.04489319
