     488
 i =        0, time =        0.000, E =     -6463.2228228093
  S         0.0002689339       -0.0001452998       -0.0000410157
  S         0.0001070203       -0.0000578442       -0.0000744878
  S        -0.0000465090       -0.0001001363       -0.0001572453
  S         0.0003425997       -0.0002273045        0.0001200269
  S         0.0003202395       -0.0001123045        0.0000487246
  S         0.0001204485       -0.0001058397        0.0002263179
  S         0.0000194564       -0.0001035266        0.0001428853
  S        -0.0002260295       -0.0001792903       -0.0001191309
  S        -0.0001680860        0.0001638609       -0.0001475854
  S        -0.0000145140        0.0003372872       -0.0001019970
  S        -0.0000508279        0.0002770129       -0.0001055048
  S         0.0001371627       -0.0000444236        0.0002062748
 Ca         0.0000195600        0.0000621905       -0.0001713368
 Ca        -0.0000853835       -0.0000257152        0.0001353338
 Ca        -0.0000015644        0.0002686081        0.0000090509
 Ca         0.0003015613        0.0000954079        0.0000464104
 Ca         0.0000052339       -0.0002040886        0.0001651927
 Ca        -0.0000297741        0.0000683300        0.0000574903
 Ca         0.0001009983        0.0000115703       -0.0000274336
 Ca        -0.0000789777        0.0001386599        0.0000735750
 Ca         0.0001031022       -0.0000090530        0.0003039177
 Ca        -0.0001473101        0.0000108878       -0.0000595377
 Ca         0.0002310172        0.0000119647       -0.0000800917
 Ca        -0.0003872604       -0.0000292012        0.0000252505
  O        -0.0002260347        0.0001953616       -0.0001396602
  O         0.0003602326        0.0002418362        0.0003066521
  O         0.0001397165       -0.0003395659        0.0001171635
  O         0.0000989728        0.0000246539        0.0000124952
  O        -0.0003665843       -0.0000419505        0.0001460139
  O        -0.0002753850        0.0000196072       -0.0000831241
  O        -0.0000025716        0.0003049210        0.0002186871
  O        -0.0001393491        0.0001477030        0.0002386532
  O         0.0004902971        0.0002708220        0.0002827836
  O         0.0000975389       -0.0002060200       -0.0001629498
  O         0.0004536801        0.0001735505       -0.0001492603
  O        -0.0002682944       -0.0002422099        0.0000421902
  O        -0.0003784384        0.0002005298       -0.0001010415
  O        -0.0000899505        0.0004206269        0.0001264778
  O         0.0000234127       -0.0000597855       -0.0000059436
  O        -0.0003242710       -0.0000031068        0.0000357163
  O         0.0000604310        0.0000390124       -0.0003647328
  O        -0.0001001082       -0.0002377369       -0.0001246175
  O        -0.0001095233       -0.0000991014       -0.0000902027
  O         0.0000798202       -0.0001363382       -0.0000181025
  O        -0.0003632394       -0.0003725928       -0.0000144928
  O        -0.0000440343       -0.0001107554       -0.0002223509
  O         0.0001582123        0.0000676006       -0.0004693657
  O         0.0001278971        0.0003466721        0.0000014149
  O        -0.0003368884       -0.0000506885       -0.0000846032
  O         0.0001655741       -0.0001060704        0.0000770540
  O         0.0001499020       -0.0000050993       -0.0000088490
  O         0.0002800912       -0.0002265986        0.0002668210
  O         0.0001403213        0.0004914007        0.0002347576
  O         0.0000334141        0.0000340453        0.0000536823
  O        -0.0003405925       -0.0000577897       -0.0003898636
  O        -0.0001740741       -0.0002099994       -0.0000466792
  O         0.0003030877       -0.0000404219       -0.0001232650
  O         0.0004319456       -0.0000999746        0.0003108399
  O         0.0000686590       -0.0000210826        0.0003210979
  O         0.0000904445       -0.0000976370       -0.0000842156
  O        -0.0000963791        0.0001671438        0.0002513634
  O         0.0001301460       -0.0002441422        0.0000323346
  O        -0.0000255434        0.0000481641       -0.0000854095
  O         0.0002495564       -0.0001792618        0.0001836531
  O        -0.0001991306        0.0002196189       -0.0003146573
  O         0.0000434775       -0.0001870125        0.0003069515
  O        -0.0001538719        0.0001819528        0.0002902454
  O         0.0003019517        0.0001725346        0.0003715156
  O         0.0001353201        0.0000615294        0.0000425062
  O         0.0002470847        0.0000753144       -0.0005376828
  O         0.0001846726        0.0002242983        0.0005164808
  O        -0.0000024967       -0.0002074568       -0.0001188827
  O         0.0001584821       -0.0003998686        0.0001525163
  O        -0.0001340074        0.0003333821       -0.0001843996
  O        -0.0001808458       -0.0001335883       -0.0001075905
  O        -0.0001658066       -0.0004174626       -0.0000856610
  O        -0.0002083086       -0.0003344591        0.0004237776
  O        -0.0001226784        0.0000255496       -0.0003361034
  O         0.0001024346       -0.0000649809       -0.0002714401
  O         0.0000579124        0.0004776727       -0.0001267626
  H        -0.0004473163        0.0008024754        0.0017915783
  H        -0.0017600343        0.0003899629       -0.0009000349
  H        -0.0001184891       -0.0015918060       -0.0000240816
  H        -0.0005474754        0.0010875089        0.0007950778
  H        -0.0009237720       -0.0003543372       -0.0004728984
  H        -0.0003438511        0.0004608407        0.0009008139
  H        -0.0000939097        0.0014633309       -0.0001328107
  H         0.0007886708       -0.0007122131        0.0005669683
  H         0.0015641923        0.0010390013       -0.0009519896
  H        -0.0002262455        0.0005474825       -0.0002276770
  H        -0.0005932724       -0.0000107804       -0.0009591236
  H         0.0004549938        0.0001609881        0.0000773377
  H        -0.0003178340        0.0000406749       -0.0017893013
  H        -0.0002928921        0.0006204575       -0.0008589877
  H        -0.0009423224        0.0002118578        0.0012301079
  H         0.0003560026        0.0002306703       -0.0001893528
  S         0.0001427436        0.0000842560       -0.0002415530
  S         0.0000793026        0.0001208399       -0.0001449914
  S         0.0000035267        0.0001037842       -0.0000024351
  S         0.0000134345       -0.0001472978        0.0000290490
  S        -0.0001642162       -0.0001331493       -0.0000722163
  S         0.0001918267       -0.0001235581       -0.0000636605
  S         0.0000568534       -0.0001736127       -0.0000628248
  S         0.0000800565       -0.0000543257       -0.0000174654
  S         0.0004636343        0.0001594195        0.0000042551
  S        -0.0002606196        0.0000892374        0.0002363829
  S         0.0001755231       -0.0003292058        0.0002234226
  S        -0.0002446653        0.0001695149       -0.0000284909
 Ca        -0.0000093576        0.0000109366        0.0001129152
 Ca         0.0001894382       -0.0000617501        0.0001621757
 Ca         0.0001712389       -0.0001877042       -0.0000744858
 Ca         0.0002207083        0.0002042969        0.0001099050
 Ca        -0.0003834939       -0.0000930605       -0.0000054683
 Ca         0.0000715745       -0.0000275928        0.0001390350
 Ca        -0.0003115255        0.0001649792       -0.0003168832
 Ca         0.0001326261       -0.0000218832       -0.0002096922
 Ca         0.0000148656       -0.0001443144       -0.0000522267
 Ca         0.0001191056        0.0001279124        0.0000342450
 Ca         0.0000084169        0.0001051338       -0.0002480871
 Ca         0.0002210093       -0.0001253482        0.0000439280
  O         0.0001088894       -0.0001116868        0.0001434997
  O        -0.0000097881       -0.0002206369        0.0000992334
  O         0.0000437841       -0.0002166489       -0.0000442592
  O         0.0001202413        0.0004235729       -0.0001604216
  O        -0.0001752502        0.0000678292       -0.0001407861
  O         0.0002843683       -0.0001024303        0.0002701980
  O        -0.0002071959       -0.0003217383       -0.0002567923
  O         0.0001239238       -0.0000639301        0.0000466107
  O         0.0002658993       -0.0003305322       -0.0002436071
  O        -0.0000950627       -0.0002574987        0.0001577390
  O        -0.0002342230        0.0003380025        0.0000352412
  O        -0.0000096299       -0.0000748460       -0.0000071858
  O         0.0004672066        0.0002495832       -0.0002465623
  O        -0.0000611782        0.0002437161        0.0002187300
  O        -0.0000404841        0.0000540204       -0.0000441140
  O        -0.0002116730       -0.0001161936        0.0002166071
  O        -0.0000319029        0.0001542792       -0.0000101204
  O         0.0001416467        0.0003619189        0.0000336242
  O        -0.0000119936        0.0000650680        0.0000622655
  O         0.0003950668        0.0001653899        0.0001950304
  O         0.0001546203        0.0000561153        0.0004822836
  O        -0.0000408600        0.0001084830       -0.0001094713
  O         0.0004046651        0.0001299987        0.0000081586
  O         0.0001796470       -0.0000324706       -0.0002566268
  O        -0.0003376761       -0.0001140381       -0.0001589138
  O        -0.0001829219        0.0000267319       -0.0000861623
  O         0.0000218248        0.0000422675        0.0000791344
  O        -0.0003533106       -0.0001681769       -0.0001660371
  O         0.0001499684       -0.0000873456        0.0002265233
  O         0.0000402994       -0.0001377400       -0.0000398311
  O         0.0002322006        0.0003725117       -0.0004789431
  O         0.0002554020        0.0001647608        0.0000463096
  O        -0.0000991324       -0.0002176583       -0.0000622504
  O        -0.0002547975       -0.0003149701       -0.0001198366
  O        -0.0001093567       -0.0002686554        0.0003929918
  O        -0.0000992706       -0.0004651607        0.0003043992
  O         0.0000184167        0.0003295482       -0.0001834419
  O        -0.0001437848       -0.0003013076       -0.0000071267
  O         0.0000263129       -0.0005761440       -0.0000695500
  O         0.0001373730       -0.0002271962        0.0000374624
  O         0.0005593937        0.0000208926        0.0001978630
  O        -0.0001260516        0.0002135861        0.0002587003
  O         0.0000172556        0.0001824193       -0.0001864503
  O        -0.0002312209        0.0002283175        0.0001246394
  O        -0.0002898864       -0.0000330437       -0.0002466037
  O        -0.0002689994       -0.0002409407       -0.0003280572
  O         0.0002812589        0.0000046287       -0.0000127725
  O         0.0000446097       -0.0000208582        0.0000424877
  O        -0.0000960132        0.0000440375       -0.0002679190
  O        -0.0002472572       -0.0001577643       -0.0000031247
  O         0.0001092395       -0.0001146083       -0.0002575574
  O        -0.0003277067        0.0000211017        0.0002805385
  O        -0.0001044360        0.0006434776       -0.0000269851
  O        -0.0000335517       -0.0001006502        0.0002281749
  O         0.0003244646        0.0002115526       -0.0002386164
  O        -0.0002245621       -0.0003609444       -0.0000299593
  H         0.0018667065        0.0002802123        0.0012242022
  H         0.0001151767        0.0009820459        0.0000706566
  H        -0.0006793652        0.0007798223       -0.0009441334
  H        -0.0004346221        0.0007521340        0.0002634394
  H        -0.0006501687        0.0006869525       -0.0005997737
  H         0.0010792081        0.0000209639       -0.0002704481
  H         0.0003135434        0.0001287462       -0.0002879612
  H        -0.0014855864       -0.0006602407       -0.0003902836
  H         0.0004102945        0.0004142637       -0.0004344649
  H        -0.0008130475        0.0011301309        0.0003462283
  H         0.0035669750       -0.0008725561       -0.0001688456
  H         0.0012922670       -0.0006212468        0.0012221391
  H         0.0011053330        0.0005788921        0.0003325994
  H        -0.0002187802        0.0002546662        0.0010292122
  H         0.0012234608        0.0012774048       -0.0011092697
  H        -0.0002793902        0.0010307664        0.0000397874
  S        -0.0001498352        0.0000408615        0.0000881790
  S         0.0000617052        0.0001376945       -0.0003844558
  S        -0.0003425950        0.0000551935        0.0002703391
  S        -0.0000409502        0.0000145980       -0.0002110154
  S         0.0003061492        0.0000882214       -0.0001215191
  S         0.0000159569       -0.0003529800        0.0002470806
  S         0.0001259839        0.0000006596        0.0003788696
  S        -0.0000365842        0.0000857317       -0.0001283421
  S         0.0000414105       -0.0002467347       -0.0001935311
  S         0.0001566453       -0.0000584323        0.0002736533
  S        -0.0001795054        0.0000126024       -0.0004572104
  S        -0.0003772764        0.0000669258       -0.0000232265
 Ca        -0.0002041849       -0.0001986508        0.0001457316
 Ca         0.0000257705       -0.0002671172        0.0002787227
 Ca        -0.0000028921       -0.0000967536        0.0000434161
 Ca         0.0000067290        0.0001993822        0.0001219289
 Ca        -0.0001862589       -0.0000207163       -0.0001489621
 Ca         0.0002760359        0.0000713785       -0.0001602988
 Ca        -0.0002044134        0.0001836107        0.0001245115
 Ca        -0.0000479936       -0.0000813482       -0.0002246129
 Ca        -0.0001202663        0.0000312769       -0.0000565345
 Ca        -0.0000449663       -0.0001205834        0.0000727287
 Ca         0.0000283053        0.0001323673       -0.0000890980
 Ca         0.0000367309       -0.0001317495        0.0001341213
  O        -0.0001784123        0.0003107934        0.0000631837
  O         0.0001429943        0.0001673420       -0.0000394087
  O        -0.0003002573        0.0003180568        0.0000411594
  O        -0.0000369933        0.0000856225       -0.0001397991
  O         0.0002933240       -0.0000725925       -0.0003209961
  O        -0.0001694384        0.0000305241       -0.0001549320
  O         0.0003949684        0.0000440327        0.0001805666
  O        -0.0001511484        0.0001284597        0.0003144254
  O         0.0000609393        0.0000106708        0.0001667085
  O         0.0002047725       -0.0001515549        0.0001852301
  O         0.0000192571        0.0001193534       -0.0001995150
  O        -0.0000880170        0.0000774908        0.0001083718
  O        -0.0004801339        0.0000134837        0.0000456292
  O         0.0004553029       -0.0001140980       -0.0001245868
  O        -0.0001073623       -0.0001247201       -0.0001972444
  O        -0.0000370711       -0.0001417393       -0.0000408856
  O        -0.0000867853        0.0001669023       -0.0000283526
  O         0.0001054445        0.0001318935        0.0000506757
  O         0.0003052141       -0.0000919291       -0.0000500113
  O         0.0002729024       -0.0000210817        0.0001533772
  O        -0.0000302075       -0.0001370438        0.0003255517
  O         0.0002285330        0.0000209286       -0.0001888064
  O         0.0004434176       -0.0002186696        0.0001780791
  O         0.0001735282        0.0001922251        0.0000542210
  O        -0.0002767029        0.0002356437       -0.0000275502
  O        -0.0002372793        0.0000732154       -0.0001164774
  O         0.0000769941       -0.0000389169        0.0000929129
  O        -0.0002266820       -0.0000075497       -0.0003323838
  O        -0.0003143545        0.0002475280       -0.0000018189
  O         0.0000008762        0.0001945984       -0.0000039902
  O         0.0000511510       -0.0000229730       -0.0001102305
  O        -0.0002568682        0.0001198033       -0.0000092249
  O        -0.0002806119       -0.0004403362       -0.0002918267
  O         0.0001194264       -0.0003754836        0.0000534077
  O        -0.0001754341       -0.0000810173        0.0001690115
  O         0.0000554869        0.0001561151        0.0003896935
  O         0.0003715369        0.0001016865       -0.0001786237
  O        -0.0000485048       -0.0001390120        0.0003728408
  O         0.0000514380        0.0003324365        0.0000752241
  O         0.0000017805        0.0002864288        0.0000720404
  O        -0.0000666967        0.0001237268        0.0004634160
  O         0.0000340093        0.0001374624       -0.0000193996
  O        -0.0000860270       -0.0001626471       -0.0001433046
  O         0.0003516787       -0.0001451353       -0.0004700411
  O         0.0003989748        0.0001372076        0.0000792840
  O        -0.0000798633       -0.0001208767        0.0000441661
  O         0.0000923046        0.0001584790        0.0002797342
  O         0.0001683425        0.0000759059       -0.0000747370
  O        -0.0001953732        0.0001643134        0.0003367599
  O         0.0002621196       -0.0001254820       -0.0002759918
  O        -0.0001507164        0.0004306092       -0.0000944197
  O        -0.0002182937        0.0003048413       -0.0001840265
  O        -0.0004652579       -0.0002335463       -0.0000444040
  O        -0.0000128444       -0.0001380828       -0.0001036791
  O         0.0000683940       -0.0001093809       -0.0002651147
  O        -0.0001021237        0.0000268028        0.0000159239
  H         0.0010735096       -0.0013904610        0.0001452763
  H        -0.0004544192        0.0019619154        0.0008232800
  H        -0.0002157844       -0.0004465112        0.0013517152
  H        -0.0002351323       -0.0003125922       -0.0010384335
  H        -0.0012560775        0.0005375668       -0.0001346596
  H         0.0000289869       -0.0004759489       -0.0004919116
  H         0.0013282489       -0.0004622558        0.0011963767
  H         0.0002759349       -0.0004638343       -0.0006660896
  H         0.0009142238       -0.0004732065        0.0009406756
  H        -0.0009421259       -0.0004454498       -0.0002577529
  H        -0.0009607317       -0.0000740841       -0.0002165555
  H         0.0008540993       -0.0007149185       -0.0005252055
  H         0.0000850431        0.0011445237       -0.0002104007
  H        -0.0003870213       -0.0008002014       -0.0002922279
  H        -0.0011339339       -0.0002735744       -0.0016129532
  H        -0.0007916689       -0.0010615727       -0.0008621109
  S         0.0000199296        0.0001233452        0.0000172529
  S        -0.0002574243       -0.0000090648       -0.0000741959
  S         0.0004582214       -0.0000948544       -0.0000882369
  S        -0.0000734669        0.0000927571       -0.0000176529
  S         0.0004382170        0.0000833554        0.0002442732
  S        -0.0002431482       -0.0001088685       -0.0000969678
  S        -0.0002248381        0.0003197408        0.0001119436
  S        -0.0001890240        0.0001137535       -0.0002843608
  S        -0.0000578622       -0.0000110401        0.0000605849
  S        -0.0000650442        0.0001896254        0.0000484076
  S        -0.0001386408       -0.0001317032       -0.0000212842
  S         0.0000327380       -0.0000311321        0.0001089497
 Ca         0.0000560214        0.0000471132        0.0000040620
 Ca         0.0001496429        0.0000808634       -0.0002273970
 Ca         0.0000254433        0.0002028718       -0.0000277617
 Ca         0.0001231100       -0.0000140020        0.0001433549
 Ca        -0.0001353562       -0.0002030770        0.0000516224
 Ca        -0.0000302558       -0.0000732900       -0.0000586268
 Ca         0.0000483751        0.0000602942       -0.0000494829
 Ca        -0.0002090722       -0.0002264264       -0.0000336791
 Ca         0.0000279994       -0.0001324316       -0.0003318942
 Ca         0.0000337628        0.0000137639        0.0000167742
 Ca        -0.0000958786       -0.0000592347       -0.0000999785
 Ca        -0.0000177580        0.0001660175        0.0001601060
  O        -0.0000942743        0.0002144799        0.0001959975
  O         0.0000264954       -0.0000024180        0.0000772592
  O         0.0000386388        0.0000937629       -0.0000991028
  O         0.0001622900       -0.0000534200        0.0001092400
  O         0.0001650167       -0.0001085380        0.0000563653
  O         0.0003631112        0.0004614127       -0.0000286508
  O        -0.0002501236        0.0001569084       -0.0000710679
  O        -0.0001209701       -0.0001375283       -0.0004849813
  O        -0.0001002008        0.0000364853       -0.0002955759
  O        -0.0000034728        0.0003367793       -0.0004214188
  O        -0.0005069642        0.0001911776       -0.0000683447
  O         0.0001239339       -0.0000771874       -0.0000498024
  O        -0.0003846476       -0.0000234539        0.0003509012
  O        -0.0000964409       -0.0002375165       -0.0001621868
  O         0.0004762067        0.0000702508        0.0001412774
  O        -0.0002141420        0.0002474462        0.0000033764
  O        -0.0001706488        0.0003736546        0.0003441878
  O        -0.0000133832       -0.0002305322        0.0004166686
  O        -0.0003643119       -0.0000143914        0.0000346796
  O        -0.0000988824       -0.0000974528       -0.0002256600
  O         0.0002280924       -0.0000906409       -0.0001276319
  O         0.0002940574        0.0001684455        0.0004148499
  O         0.0001786621       -0.0000993609       -0.0000180809
  O        -0.0000949100       -0.0002768415        0.0001458249
  O         0.0000771985       -0.0000406028        0.0002224926
  O        -0.0002615653       -0.0001582049       -0.0005453619
  O         0.0000480077       -0.0000960420        0.0003271518
  O        -0.0000010533       -0.0001676246       -0.0000220611
  O        -0.0001980474        0.0001343430        0.0001880483
  O         0.0001499398       -0.0000363516       -0.0000146551
  O        -0.0002301334        0.0000066963       -0.0000032744
  O        -0.0002514710       -0.0003449982       -0.0005952912
  O         0.0002504667        0.0002175437        0.0000521465
  O        -0.0000105012       -0.0003702674       -0.0003471895
  O        -0.0004237531       -0.0002886674        0.0001315629
  O         0.0000302830        0.0003173142        0.0000028735
  O         0.0003063066       -0.0000690465        0.0000734236
  O        -0.0002440308       -0.0005676296       -0.0002120854
  O        -0.0000311280        0.0000316126        0.0002119746
  O         0.0002413063        0.0001747982       -0.0002348274
  O         0.0005422293       -0.0003423560        0.0001750486
  O        -0.0001629071        0.0001056080       -0.0002570484
  O         0.0000201252       -0.0001056176       -0.0005122394
  O        -0.0001479733        0.0000420584        0.0000848966
  O         0.0000478866       -0.0003262418        0.0002840355
  O        -0.0002199011        0.0001825730        0.0001926897
  O        -0.0000881332       -0.0002160634        0.0002982286
  O        -0.0002425422       -0.0002336596        0.0002625785
  O        -0.0002507560        0.0002000070        0.0003739801
  O         0.0003191604       -0.0003598494        0.0000648716
  O        -0.0002965717        0.0001136036       -0.0001416848
  O        -0.0001096847        0.0001217208       -0.0002357657
  O         0.0003933423        0.0000679787        0.0005057330
  O        -0.0002763422       -0.0002276526       -0.0000262842
  O         0.0000941561        0.0005566846       -0.0002072771
  O        -0.0001012962        0.0004400855        0.0001061475
  H         0.0002866109        0.0008776183        0.0018206010
  H        -0.0011682065       -0.0006549662       -0.0003670937
  H        -0.0005522663        0.0004329000        0.0005628139
  H        -0.0013394536       -0.0001784248        0.0011055430
  H         0.0011267922        0.0000219780       -0.0007095505
  H        -0.0018470457        0.0004765967       -0.0005270370
  H        -0.0020940939        0.0000075566        0.0003714082
  H         0.0000121938        0.0006267004       -0.0004109201
  H        -0.0010364864        0.0005419891        0.0001481585
  H        -0.0000442640       -0.0008315573        0.0010128061
  H         0.0013489794        0.0009704411        0.0006335513
  H         0.0002046592       -0.0009189156        0.0007738234
  H         0.0011936136       -0.0001570030       -0.0005494423
  H         0.0005563904        0.0005703791       -0.0011792677
  H         0.0001131843        0.0007867373       -0.0004321187
  H        -0.0011563139        0.0002308166        0.0015329259
  O        -0.0002113986       -0.0000139909        0.0001610109
  H        -0.0001644706       -0.0011741006       -0.0003535436
  H         0.0004393953       -0.0001316442       -0.0003134042
  O         0.0001828284        0.0000823802        0.0001688011
  H        -0.0004196620       -0.0017094803       -0.0000447939
  H         0.0003415719        0.0001753690        0.0006326651
  O        -0.0001551856        0.0001334205       -0.0001300819
  H         0.0017121088        0.0005986450        0.0006591373
  H        -0.0011719329        0.0014195542        0.0018446151
  O         0.0000297281        0.0000717988        0.0000000243
  H        -0.0013615461        0.0017825943       -0.0010203974
  H        -0.0019736606       -0.0009618874        0.0003149888
  O        -0.0002893714        0.0001256279       -0.0001506357
  H         0.0002690590        0.0012031178       -0.0001859185
  H         0.0002228076        0.0003167191        0.0001473640
  O        -0.0001470798        0.0001526309       -0.0000286009
  H        -0.0010796863        0.0005500204        0.0006013660
  H        -0.0004998471       -0.0013163696        0.0000921616
  O         0.0001158843        0.0000496366        0.0005032400
  H         0.0000630634       -0.0007287011        0.0007424016
  H         0.0008513919       -0.0001224820       -0.0013195254
  O         0.0000419347        0.0001292104        0.0000025278
  H         0.0004249567        0.0012271310       -0.0004548990
  H         0.0010936113        0.0006651829       -0.0019833138
  O        -0.0000164922        0.0001198761       -0.0000298979
  H        -0.0008289227       -0.0014309307       -0.0003451305
  H        -0.0018701544        0.0004297455       -0.0000650070
  O         0.0002124740       -0.0002021524       -0.0001644980
  H         0.0008137870        0.0006233133        0.0006241655
  H         0.0001875643       -0.0000423983        0.0017095124
  O         0.0001710601       -0.0000969035        0.0001190915
  H        -0.0018266892       -0.0003442347        0.0002785116
  H        -0.0005968360       -0.0002177191        0.0011865779
  O        -0.0001276294       -0.0003753482       -0.0000645310
  H        -0.0003549711       -0.0015246099       -0.0008574011
  H        -0.0003512225        0.0004064763       -0.0000415763
  O        -0.0003074948        0.0004254295       -0.0000299198
  H         0.0002872054        0.0005607026       -0.0018358313
  H        -0.0000142213       -0.0007140941       -0.0003859626
  O         0.0001141053        0.0001245561        0.0002878342
  H         0.0003243442        0.0015961682       -0.0014353640
  H        -0.0005999402       -0.0005325776       -0.0013923151
  O         0.0001162697        0.0000608101        0.0002483436
  H        -0.0002020306       -0.0015087517        0.0003756502
  H        -0.0002891331       -0.0011092784       -0.0005539744
  O         0.0000598076        0.0000017238       -0.0002172990
  H        -0.0014449741        0.0000408713        0.0019192955
  H        -0.0012131107       -0.0007179312       -0.0008585326
  O         0.0000978597       -0.0001193801       -0.0000671473
  H         0.0010739709       -0.0000745147       -0.0004427308
  H         0.0005512645       -0.0005019289       -0.0006407670
  O         0.0002659084       -0.0000766251        0.0002776502
  H         0.0001731952        0.0001528663        0.0000003354
  H         0.0005088768        0.0009400673       -0.0011969042
  O        -0.0001039395       -0.0002554765        0.0003981334
  H        -0.0006883049       -0.0000821214       -0.0003495439
  H         0.0004001314       -0.0002044786        0.0009513336
  O         0.0001887653       -0.0006216453       -0.0000365558
  H         0.0000409843        0.0005240452       -0.0001872157
  H        -0.0007266912       -0.0009960197        0.0001102408
  N         0.0000140372        0.0001053109       -0.0002805938
  H        -0.0001705859       -0.0010402627       -0.0017256090
  H         0.0005881958        0.0009384484        0.0000428007
  H        -0.0013115352        0.0000902613       -0.0000454217
  N         0.0000011142        0.0000032796       -0.0002092579
  H         0.0004950669       -0.0000443699       -0.0007152410
  H         0.0001621805       -0.0004266226       -0.0006199724
  H        -0.0002703361        0.0010215617        0.0007007856
  N        -0.0000264593        0.0000209513        0.0002513796
  H         0.0003627730        0.0003433727       -0.0008881089
  H         0.0009327652        0.0009073258       -0.0023455286
  H         0.0019722647        0.0009653593        0.0001376347
  N        -0.0001645039       -0.0000068222       -0.0002041922
  H        -0.0012520398       -0.0002983985       -0.0001163100
  H        -0.0002309109        0.0008228734       -0.0007587363
  H        -0.0008023502       -0.0020487312       -0.0002773059
  H        -0.0008821949       -0.0015384709        0.0013706580
  N        -0.0002112100       -0.0001089316       -0.0001609300
  H        -0.0012665052        0.0001041451       -0.0011713592
  H         0.0007354812       -0.0005091501        0.0005032567
  H        -0.0009261029        0.0007507029        0.0005462745
  H         0.0008621807       -0.0011350691        0.0004348830
  N        -0.0000812177        0.0000184388        0.0000197757
  H        -0.0003046774        0.0021409823        0.0010259977
  H        -0.0004158004       -0.0005409598       -0.0002886743
  H        -0.0006733889       -0.0009468851       -0.0009099808
  H        -0.0005362154        0.0002348019        0.0000058689
  N        -0.0000550341        0.0002116498       -0.0000380367
  H        -0.0001426216        0.0000818563        0.0000962284
  H        -0.0013051920       -0.0003388470        0.0003474710
  H         0.0011360065       -0.0009974556       -0.0003082547
  H         0.0008477706       -0.0008648696        0.0007307696
  P         0.0000614961       -0.0000576438       -0.0002717910
  O         0.0000035483        0.0000147641       -0.0000476791
  O        -0.0001262130        0.0002048932       -0.0001784339
  O        -0.0000173751       -0.0002684199        0.0001732248
  O        -0.0000149485        0.0003449976        0.0001877909
  H        -0.0001745195       -0.0005539188        0.0004509617
  P         0.0000777388       -0.0001896847        0.0000168706
  O        -0.0000772978       -0.0006935977        0.0003607371
  O        -0.0001456430        0.0001893621       -0.0001111949
  O         0.0000910137        0.0002243745       -0.0001430187
  O         0.0001229315       -0.0000196551        0.0001169185
  H         0.0005880094        0.0009103308        0.0002200031
     488
 i =        1, time =        0.500, E =     -6463.2037219718
  S         0.0002690833       -0.0001451014       -0.0000410506
  S         0.0001068075       -0.0000567668       -0.0000737848
  S        -0.0000464060       -0.0001000101       -0.0001570418
  S         0.0003410819       -0.0002269145        0.0001193933
  S         0.0003198781       -0.0001122668        0.0000477760
  S         0.0001200671       -0.0001054737        0.0002257329
  S         0.0000196516       -0.0001035096        0.0001421436
  S        -0.0002256782       -0.0001787492       -0.0001186569
  S        -0.0001678678        0.0001639548       -0.0001469604
  S        -0.0000132815        0.0003360764       -0.0001017777
  S        -0.0000509038        0.0002767670       -0.0001045782
  S         0.0001375240       -0.0000445865        0.0002058216
 Ca         0.0000195484        0.0000621277       -0.0001708895
 Ca        -0.0000853170       -0.0000257303        0.0001353205
 Ca        -0.0000015137        0.0002685844        0.0000091013
 Ca         0.0003014998        0.0000953869        0.0000463326
 Ca         0.0000052763       -0.0002040315        0.0001647646
 Ca        -0.0000297767        0.0000683005        0.0000574260
 Ca         0.0001009871        0.0000116385       -0.0000273440
 Ca        -0.0000789804        0.0001387208        0.0000736967
 Ca         0.0001030340       -0.0000091531        0.0003031654
 Ca        -0.0001472443        0.0000109033       -0.0000594057
 Ca         0.0002309396        0.0000119609       -0.0000798083
 Ca        -0.0003871620       -0.0000291211        0.0000252873
  O        -0.0002258408        0.0001948649       -0.0001388032
  O         0.0003590259        0.0002404125        0.0003056038
  O         0.0001396725       -0.0003375338        0.0001162381
  O         0.0000988740        0.0000241896        0.0000128681
  O        -0.0003666829       -0.0000421904        0.0001456354
  O        -0.0002746619        0.0000192341       -0.0000825460
  O        -0.0000016170        0.0003035284        0.0002189907
  O        -0.0001382259        0.0001469222        0.0002380773
  O         0.0004897284        0.0002701707        0.0002812598
  O         0.0000976691       -0.0002057420       -0.0001627944
  O         0.0004531586        0.0001728054       -0.0001485079
  O        -0.0002672411       -0.0002412511        0.0000429504
  O        -0.0003781856        0.0002006008       -0.0001007851
  O        -0.0000888912        0.0004195267        0.0001252189
  O         0.0000237010       -0.0000595577       -0.0000060420
  O        -0.0003230426       -0.0000037441        0.0000363327
  O         0.0000600443        0.0000390684       -0.0003629203
  O        -0.0000998795       -0.0002376185       -0.0001241707
  O        -0.0001092086       -0.0000989029       -0.0000897109
  O         0.0000795750       -0.0001361536       -0.0000185261
  O        -0.0003625928       -0.0003729072       -0.0000140923
  O        -0.0000433520       -0.0001113770       -0.0002217742
  O         0.0001582292        0.0000673082       -0.0004663693
  O         0.0001281132        0.0003455656        0.0000011323
  O        -0.0003360453       -0.0000499723       -0.0000838026
  O         0.0001653719       -0.0001065235        0.0000772626
  O         0.0001496123       -0.0000053727       -0.0000087018
  O         0.0002792175       -0.0002268993        0.0002667187
  O         0.0001400986        0.0004909920        0.0002345042
  O         0.0000337079        0.0000340401        0.0000538317
  O        -0.0003403738       -0.0000578598       -0.0003891719
  O        -0.0001738935       -0.0002096755       -0.0000467834
  O         0.0003025699       -0.0000405210       -0.0001238791
  O         0.0004303997       -0.0000990090        0.0003086516
  O         0.0000687510       -0.0000208153        0.0003196809
  O         0.0000900473       -0.0000975300       -0.0000837422
  O        -0.0000963263        0.0001671426        0.0002497922
  O         0.0001293931       -0.0002428414        0.0000325707
  O        -0.0000258572        0.0000485027       -0.0000851129
  O         0.0002491177       -0.0001788735        0.0001833446
  O        -0.0001989136        0.0002196913       -0.0003127914
  O         0.0000437222       -0.0001863922        0.0003064633
  O        -0.0001535895        0.0001819411        0.0002883981
  O         0.0003011635        0.0001719254        0.0003712036
  O         0.0001353376        0.0000616203        0.0000421725
  O         0.0002460260        0.0000751041       -0.0005361537
  O         0.0001840032        0.0002252801        0.0005153958
  O        -0.0000019014       -0.0002071742       -0.0001181866
  O         0.0001594520       -0.0003993448        0.0001510167
  O        -0.0001329997        0.0003327918       -0.0001822772
  O        -0.0001824922       -0.0001343851       -0.0001091921
  O        -0.0001653533       -0.0004180861       -0.0000855791
  O        -0.0002104362       -0.0003323271        0.0004190207
  O        -0.0001236948        0.0000268039       -0.0003361127
  O         0.0000981362       -0.0000584639       -0.0002700972
  O         0.0000605657        0.0004769085       -0.0001244954
  H        -0.0004322801        0.0008039606        0.0017695312
  H        -0.0016962371        0.0003619118       -0.0008370882
  H        -0.0000984796       -0.0015790021       -0.0000260873
  H        -0.0005315974        0.0010856786        0.0007780439
  H        -0.0009235565       -0.0003448050       -0.0004460360
  H        -0.0003487686        0.0004760958        0.0008870324
  H        -0.0000704417        0.0014206061       -0.0000978854
  H         0.0007711347       -0.0006906568        0.0005765203
  H         0.0015310632        0.0010291470       -0.0008961705
  H        -0.0002248990        0.0005408340       -0.0002252919
  H        -0.0005847382       -0.0000115294       -0.0009165462
  H         0.0004359639        0.0001478978        0.0000568753
  H        -0.0002766153        0.0000050859       -0.0017465596
  H        -0.0002795762        0.0006060584       -0.0008587396
  H        -0.0009002202        0.0001538658        0.0011771288
  H         0.0003476669        0.0002468538       -0.0001846104
  S         0.0001426576        0.0000843172       -0.0002412520
  S         0.0000791292        0.0001200162       -0.0001438509
  S         0.0000035730        0.0001029347       -0.0000024358
  S         0.0000138877       -0.0001466765        0.0000286231
  S        -0.0001642377       -0.0001331224       -0.0000719355
  S         0.0001913201       -0.0001229878       -0.0000634930
  S         0.0000568933       -0.0001734305       -0.0000625639
  S         0.0000799710       -0.0000546216       -0.0000174035
  S         0.0004630229        0.0001596646        0.0000040196
  S        -0.0002601845        0.0000889435        0.0002356209
  S         0.0001753742       -0.0003290839        0.0002231617
  S        -0.0002441003        0.0001687804       -0.0000282079
 Ca        -0.0000093803        0.0000108819        0.0001126888
 Ca         0.0001893716       -0.0000617469        0.0001621482
 Ca         0.0001712010       -0.0001877600       -0.0000742525
 Ca         0.0002208334        0.0002042867        0.0001100953
 Ca        -0.0003834439       -0.0000930683       -0.0000053980
 Ca         0.0000716173       -0.0000276222        0.0001389695
 Ca        -0.0003115761        0.0001649602       -0.0003161129
 Ca         0.0001325940       -0.0000218285       -0.0002094817
 Ca         0.0000148631       -0.0001443405       -0.0000519814
 Ca         0.0001191524        0.0001279060        0.0000342516
 Ca         0.0000085126        0.0001051372       -0.0002474393
 Ca         0.0002210340       -0.0001252928        0.0000439524
  O         0.0001089515       -0.0001114488        0.0001424615
  O        -0.0000094647       -0.0002203731        0.0000993095
  O         0.0000438432       -0.0002162721       -0.0000441874
  O         0.0001193060        0.0004219377       -0.0001593526
  O        -0.0001752795        0.0000673839       -0.0001407769
  O         0.0002832196       -0.0001015779        0.0002694246
  O        -0.0002072942       -0.0003216835       -0.0002568663
  O         0.0001237557       -0.0000638907        0.0000465226
  O         0.0002662845       -0.0003302211       -0.0002426246
  O        -0.0000944477       -0.0002560014        0.0001566228
  O        -0.0002339204        0.0003376734        0.0000345908
  O        -0.0000095312       -0.0000748030       -0.0000070901
  O         0.0004652877        0.0002498160       -0.0002457697
  O        -0.0000607712        0.0002431063        0.0002173412
  O        -0.0000408305        0.0000552234       -0.0000440554
  O        -0.0002112734       -0.0001160595        0.0002160100
  O        -0.0000319003        0.0001540246       -0.0000100966
  O         0.0001419379        0.0003615896        0.0000332666
  O        -0.0000120302        0.0000649642        0.0000619449
  O         0.0003940943        0.0001652736        0.0001942519
  O         0.0001544181        0.0000557647        0.0004791585
  O        -0.0000402835        0.0001075522       -0.0001090870
  O         0.0004041895        0.0001296949        0.0000079003
  O         0.0001796826       -0.0000323697       -0.0002559792
  O        -0.0003374176       -0.0001136093       -0.0001581237
  O        -0.0001826498        0.0000268144       -0.0000864730
  O         0.0000217492        0.0000421385        0.0000786714
  O        -0.0003519901       -0.0001673501       -0.0001655804
  O         0.0001508028       -0.0000878142        0.0002259654
  O         0.0000403832       -0.0001376755       -0.0000396652
  O         0.0002322197        0.0003714592       -0.0004786290
  O         0.0002552889        0.0001642489        0.0000460709
  O        -0.0000984231       -0.0002174028       -0.0000613699
  O        -0.0002543883       -0.0003148314       -0.0001193911
  O        -0.0001086279       -0.0002687686        0.0003920399
  O        -0.0000992043       -0.0004643860        0.0003039675
  O         0.0000190546        0.0003284189       -0.0001825093
  O        -0.0001441362       -0.0002999127       -0.0000066474
  O         0.0000263577       -0.0005752563       -0.0000689106
  O         0.0001366216       -0.0002259382        0.0000368707
  O         0.0005592505        0.0000211322        0.0001965471
  O        -0.0001266090        0.0002128611        0.0002584699
  O         0.0000168986        0.0001814294       -0.0001849840
  O        -0.0002313637        0.0002280528        0.0001247351
  O        -0.0002900061       -0.0000329422       -0.0002458923
  O        -0.0002693230       -0.0002409000       -0.0003271190
  O         0.0002810997        0.0000044380       -0.0000128794
  O         0.0000443802       -0.0000206388        0.0000423587
  O        -0.0000901375        0.0000464190       -0.0002672918
  O        -0.0002507486       -0.0001562485       -0.0000068870
  O         0.0001182191       -0.0001176198       -0.0002550362
  O        -0.0003283524        0.0000205764        0.0002808859
  O        -0.0001035028        0.0006408005       -0.0000266535
  O        -0.0000343495       -0.0000994493        0.0002276015
  O         0.0003227844        0.0002113858       -0.0002386317
  O        -0.0002254404       -0.0003569711       -0.0000291051
  H         0.0017871029        0.0002458661        0.0012131545
  H         0.0001004029        0.0009710125        0.0000561490
  H        -0.0006705093        0.0007648474       -0.0009243964
  H        -0.0004260464        0.0007445510        0.0002517112
  H        -0.0006526502        0.0006902126       -0.0005915983
  H         0.0010709451        0.0000265597       -0.0002727270
  H         0.0003099404        0.0001334284       -0.0002865964
  H        -0.0014883256       -0.0006504729       -0.0003850597
  H         0.0004007998        0.0004119259       -0.0004218946
  H        -0.0008109279        0.0011234927        0.0003486668
  H         0.0034114547       -0.0008059955       -0.0001768437
  H         0.0012563506       -0.0006329510        0.0011842994
  H         0.0010983894        0.0006037642        0.0003194330
  H        -0.0002068149        0.0002418476        0.0010304545
  H         0.0012274550        0.0012682997       -0.0011079937
  H        -0.0002473648        0.0009855426        0.0000511892
  S        -0.0001497953        0.0000410232        0.0000883979
  S         0.0000619222        0.0001373212       -0.0003838270
  S        -0.0003424933        0.0000554284        0.0002700226
  S        -0.0000411255        0.0000150522       -0.0002102616
  S         0.0003055806        0.0000880352       -0.0001208821
  S         0.0000158264       -0.0003517642        0.0002462221
  S         0.0001262132        0.0000001131        0.0003776007
  S        -0.0000362909        0.0000854503       -0.0001278226
  S         0.0000412443       -0.0002465585       -0.0001931955
  S         0.0001564348       -0.0000586412        0.0002732718
  S        -0.0001796281        0.0000125303       -0.0004553126
  S        -0.0003764214        0.0000671409       -0.0000229706
 Ca        -0.0002041963       -0.0001985753        0.0001453676
 Ca         0.0000257861       -0.0002670692        0.0002787325
 Ca        -0.0000028709       -0.0000967894        0.0000433683
 Ca         0.0000065840        0.0001993563        0.0001219589
 Ca        -0.0001862805       -0.0000207175       -0.0001485930
 Ca         0.0002760565        0.0000714294       -0.0001600380
 Ca        -0.0002044096        0.0001836065        0.0001242891
 Ca        -0.0000479810       -0.0000813054       -0.0002244707
 Ca        -0.0001202783        0.0000313275       -0.0000563302
 Ca        -0.0000448701       -0.0001206234        0.0000728302
 Ca         0.0000283717        0.0001323449       -0.0000888764
 Ca         0.0000366978       -0.0001317475        0.0001342051
  O        -0.0001784308        0.0003103903        0.0000626311
  O         0.0001422308        0.0001671195       -0.0000401110
  O        -0.0002999923        0.0003170852        0.0000406318
  O        -0.0000371027        0.0000855678       -0.0001396746
  O         0.0002929042       -0.0000717092       -0.0003206445
  O        -0.0001691343        0.0000303737       -0.0001546256
  O         0.0003947481        0.0000444361        0.0001800998
  O        -0.0001501748        0.0001278481        0.0003134984
  O         0.0000608198        0.0000107601        0.0001656445
  O         0.0002054949       -0.0001505935        0.0001843790
  O         0.0000193273        0.0001194198       -0.0001980492
  O        -0.0000881884        0.0000769832        0.0001076904
  O        -0.0004797690        0.0000137693        0.0000445728
  O         0.0004542838       -0.0001137785       -0.0001244568
  O        -0.0001075670       -0.0001239446       -0.0001969692
  O        -0.0000372348       -0.0001414636       -0.0000412230
  O        -0.0000863759        0.0001667840       -0.0000291352
  O         0.0001052083        0.0001313019        0.0000511974
  O         0.0003051566       -0.0000918820       -0.0000491982
  O         0.0002718158       -0.0000211267        0.0001521384
  O        -0.0000298123       -0.0001367906        0.0003236443
  O         0.0002286820        0.0000201073       -0.0001881903
  O         0.0004426878       -0.0002178418        0.0001775607
  O         0.0001731993        0.0001921652        0.0000542428
  O        -0.0002761541        0.0002355291       -0.0000271274
  O        -0.0002370593        0.0000721505       -0.0001158739
  O         0.0000768749       -0.0000387122        0.0000926018
  O        -0.0002260026       -0.0000068409       -0.0003313625
  O        -0.0003145505        0.0002468380       -0.0000016668
  O         0.0000011382        0.0001940999       -0.0000034219
  O         0.0000513533       -0.0000236834       -0.0001101941
  O        -0.0002564020        0.0001196198       -0.0000095349
  O        -0.0002794538       -0.0004398235       -0.0002915207
  O         0.0001195804       -0.0003751952        0.0000537418
  O        -0.0001748435       -0.0000809031        0.0001673618
  O         0.0000553501        0.0001563282        0.0003886203
  O         0.0003713566        0.0001014424       -0.0001777167
  O        -0.0000482325       -0.0001389297        0.0003726574
  O         0.0000511150        0.0003319263        0.0000744078
  O         0.0000015788        0.0002862996        0.0000720296
  O        -0.0000670833        0.0001232048        0.0004602997
  O         0.0000340310        0.0001373909       -0.0000189952
  O        -0.0000861459       -0.0001619770       -0.0001426177
  O         0.0003507594       -0.0001453202       -0.0004696534
  O         0.0003992243        0.0001363659        0.0000787879
  O        -0.0000798308       -0.0001205520        0.0000444946
  O         0.0000922735        0.0001578480        0.0002792945
  O         0.0001677287        0.0000757325       -0.0000747236
  O        -0.0001911878        0.0001609127        0.0003338441
  O         0.0002601184       -0.0001270355       -0.0002783278
  O        -0.0001534246        0.0004295623       -0.0000935708
  O        -0.0002213405        0.0003031023       -0.0001806631
  O        -0.0004640088       -0.0002279760       -0.0000446674
  O        -0.0000140976       -0.0001393154       -0.0001022816
  O         0.0000684145       -0.0001154724       -0.0002626171
  O        -0.0001018949        0.0000263410        0.0000158721
  H         0.0010672772       -0.0013804738        0.0001437202
  H        -0.0004818828        0.0019177336        0.0007798141
  H        -0.0002008145       -0.0004235361        0.0013195184
  H        -0.0002512781       -0.0003092379       -0.0010182171
  H        -0.0012526278        0.0005216695       -0.0001586055
  H         0.0000339324       -0.0004691966       -0.0004928288
  H         0.0013235833       -0.0004040415        0.0011325783
  H         0.0002669892       -0.0004223646       -0.0006631342
  H         0.0008564179       -0.0004312895        0.0009305870
  H        -0.0009152986       -0.0004428076       -0.0002767509
  H        -0.0009320796       -0.0000820172       -0.0002112152
  H         0.0008573980       -0.0007006130       -0.0005173712
  H         0.0000838491        0.0010752814       -0.0001827456
  H        -0.0003920997       -0.0007808103       -0.0002944757
  H        -0.0011346002       -0.0002342498       -0.0015882242
  H        -0.0007785108       -0.0010572014       -0.0008500145
  S         0.0000198140        0.0001234959        0.0000173593
  S        -0.0002560987       -0.0000084328       -0.0000745333
  S         0.0004568358       -0.0000945279       -0.0000881196
  S        -0.0000733904        0.0000924549       -0.0000179586
  S         0.0004375525        0.0000833202        0.0002440708
  S        -0.0002426979       -0.0001089138       -0.0000964458
  S        -0.0002245363        0.0003191513        0.0001115097
  S        -0.0001889139        0.0001131397       -0.0002842728
  S        -0.0000572439       -0.0000112188        0.0000605793
  S        -0.0000648773        0.0001885969        0.0000480023
  S        -0.0001387423       -0.0001316895       -0.0000209163
  S         0.0000324703       -0.0000310478        0.0001086707
 Ca         0.0000560132        0.0000472399        0.0000041655
 Ca         0.0001496914        0.0000808450       -0.0002273440
 Ca         0.0000254737        0.0002028951       -0.0000277358
 Ca         0.0001229838       -0.0000141469        0.0001434500
 Ca        -0.0001353432       -0.0002030310        0.0000515133
 Ca        -0.0000302904       -0.0000732485       -0.0000585312
 Ca         0.0000483511        0.0000603278       -0.0000493016
 Ca        -0.0002090615       -0.0002263448       -0.0000333211
 Ca         0.0000280604       -0.0001323848       -0.0003310432
 Ca         0.0000338192        0.0000135653        0.0000171612
 Ca        -0.0000958504       -0.0000592536       -0.0000997347
 Ca        -0.0000177985        0.0001659970        0.0001601281
  O        -0.0000943125        0.0002139224        0.0001942904
  O         0.0000259890       -0.0000031510        0.0000765835
  O         0.0000381644        0.0000931732       -0.0000978495
  O         0.0001623853       -0.0000531215        0.0001090902
  O         0.0001648744       -0.0001083407        0.0000561288
  O         0.0003621741        0.0004610128       -0.0000290077
  O        -0.0002487925        0.0001549144       -0.0000710309
  O        -0.0001212459       -0.0001365661       -0.0004837632
  O        -0.0000998088        0.0000362964       -0.0002930102
  O        -0.0000043607        0.0003359508       -0.0004200703
  O        -0.0005040106        0.0001907904       -0.0000676437
  O         0.0001239001       -0.0000772584       -0.0000500689
  O        -0.0003843370       -0.0000233223        0.0003499669
  O        -0.0000967220       -0.0002368308       -0.0001611291
  O         0.0004757831        0.0000709718        0.0001408652
  O        -0.0002137331        0.0002471486        0.0000037993
  O        -0.0001697265        0.0003731062        0.0003429487
  O        -0.0000131089       -0.0002306234        0.0004158107
  O        -0.0003639298       -0.0000142237        0.0000353032
  O        -0.0000988132       -0.0000972250       -0.0002259796
  O         0.0002278019       -0.0000905824       -0.0001265621
  O         0.0002931686        0.0001689164        0.0004140406
  O         0.0001776768       -0.0000984317       -0.0000178510
  O        -0.0000950415       -0.0002762965        0.0001455305
  O         0.0000775970       -0.0000404373        0.0002213763
  O        -0.0002615891       -0.0001581367       -0.0005445315
  O         0.0000479786       -0.0000956472        0.0003251788
  O        -0.0000010452       -0.0001672283       -0.0000221426
  O        -0.0001980553        0.0001338726        0.0001878252
  O         0.0001494399       -0.0000367750       -0.0000148606
  O        -0.0002297438        0.0000061519       -0.0000033950
  O        -0.0002513327       -0.0003447654       -0.0005943476
  O         0.0002498708        0.0002171588        0.0000519669
  O        -0.0000106507       -0.0003700143       -0.0003462174
  O        -0.0004231280       -0.0002885279        0.0001305908
  O         0.0000303912        0.0003169972        0.0000032181
  O         0.0003053813       -0.0000688201        0.0000730737
  O        -0.0002446681       -0.0005658586       -0.0002112218
  O        -0.0000311669        0.0000315668        0.0002106771
  O         0.0002412365        0.0001744020       -0.0002340727
  O         0.0005413597       -0.0003419352        0.0001741487
  O        -0.0001624765        0.0001057869       -0.0002567109
  O         0.0000198112       -0.0001056871       -0.0005088761
  O        -0.0001476900        0.0000422436        0.0000846648
  O         0.0000478206       -0.0003257550        0.0002831836
  O        -0.0002196990        0.0001827796        0.0001920769
  O        -0.0000892407       -0.0002144685        0.0002971152
  O        -0.0002421042       -0.0002332886        0.0002624116
  O        -0.0002483838        0.0002013582        0.0003741249
  O         0.0003159611       -0.0003524871        0.0000648546
  O        -0.0002960699        0.0001137329       -0.0001397823
  O        -0.0001090316        0.0001227724       -0.0002369860
  O         0.0003937764        0.0000659724        0.0005016846
  O        -0.0002769130       -0.0002285193       -0.0000252362
  O         0.0000936219        0.0005558701       -0.0002067586
  O        -0.0001044504        0.0004400077        0.0001053987
  H         0.0002520260        0.0008613196        0.0018150824
  H        -0.0011394212       -0.0006347996       -0.0003270588
  H        -0.0005402518        0.0004352709        0.0005689479
  H        -0.0012831515       -0.0001918850        0.0010517701
  H         0.0011035415        0.0000571895       -0.0006649533
  H        -0.0017658860        0.0004051129       -0.0004893758
  H        -0.0020945056        0.0000095308        0.0003654405
  H         0.0000178663        0.0006065151       -0.0004083637
  H        -0.0010377152        0.0005367967        0.0001477851
  H        -0.0000189412       -0.0008150434        0.0009936340
  H         0.0013315002        0.0009659027        0.0005942764
  H         0.0001895690       -0.0009144916        0.0007613628
  H         0.0011925504       -0.0001626306       -0.0005338674
  H         0.0005411060        0.0005720498       -0.0011736620
  H         0.0001136022        0.0007884182       -0.0004344070
  H        -0.0011331115        0.0002227987        0.0015364677
  O        -0.0002115276       -0.0000137028        0.0001579214
  H        -0.0001479323       -0.0011635848       -0.0003230573
  H         0.0004352334       -0.0001477421       -0.0002956495
  O         0.0001824931        0.0000805812        0.0001717466
  H        -0.0004169159       -0.0016553798       -0.0000860747
  H         0.0003374829        0.0001483723        0.0006259747
  O        -0.0001546674        0.0001347761       -0.0001199678
  H         0.0016897943        0.0005843492        0.0004872041
  H        -0.0011566323        0.0014115886        0.0013668217
  O         0.0000298146        0.0000757139       -0.0000052849
  H        -0.0013655154        0.0017196637       -0.0009370259
  H        -0.0019725937       -0.0009620062        0.0002228633
  O        -0.0002888146        0.0001255204       -0.0001505429
  H         0.0002681308        0.0012020085       -0.0001350237
  H         0.0002210478        0.0003161205        0.0001493243
  O        -0.0001507749        0.0001511816       -0.0000260048
  H        -0.0010595081        0.0005546037        0.0005544679
  H        -0.0004594887       -0.0013039879        0.0000992704
  O         0.0001186026        0.0000462247        0.0005035317
  H         0.0000514889       -0.0007111770        0.0007164543
  H         0.0008181300       -0.0000895831       -0.0013024489
  O         0.0000441663        0.0001315410       -0.0000019035
  H         0.0003819163        0.0011843768       -0.0004078954
  H         0.0011009624        0.0006698924       -0.0019550694
  O        -0.0000156585        0.0001187930       -0.0000285097
  H        -0.0008541523       -0.0013894334       -0.0003457714
  H        -0.0018569205        0.0004050964       -0.0000864396
  O         0.0002126458       -0.0002019747       -0.0001598835
  H         0.0008166230        0.0006042067        0.0005757124
  H         0.0001790190       -0.0000268129        0.0016875330
  O         0.0001641984       -0.0000932990        0.0001226854
  H        -0.0017596586       -0.0003922775        0.0002936051
  H        -0.0005585659       -0.0002223229        0.0011123762
  O        -0.0001264213       -0.0003742279       -0.0000672003
  H        -0.0003876302       -0.0015051790       -0.0008301839
  H        -0.0003308861        0.0003806116       -0.0000260023
  O        -0.0003033932        0.0004228273       -0.0000328449
  H         0.0002317590        0.0005836471       -0.0017937054
  H        -0.0000219353       -0.0007095325       -0.0003814439
  O         0.0001128858        0.0001260267        0.0002828793
  H         0.0003211047        0.0015978634       -0.0014040326
  H        -0.0005799552       -0.0005613332       -0.0013492014
  O         0.0001158053        0.0000573445        0.0002295393
  H        -0.0002014443       -0.0014761679        0.0002761221
  H        -0.0002733684       -0.0010976872       -0.0004135438
  O         0.0000536860       -0.0000068797       -0.0002130375
  H        -0.0013713392        0.0001153216        0.0018235327
  H        -0.0011939215       -0.0006565377       -0.0008285830
  O         0.0000984937       -0.0001189687       -0.0000626098
  H         0.0010639114       -0.0000801883       -0.0003273575
  H         0.0005420159       -0.0004916525       -0.0004759409
  O         0.0002655258       -0.0000762283        0.0002759818
  H         0.0001700615        0.0001508018       -0.0000020830
  H         0.0005151086        0.0009362724       -0.0008917429
  O        -0.0001009929       -0.0002551684        0.0003964092
  H        -0.0006964745       -0.0000803656       -0.0003240647
  H         0.0003617846       -0.0002036488        0.0009470043
  O         0.0001880200       -0.0006202729       -0.0000342160
  H         0.0000441946        0.0004797854       -0.0002146864
  H        -0.0007276353       -0.0009730307        0.0001009142
  N         0.0000150118        0.0001061960       -0.0002847889
  H        -0.0001790496       -0.0010002477       -0.0016518936
  H         0.0005460385        0.0009150882        0.0000246273
  H        -0.0012742753        0.0000624464       -0.0000431424
  N         0.0000006605        0.0000082665       -0.0002074480
  H         0.0004774467       -0.0000522796       -0.0007150036
  H         0.0001628334       -0.0004246083       -0.0006176573
  H        -0.0002468839        0.0009582129        0.0006742557
  N        -0.0000155742        0.0000276044        0.0002451861
  H         0.0003667641        0.0003333219       -0.0008857205
  H         0.0008864696        0.0008574771       -0.0022351615
  H         0.0018643049        0.0009340390        0.0001080203
  N        -0.0001697462       -0.0000082196       -0.0002045911
  H        -0.0012053693       -0.0002710610       -0.0001187062
  H        -0.0002065660        0.0007985051       -0.0007451601
  H        -0.0007978172       -0.0020375828       -0.0002754644
  H        -0.0008792767       -0.0015255030        0.0013660218
  N        -0.0002115927       -0.0001096073       -0.0001504186
  H        -0.0012597581        0.0001033171       -0.0008739037
  H         0.0007263221       -0.0005021703        0.0003755273
  H        -0.0009143866        0.0007381897        0.0004040995
  H         0.0008573169       -0.0011201204        0.0003155892
  N        -0.0000840002        0.0000232592        0.0000176711
  H        -0.0003121014        0.0020557727        0.0010406899
  H        -0.0003950444       -0.0005175947       -0.0002681110
  H        -0.0006029105       -0.0009261152       -0.0008951701
  H        -0.0005120007        0.0002305893       -0.0000001490
  N        -0.0000598708        0.0002088677       -0.0000387094
  H        -0.0001467717        0.0000806856        0.0000895736
  H        -0.0012286564       -0.0003182764        0.0003419897
  H         0.0011314831       -0.0009796755       -0.0002870675
  H         0.0007788271       -0.0008856680        0.0007167853
  P         0.0000610313       -0.0000573844       -0.0002711631
  O         0.0000039047        0.0000150364       -0.0000480056
  O        -0.0001260512        0.0002040803       -0.0001779902
  O        -0.0000171678       -0.0002679384        0.0001718443
  O        -0.0000164453        0.0003432686        0.0001877963
  H        -0.0001487439       -0.0005443461        0.0004429929
  P         0.0000772578       -0.0001886246        0.0000169796
  O        -0.0000770191       -0.0006928968        0.0003602256
  O        -0.0001445933        0.0001880774       -0.0001115330
  O         0.0000908631        0.0002230303       -0.0001418487
  O         0.0001235451       -0.0000191688        0.0001181307
  H         0.0005747113        0.0008997218        0.0001934709
     488
 i =        2, time =        1.000, E =     -6463.1585294492
  S         0.0002697185       -0.0001447802       -0.0000409667
  S         0.0001062501       -0.0000536260       -0.0000718236
  S        -0.0000461100       -0.0000997339       -0.0001565371
  S         0.0003370249       -0.0002258777        0.0001177506
  S         0.0003188235       -0.0001123793        0.0000455402
  S         0.0001191956       -0.0001046253        0.0002243497
  S         0.0000199890       -0.0001034777        0.0001398823
  S        -0.0002246196       -0.0001774326       -0.0001172078
  S        -0.0001674260        0.0001644127       -0.0001454308
  S        -0.0000095815        0.0003327979       -0.0001012562
  S        -0.0000512020        0.0002763406       -0.0001021074
  S         0.0001386676       -0.0000450948        0.0002046555
 Ca         0.0000194993        0.0000619647       -0.0001697888
 Ca        -0.0000851613       -0.0000258129        0.0001354395
 Ca        -0.0000013486        0.0002687642        0.0000091898
 Ca         0.0003017924        0.0000954752        0.0000462527
 Ca         0.0000053819       -0.0002040430        0.0001636399
 Ca        -0.0000299516        0.0000683068        0.0000573933
 Ca         0.0001009918        0.0000117849       -0.0000271438
 Ca        -0.0000790548        0.0001389823        0.0000739608
 Ca         0.0001030963       -0.0000093549        0.0003011728
 Ca        -0.0001473449        0.0000110208       -0.0000594898
 Ca         0.0002311370        0.0000119502       -0.0000791075
 Ca        -0.0003873044       -0.0000289464        0.0000253945
  O        -0.0002257775        0.0001935128       -0.0001365086
  O         0.0003559100        0.0002365249        0.0003029031
  O         0.0001395808       -0.0003326552        0.0001138913
  O         0.0000985306        0.0000228188        0.0000138045
  O        -0.0003666484       -0.0000433190        0.0001446772
  O        -0.0002728811        0.0000181251       -0.0000807832
  O         0.0000001935        0.0003003526        0.0002198670
  O        -0.0001349897        0.0001446285        0.0002364554
  O         0.0004890996        0.0002692864        0.0002767455
  O         0.0000981360       -0.0002051279       -0.0001623972
  O         0.0004522110        0.0001706191       -0.0001468562
  O        -0.0002643499       -0.0002386943        0.0000450859
  O        -0.0003776606        0.0002011594       -0.0001001505
  O        -0.0000857164        0.0004168276        0.0001216659
  O         0.0000237440       -0.0000589068       -0.0000061456
  O        -0.0003198915       -0.0000056939        0.0000383136
  O         0.0000594941        0.0000392489       -0.0003587008
  O        -0.0000993504       -0.0002373354       -0.0001229428
  O        -0.0001082410       -0.0000985825       -0.0000877146
  O         0.0000786142       -0.0001356699       -0.0000199868
  O        -0.0003608713       -0.0003735125       -0.0000131321
  O        -0.0000417094       -0.0001133498       -0.0002203955
  O         0.0001581968        0.0000667391       -0.0004579408
  O         0.0001286372        0.0003425114        0.0000004154
  O        -0.0003336344       -0.0000491534       -0.0000818479
  O         0.0001650686       -0.0001076847        0.0000779795
  O         0.0001489896       -0.0000058422       -0.0000082138
  O         0.0002767450       -0.0002279480        0.0002667323
  O         0.0001397820        0.0004900990        0.0002335542
  O         0.0000344551        0.0000339891        0.0000543008
  O        -0.0003401655       -0.0000584627       -0.0003875164
  O        -0.0001734200       -0.0002089414       -0.0000475047
  O         0.0003014086       -0.0000408192       -0.0001257124
  O         0.0004262274       -0.0000962953        0.0003025475
  O         0.0000691516       -0.0000201215        0.0003160964
  O         0.0000889491       -0.0000970949       -0.0000824412
  O        -0.0000963515        0.0001671558        0.0002453223
  O         0.0001270766       -0.0002393107        0.0000333978
  O        -0.0000266918        0.0000495583       -0.0000843047
  O         0.0002481232       -0.0001777158        0.0001825471
  O        -0.0001988508        0.0002200348       -0.0003072208
  O         0.0000445319       -0.0001844913        0.0003053916
  O        -0.0001528679        0.0001819947        0.0002832920
  O         0.0002993439        0.0001702548        0.0003707641
  O         0.0001349562        0.0000626506        0.0000420210
  O         0.0002431955        0.0000745090       -0.0005319532
  O         0.0001824588        0.0002279368        0.0005128472
  O        -0.0000001568       -0.0002065671       -0.0001162368
  O         0.0001627923       -0.0003979445        0.0001466949
  O        -0.0001298176        0.0003312819       -0.0001760749
  O        -0.0001876339       -0.0001369214       -0.0001140626
  O        -0.0001641280       -0.0004206558       -0.0000853448
  O        -0.0002162777       -0.0003264439        0.0004061029
  O        -0.0001266537        0.0000304543       -0.0003365639
  O         0.0000856815       -0.0000397937       -0.0002657376
  O         0.0000686309        0.0004751237       -0.0001181095
  H        -0.0003934170        0.0008052439        0.0017050137
  H        -0.0015015475        0.0002782442       -0.0006432411
  H        -0.0000399016       -0.0015430146       -0.0000328328
  H        -0.0004854670        0.0010815327        0.0007291212
  H        -0.0009217355       -0.0003221434       -0.0003730590
  H        -0.0003633716        0.0005231362        0.0008454760
  H        -0.0000031709        0.0012999166       -0.0000030857
  H         0.0007205865       -0.0006285749        0.0006047307
  H         0.0014344973        0.0010016802       -0.0007326420
  H        -0.0002192632        0.0005208173       -0.0002190632
  H        -0.0005584577       -0.0000137422       -0.0007918246
  H         0.0003778605        0.0001080792       -0.0000027673
  H        -0.0001629564       -0.0000928493       -0.0016260361
  H        -0.0002423941        0.0005669198       -0.0008587565
  H        -0.0007795539       -0.0000168965        0.0010209668
  H         0.0003213230        0.0002956189       -0.0001709933
  S         0.0001425604        0.0000847949       -0.0002402857
  S         0.0000785801        0.0001176947       -0.0001405361
  S         0.0000034985        0.0001008412       -0.0000023870
  S         0.0000153092       -0.0001448680        0.0000272994
  S        -0.0001644642       -0.0001331177       -0.0000709955
  S         0.0001898681       -0.0001215573       -0.0000632587
  S         0.0000571574       -0.0001730761       -0.0000618460
  S         0.0000801793       -0.0000554766       -0.0000171408
  S         0.0004616039        0.0001606390        0.0000032927
  S        -0.0002590321        0.0000878833        0.0002335457
  S         0.0001751001       -0.0003290268        0.0002224414
  S        -0.0002424665        0.0001667730       -0.0000274271
 Ca        -0.0000093647        0.0000108148        0.0001120618
 Ca         0.0001893675       -0.0000618151        0.0001622552
 Ca         0.0001712998       -0.0001880537       -0.0000737030
 Ca         0.0002211747        0.0002044644        0.0001103604
 Ca        -0.0003837630       -0.0000933150       -0.0000052894
 Ca         0.0000717373       -0.0000276987        0.0001390397
 Ca        -0.0003120095        0.0001651191       -0.0003141433
 Ca         0.0001326360       -0.0000219299       -0.0002094665
 Ca         0.0000148588       -0.0001446100       -0.0000514886
 Ca         0.0001192495        0.0001279875        0.0000342991
 Ca         0.0000087940        0.0001052567       -0.0002457689
 Ca         0.0002213275       -0.0001252541        0.0000440790
  O         0.0001089063       -0.0001108004        0.0001391795
  O        -0.0000086086       -0.0002197834        0.0000996062
  O         0.0000441411       -0.0002154400       -0.0000439663
  O         0.0001165398        0.0004174988       -0.0001561116
  O        -0.0001751977        0.0000664570       -0.0001407438
  O         0.0002804360       -0.0000992798        0.0002674415
  O        -0.0002073822       -0.0003212216       -0.0002575236
  O         0.0001233815       -0.0000638891        0.0000463197
  O         0.0002673960       -0.0003298567       -0.0002392435
  O        -0.0000926425       -0.0002517864        0.0001531581
  O        -0.0002331696        0.0003373810        0.0000329924
  O        -0.0000092618       -0.0000748240       -0.0000069805
  O         0.0004605557        0.0002504734       -0.0002439117
  O        -0.0000594622        0.0002415983        0.0002135793
  O        -0.0000413763        0.0000577572       -0.0000437496
  O        -0.0002102653       -0.0001157550        0.0002145587
  O        -0.0000320258        0.0001535214       -0.0000102934
  O         0.0001428649        0.0003612185        0.0000324607
  O        -0.0000121118        0.0000646892        0.0000611769
  O         0.0003914605        0.0001648803        0.0001917898
  O         0.0001541984        0.0000546436        0.0004696001
  O        -0.0000383901        0.0001052056       -0.0001082296
  O         0.0004030722        0.0001288800        0.0000071978
  O         0.0001796099       -0.0000321967       -0.0002543995
  O        -0.0003367948       -0.0001128095       -0.0001557065
  O        -0.0001819099        0.0000271423       -0.0000870488
  O         0.0000213806        0.0000419938        0.0000772740
  O        -0.0003488568       -0.0001651694       -0.0001643260
  O         0.0001530516       -0.0000893042        0.0002246211
  O         0.0000406429       -0.0001375504       -0.0000392369
  O         0.0002325105        0.0003692365       -0.0004773658
  O         0.0002547621        0.0001626843        0.0000454936
  O        -0.0000963684       -0.0002168880       -0.0000588534
  O        -0.0002532585       -0.0003146438       -0.0001183315
  O        -0.0001065509       -0.0002694123        0.0003898824
  O        -0.0000993213       -0.0004626115        0.0003031492
  O         0.0000210079        0.0003254429       -0.0001799171
  O        -0.0001454314       -0.0002959300       -0.0000050857
  O         0.0000264083       -0.0005734529       -0.0000671332
  O         0.0001345256       -0.0002223620        0.0000352760
  O         0.0005594423        0.0000217286        0.0001927794
  O        -0.0001284656        0.0002108883        0.0002579767
  O         0.0000158788        0.0001785618       -0.0001807606
  O        -0.0002321263        0.0002274184        0.0001251404
  O        -0.0002904301       -0.0000323797       -0.0002440669
  O        -0.0002707399       -0.0002408568       -0.0003247759
  O         0.0002810664        0.0000035087       -0.0000129607
  O         0.0000436465       -0.0000199721        0.0000418444
  O        -0.0000740728        0.0000530192       -0.0002657248
  O        -0.0002616409       -0.0001519939       -0.0000183225
  O         0.0001425631       -0.0001254167       -0.0002481027
  O        -0.0003307382        0.0000190342        0.0002821552
  O        -0.0001013169        0.0006344544       -0.0000255562
  O        -0.0000365749       -0.0000958299        0.0002265311
  O         0.0003184296        0.0002110694       -0.0002392298
  O        -0.0002273636       -0.0003460184       -0.0000265093
  H         0.0015702904        0.0001532483        0.0011819050
  H         0.0000568157        0.0009393962        0.0000138190
  H        -0.0006444725        0.0007230578       -0.0008665424
  H        -0.0003995519        0.0007251025        0.0002183342
  H        -0.0006587151        0.0006968422       -0.0005711047
  H         0.0010462897        0.0000473488       -0.0002799691
  H         0.0002995324        0.0001487866       -0.0002824246
  H        -0.0014980803       -0.0006219184       -0.0003686681
  H         0.0003743006        0.0004053817       -0.0003858095
  H        -0.0008039108        0.0011032202        0.0003574846
  H         0.0029916383       -0.0006304448       -0.0001957884
  H         0.0011515634       -0.0006641313        0.0010755213
  H         0.0010825568        0.0006735533        0.0002812378
  H        -0.0001720032        0.0002041677        0.0010336895
  H         0.0012391793        0.0012440497       -0.0011026476
  H        -0.0001599871        0.0008601185        0.0000804961
  S        -0.0001497535        0.0000415435        0.0000890571
  S         0.0000626305        0.0001363377       -0.0003823683
  S        -0.0003425756        0.0000561793        0.0002693555
  S        -0.0000417311        0.0000165798       -0.0002082243
  S         0.0003042259        0.0000875757       -0.0001192188
  S         0.0000154715       -0.0003487014        0.0002441768
  S         0.0001270085       -0.0000015050        0.0003741292
  S        -0.0000355466        0.0000846994       -0.0001263388
  S         0.0000407839       -0.0002463212       -0.0001925264
  S         0.0001559683       -0.0000591350        0.0002725906
  S        -0.0001801797        0.0000122769       -0.0004503216
  S        -0.0003741197        0.0000678986       -0.0000223362
 Ca        -0.0002044926       -0.0001985521        0.0001444131
 Ca         0.0000258249       -0.0002671604        0.0002790496
 Ca        -0.0000028452       -0.0000969918        0.0000431868
 Ca         0.0000063385        0.0001995183        0.0001220672
 Ca        -0.0001864982       -0.0000207354       -0.0001476623
 Ca         0.0002762756        0.0000714480       -0.0001599728
 Ca        -0.0002046668        0.0001837696        0.0001235195
 Ca        -0.0000479900       -0.0000814019       -0.0002245914
 Ca        -0.0001204499        0.0000315224       -0.0000558412
 Ca        -0.0000448373       -0.0001207468        0.0000729795
 Ca         0.0000286026        0.0001324599       -0.0000883571
 Ca         0.0000366280       -0.0001318889        0.0001345866
  O        -0.0001786480        0.0003093873        0.0000612845
  O         0.0001402198        0.0001665360       -0.0000422192
  O        -0.0002997255        0.0003147714        0.0000394205
  O        -0.0000374770        0.0000851069       -0.0001394174
  O         0.0002921483       -0.0000690808       -0.0003199612
  O        -0.0001685056        0.0000299721       -0.0001541469
  O         0.0003941893        0.0000463230        0.0001790708
  O        -0.0001471132        0.0001261728        0.0003109767
  O         0.0000605611        0.0000109712        0.0001627166
  O         0.0002076356       -0.0001477060        0.0001820952
  O         0.0000195537        0.0001196881       -0.0001939173
  O        -0.0000887308        0.0000755924        0.0001056092
  O        -0.0004800579        0.0000152720        0.0000431842
  O         0.0004516214       -0.0001128795       -0.0001241544
  O        -0.0001078971       -0.0001226916       -0.0001966233
  O        -0.0000375370       -0.0001407623       -0.0000421128
  O        -0.0000852527        0.0001666395       -0.0000311089
  O         0.0001048465        0.0001299335        0.0000524535
  O         0.0003052722       -0.0000918104       -0.0000467835
  O         0.0002690297       -0.0000212116        0.0001486123
  O        -0.0000287200       -0.0001362761        0.0003181273
  O         0.0002293320        0.0000176617       -0.0001865885
  O         0.0004411338       -0.0002155370        0.0001759549
  O         0.0001721839        0.0001920474        0.0000543486
  O        -0.0002745773        0.0002353825       -0.0000260298
  O        -0.0002367913        0.0000694182       -0.0001142954
  O         0.0000767008       -0.0000381832        0.0000916670
  O        -0.0002243634       -0.0000049041       -0.0003292459
  O        -0.0003148360        0.0002442867       -0.0000012300
  O         0.0000016743        0.0001927786       -0.0000017607
  O         0.0000516526       -0.0000247485       -0.0001099968
  O        -0.0002550297        0.0001192406       -0.0000105361
  O        -0.0002761733       -0.0004389314       -0.0002911841
  O         0.0001201635       -0.0003747885        0.0000544158
  O        -0.0001734246       -0.0000806238        0.0001626722
  O         0.0000552576        0.0001566298        0.0003862453
  O         0.0003710240        0.0001006137       -0.0001752608
  O        -0.0000474549       -0.0001386321        0.0003721040
  O         0.0000501697        0.0003309259        0.0000722545
  O         0.0000009608        0.0002859060        0.0000719949
  O        -0.0000681200        0.0001218635        0.0004518738
  O         0.0000341540        0.0001371066       -0.0000181508
  O        -0.0000864979       -0.0001602368       -0.0001407340
  O         0.0003484452       -0.0001462423       -0.0004689170
  O         0.0004003341        0.0001339154        0.0000776378
  O        -0.0000797668       -0.0001200266        0.0000455209
  O         0.0000928410        0.0001558649        0.0002786293
  O         0.0001656265        0.0000755584       -0.0000748231
  O        -0.0001789219        0.0001512503        0.0003253120
  O         0.0002544762       -0.0001317078       -0.0002856419
  O        -0.0001614687        0.0004267031       -0.0000912460
  O        -0.0002297858        0.0002983247       -0.0001718304
  O        -0.0004607364       -0.0002124408       -0.0000453971
  O        -0.0000174273       -0.0001429188       -0.0000986621
  O         0.0000685582       -0.0001332187       -0.0002550027
  O        -0.0001012847        0.0000246329        0.0000158218
  H         0.0010468663       -0.0013535423        0.0001399293
  H        -0.0005549873        0.0017943657        0.0006587477
  H        -0.0001589126       -0.0003561718        0.0012265581
  H        -0.0003000801       -0.0003007015       -0.0009599218
  H        -0.0012447037        0.0004770760       -0.0002261552
  H         0.0000474198       -0.0004508709       -0.0004945611
  H         0.0013113649       -0.0002240382        0.0009411794
  H         0.0002436820       -0.0003068847       -0.0006606516
  H         0.0006879916       -0.0003085623        0.0009031639
  H        -0.0008438694       -0.0004325015       -0.0003294781
  H        -0.0008491435       -0.0001048163       -0.0001963199
  H         0.0008680215       -0.0006542760       -0.0004864464
  H         0.0000806942        0.0008815778       -0.0001063623
  H        -0.0004073490       -0.0007300339       -0.0002974560
  H        -0.0011344168       -0.0001290731       -0.0015193904
  H        -0.0007424634       -0.0010446697       -0.0008176626
  S         0.0000195555        0.0001242322        0.0000173886
  S        -0.0002522973       -0.0000066647       -0.0000755514
  S         0.0004533815       -0.0000937614       -0.0000877746
  S        -0.0000731221        0.0000916345       -0.0000190535
  S         0.0004359932        0.0000833204        0.0002435930
  S        -0.0002414782       -0.0001092867       -0.0000948204
  S        -0.0002239391        0.0003176987        0.0001103689
  S        -0.0001885568        0.0001114921       -0.0002842287
  S        -0.0000555462       -0.0000118111        0.0000605333
  S        -0.0000646056        0.0001856411        0.0000469641
  S        -0.0001391732       -0.0001317718       -0.0000199529
  S         0.0000316531       -0.0000307882        0.0001080739
 Ca         0.0000560235        0.0000476569        0.0000043267
 Ca         0.0001499471        0.0000808411       -0.0002274472
 Ca         0.0000256023        0.0002032038       -0.0000277709
 Ca         0.0001228492       -0.0000144118        0.0001436553
 Ca        -0.0001354250       -0.0002031013        0.0000511806
 Ca        -0.0000304057       -0.0000732631       -0.0000584080
 Ca         0.0000483163        0.0000604809       -0.0000488902
 Ca        -0.0002091831       -0.0002265178       -0.0000329508
 Ca         0.0000282356       -0.0001323826       -0.0003289159
 Ca         0.0000340166        0.0000133767        0.0000175524
 Ca        -0.0000959509       -0.0000593882       -0.0000991712
 Ca        -0.0000179675        0.0001661044        0.0001603305
  O        -0.0000945923        0.0002126082        0.0001896754
  O         0.0000244435       -0.0000052163        0.0000748450
  O         0.0000368614        0.0000913562       -0.0000940286
  O         0.0001627198       -0.0000522948        0.0001088407
  O         0.0001649591       -0.0001090327        0.0000557049
  O         0.0003599212        0.0004603936       -0.0000302137
  O        -0.0002460998        0.0001497805       -0.0000702379
  O        -0.0001223249       -0.0001339150       -0.0004809131
  O        -0.0000987235        0.0000356625       -0.0002863312
  O        -0.0000073489        0.0003338116       -0.0004168569
  O        -0.0004958450        0.0001903227       -0.0000663203
  O         0.0001238951       -0.0000773762       -0.0000504024
  O        -0.0003842646       -0.0000223006        0.0003476325
  O        -0.0000979562       -0.0002351174       -0.0001586297
  O         0.0004746890        0.0000732558        0.0001406805
  O        -0.0002127182        0.0002463274        0.0000053170
  O        -0.0001671890        0.0003719030        0.0003396085
  O        -0.0000123849       -0.0002310777        0.0004135592
  O        -0.0003632023       -0.0000137698        0.0000372250
  O        -0.0000988132       -0.0000965674       -0.0002272167
  O         0.0002274157       -0.0000906136       -0.0001235415
  O         0.0002908740        0.0001701637        0.0004122444
  O         0.0001750597       -0.0000956736       -0.0000171380
  O        -0.0000956502       -0.0002748407        0.0001447838
  O         0.0000789253       -0.0000398549        0.0002184581
  O        -0.0002618692       -0.0001578354       -0.0005429302
  O         0.0000479130       -0.0000946024        0.0003196673
  O        -0.0000010721       -0.0001665292       -0.0000225364
  O        -0.0001978882        0.0001319979        0.0001876024
  O         0.0001479860       -0.0000380076       -0.0000155402
  O        -0.0002287000        0.0000041819       -0.0000037852
  O        -0.0002515160       -0.0003440879       -0.0005923813
  O         0.0002485809        0.0002162824        0.0000518320
  O        -0.0000107406       -0.0003693299       -0.0003442516
  O        -0.0004217507       -0.0002882277        0.0001282825
  O         0.0000307370        0.0003163478        0.0000038897
  O         0.0003029910       -0.0000681288        0.0000720286
  O        -0.0002469893       -0.0005613618       -0.0002091177
  O        -0.0000313435        0.0000314144        0.0002070186
  O         0.0002413539        0.0001733338       -0.0002321129
  O         0.0005396177       -0.0003408928        0.0001714595
  O        -0.0001615735        0.0001062449       -0.0002560906
  O         0.0000188166       -0.0001058139       -0.0004991114
  O        -0.0001469179        0.0000429591        0.0000841037
  O         0.0000475898       -0.0003242766        0.0002820437
  O        -0.0002191644        0.0001838639        0.0001905342
  O        -0.0000921398       -0.0002096650        0.0002947278
  O        -0.0002412481       -0.0002324424        0.0002621539
  O        -0.0002418425        0.0002054073        0.0003749117
  O         0.0003071013       -0.0003325276        0.0000651366
  O        -0.0002946868        0.0001142948       -0.0001344842
  O        -0.0001071456        0.0001260525       -0.0002406204
  O         0.0003949145        0.0000604764        0.0004907405
  O        -0.0002782050       -0.0002315285       -0.0000218948
  O         0.0000920679        0.0005543064       -0.0002054370
  O        -0.0001119865        0.0004397442        0.0001028959
  H         0.0001550548        0.0008158245        0.0017993805
  H        -0.0010552622       -0.0005744145       -0.0002078194
  H        -0.0005074352        0.0004414813        0.0005869859
  H        -0.0011322672       -0.0002271284        0.0009070271
  H         0.0010401995        0.0001516245       -0.0005387010
  H        -0.0015425302        0.0002095243       -0.0003862048
  H        -0.0020950060        0.0000139249        0.0003514213
  H         0.0000343775        0.0005469592       -0.0004019227
  H        -0.0010424820        0.0005222263        0.0001461003
  H         0.0000539698       -0.0007688271        0.0009380469
  H         0.0012815637        0.0009527837        0.0004809423
  H         0.0001460613       -0.0008991597        0.0007272303
  H         0.0011893875       -0.0001766417       -0.0004900592
  H         0.0004896240        0.0005802475       -0.0011589027
  H         0.0001147228        0.0007911064       -0.0004437069
  H        -0.0010587688        0.0001900905        0.0015528368
  O        -0.0002122846       -0.0000131248        0.0001496085
  H        -0.0001012969       -0.0011343400       -0.0002372962
  H         0.0004258184       -0.0001906474       -0.0002508727
  O         0.0001817245        0.0000747334        0.0001805649
  H        -0.0004150583       -0.0014956346       -0.0002151327
  H         0.0003305215        0.0000762408        0.0006147601
  O        -0.0001536682        0.0001384492       -0.0000916793
  H         0.0016294253        0.0005469555        0.0000646253
  H        -0.0011102694        0.0013925939        0.0001845726
  O         0.0000298527        0.0000864740       -0.0000199235
  H        -0.0013762144        0.0015464230       -0.0007083226
  H        -0.0019704188       -0.0009606410        0.0000000705
  O        -0.0002870881        0.0001252804       -0.0001507979
  H         0.0002664013        0.0012002453       -0.0000115399
  H         0.0002110211        0.0003136245        0.0001605202
  O        -0.0001612537        0.0001470458       -0.0000187417
  H        -0.0010052901        0.0005691925        0.0004220953
  H        -0.0003454597       -0.0012701581        0.0001203161
  O         0.0001262862        0.0000367231        0.0005048792
  H         0.0000147214       -0.0006593197        0.0006398702
  H         0.0007296184       -0.0000015558       -0.0012519087
  O         0.0000488803        0.0001370239       -0.0000137828
  H         0.0002820093        0.0010895735       -0.0002908130
  H         0.0011285582        0.0006785636       -0.0018795873
  O        -0.0000133785        0.0001154618       -0.0000246733
  H        -0.0009298349       -0.0012706171       -0.0003479035
  H        -0.0018211249        0.0003345007       -0.0001460986
  O         0.0002132009       -0.0002014062       -0.0001466006
  H         0.0008275670        0.0005494516        0.0004366653
  H         0.0001541505        0.0000147464        0.0016232109
  O         0.0001447504       -0.0000834135        0.0001336090
  H        -0.0015721639       -0.0005252537        0.0003336962
  H        -0.0004473421       -0.0002363601        0.0008959993
  O        -0.0001233608       -0.0003713574       -0.0000748198
  H        -0.0004795245       -0.0014516034       -0.0007538215
  H        -0.0002717120        0.0003074869        0.0000180823
  O        -0.0002922164        0.0004160525       -0.0000411603
  H         0.0000807476        0.0006475887       -0.0016750387
  H        -0.0000472005       -0.0006992441       -0.0003700350
  O         0.0001095023        0.0001297740        0.0002699044
  H         0.0003199014        0.0015971232       -0.0013306903
  H        -0.0005320497       -0.0006288154       -0.0012267890
  O         0.0001145606        0.0000472354        0.0001765189
  H        -0.0001978425       -0.0013852383        0.0000292917
  H        -0.0002264256       -0.0010638156       -0.0000610297
  O         0.0000359797       -0.0000318928       -0.0002003911
  H        -0.0011574126        0.0003382870        0.0015442028
  H        -0.0011400593       -0.0004846567       -0.0007467757
  O         0.0001002842       -0.0001179828       -0.0000491969
  H         0.0010378931       -0.0000967135       -0.0000475756
  H         0.0005122161       -0.0004598586       -0.0000670777
  O         0.0002644943       -0.0000747988        0.0002719186
  H         0.0001673079        0.0001425527       -0.0000098409
  H         0.0005267929        0.0009260334       -0.0001470434
  O        -0.0000926755       -0.0002544949        0.0003919311
  H        -0.0007198955       -0.0000761923       -0.0002524492
  H         0.0002513596       -0.0002023236        0.0009361482
  O         0.0001860168       -0.0006169726       -0.0000274366
  H         0.0000533575        0.0003510219       -0.0002947351
  H        -0.0007301767       -0.0009044990        0.0000731553
  N         0.0000173395        0.0001090463       -0.0002964753
  H        -0.0002013325       -0.0008881406       -0.0014488854
  H         0.0004282025        0.0008489919       -0.0000277669
  H        -0.0011677112       -0.0000195458       -0.0000374558
  N        -0.0000010434        0.0000228876       -0.0002023300
  H         0.0004301222       -0.0000721884       -0.0007141294
  H         0.0001650392       -0.0004192240       -0.0006115599
  H        -0.0001770280        0.0007706160        0.0005963533
  N         0.0000160464        0.0000458313        0.0002294554
  H         0.0003757572        0.0003083704       -0.0008792938
  H         0.0007629065        0.0007261782       -0.0019402072
  H         0.0015459581        0.0008421631        0.0000174293
  N        -0.0001845945       -0.0000130134       -0.0002059453
  H        -0.0010702901       -0.0001938395       -0.0001285138
  H        -0.0001430306        0.0007326388       -0.0007092267
  H        -0.0007839339       -0.0020044377       -0.0002695003
  H        -0.0008754297       -0.0014857789        0.0013577861
  N        -0.0002128273       -0.0001117450       -0.0001212138
  H        -0.0012398176        0.0001018472       -0.0001331672
  H         0.0007015293       -0.0004822983        0.0000552795
  H        -0.0008835621        0.0007042037        0.0000567645
  H         0.0008431854       -0.0010785294        0.0000233086
  N        -0.0000917095        0.0000369728        0.0000122865
  H        -0.0003335596        0.0018157173        0.0010801954
  H        -0.0003398517       -0.0004519511       -0.0002128284
  H        -0.0004165900       -0.0008729837       -0.0008535439
  H        -0.0004414331        0.0002187405       -0.0000187526
  N        -0.0000739398        0.0002011244       -0.0000404878
  H        -0.0001594213        0.0000762133        0.0000694570
  H        -0.0010074680       -0.0002589454        0.0003266423
  H         0.0011187424       -0.0009302560       -0.0002271491
  H         0.0005943857       -0.0009415871        0.0006755851
  P         0.0000598882       -0.0000565232       -0.0002695337
  O         0.0000044471        0.0000156325       -0.0000485286
  O        -0.0001258366        0.0002019175       -0.0001770285
  O        -0.0000166253       -0.0002669183        0.0001676662
  O        -0.0000205716        0.0003382883        0.0001879575
  H        -0.0000764601       -0.0005162569        0.0004197096
  P         0.0000760842       -0.0001858195        0.0000170891
  O        -0.0000763011       -0.0006917677        0.0003594971
  O        -0.0001415868        0.0001846505       -0.0001126087
  O         0.0000906366        0.0002193037       -0.0001386336
  O         0.0001249715       -0.0000177439        0.0001219018
  H         0.0005369178        0.0008710743        0.0001163286
