     488
 i =        0, time =        0.000, E =     -6463.2228228093
  S         0.0001235828        0.0001703303       -0.0003483670
  S        -0.0000154669       -0.0000110509        0.0001222315
  S        -0.0000707912       -0.0000022183       -0.0000734464
  S        -0.0002371399       -0.0001486304       -0.0001087431
  S         0.0004341864        0.0001372241       -0.0008013041
  S        -0.0001824564        0.0001653671       -0.0001852917
  S         0.0003758188       -0.0001187253        0.0002547520
  S        -0.0003177231        0.0001861878       -0.0002114517
  S         0.0000499497       -0.0000202823        0.0002335119
  S        -0.0000725458       -0.0000387985       -0.0000099230
  S         0.0000375924       -0.0000376047        0.0002161117
  S         0.0001350498       -0.0000458542        0.0000433316
 Ca         0.0000703963        0.0000745532        0.0000781292
 Ca        -0.0000705358        0.0000163215       -0.0000353756
 Ca        -0.0000277357        0.0000298878        0.0000757553
 Ca        -0.0003015450       -0.0001123957       -0.0001740142
 Ca         0.0000411670       -0.0000545817       -0.0000186241
 Ca         0.0002476636       -0.0000427913       -0.0001696497
 Ca         0.0001222221        0.0001231075        0.0000250006
 Ca        -0.0000293634        0.0001095033        0.0002944716
 Ca        -0.0002808468       -0.0001918266        0.0000291683
 Ca         0.0002644669       -0.0001100442        0.0007471090
 Ca        -0.0003356705        0.0000217854        0.0000647548
 Ca         0.0000807926        0.0000493237        0.0000427069
  O         0.0001614800        0.0000640579        0.0000219921
  O        -0.0000081258       -0.0000437220       -0.0000303068
  O         0.0001018686        0.0006019506       -0.0002432020
  O         0.0000978635        0.0000105402        0.0001301610
  O        -0.0005812317        0.0002074291       -0.0000445942
  O         0.0000633899        0.0000035856       -0.0001059251
  O         0.0007283097       -0.0005167292        0.0001834401
  O         0.0000203347        0.0000758938       -0.0000181841
  O        -0.0001152230       -0.0003495628        0.0004861627
  O         0.0000313460        0.0000187961       -0.0000730810
  O         0.0000687803        0.0001770993        0.0001574453
  O         0.0000320791        0.0000778597        0.0001248148
  O        -0.0001759890       -0.0001610610        0.0000172802
  O         0.0000099230       -0.0000212271       -0.0001086662
  O         0.0006625885       -0.0000099343       -0.0001399167
  O         0.0001434598        0.0000528545       -0.0001042649
  O        -0.0004577060       -0.0000048474        0.0005392843
  O         0.0000207125       -0.0000791666       -0.0000050748
  O        -0.0000997639        0.0001177769       -0.0004285620
  O         0.0002117147       -0.0000567584        0.0001180462
  O        -0.0000643682       -0.0006006075        0.0001307235
  O         0.0002322845        0.0000493857        0.0001018613
  O         0.0002530997       -0.0001379367        0.0000579443
  O         0.0001759962        0.0001246108       -0.0000911437
  O        -0.0002011029        0.0009367599        0.0001594945
  O        -0.0000930299       -0.0001961922       -0.0000154805
  O        -0.0000687272       -0.0002546668       -0.0000788086
  O         0.0001068472       -0.0001232519       -0.0000269765
  O        -0.0000498049        0.0001336480        0.0002896020
  O         0.0001086851        0.0000608459        0.0000111898
  O        -0.0000545635        0.0002433715        0.0000635523
  O        -0.0000464447        0.0000143162        0.0002208173
  O        -0.0000846859       -0.0000360024       -0.0000619802
  O        -0.0000330510        0.0000647288       -0.0000033673
  O        -0.0000332844        0.0000305938       -0.0002306122
  O        -0.0000089913       -0.0001704879        0.0000148010
  O         0.0000622240        0.0001302991       -0.0000714543
  O         0.0001131598        0.0001228174       -0.0000401845
  O        -0.0000890550       -0.0000006827       -0.0000326843
  O        -0.0001052735       -0.0001135911        0.0000325583
  O         0.0002252511        0.0001124531       -0.0001960468
  O         0.0000030812       -0.0002424188       -0.0000991770
  O        -0.0000296769        0.0000019145       -0.0000787020
  O        -0.0000674993        0.0000681387       -0.0001186727
  O         0.0004829327       -0.0004518236       -0.0005563686
  O        -0.0000137560       -0.0000287229        0.0000644818
  O        -0.0001351520        0.0003536809       -0.0001030785
  O         0.0000236489        0.0000242003       -0.0000076795
  O        -0.0001542660       -0.0001543085       -0.0000143263
  O        -0.0003488410        0.0001029142       -0.0001307967
  O         0.0001287031        0.0000234596       -0.0000208553
  O        -0.0000624752        0.0003123293        0.0000231476
  O        -0.0001428254       -0.0000824874       -0.0003573581
  O        -0.0000749732        0.0000511683       -0.0000570957
  O         0.0000571396        0.0002791518       -0.0002263619
  O        -0.0002163098        0.0000075858       -0.0000272886
  H         0.0001770964        0.0001392765        0.0000319277
  H        -0.0001671306       -0.0000601945       -0.0001515096
  H        -0.0000522339        0.0000127537        0.0000430681
  H        -0.0000530160       -0.0000449173        0.0000095517
  H        -0.0000370319        0.0001512727        0.0002077796
  H        -0.0000164073       -0.0001132881        0.0001052824
  H        -0.0000257147       -0.0000502863        0.0000951384
  H         0.0000046870       -0.0000410988       -0.0000274867
  H        -0.0000054612       -0.0000164713        0.0000382841
  H        -0.0000781379        0.0000457350        0.0000209740
  H        -0.0000788359        0.0000029836       -0.0000289119
  H         0.0001951840        0.0001056151        0.0000813701
  H         0.0000160362       -0.0000197362        0.0000872525
  H         0.0000465058       -0.0000958687        0.0000088854
  H         0.0001109231       -0.0000885208        0.0000659088
  H         0.0000950807       -0.0000530459        0.0000042265
  S        -0.0000180792       -0.0002872151       -0.0004646692
  S         0.0001876005        0.0000083369       -0.0000882306
  S         0.0002938690       -0.0004524401       -0.0001151295
  S        -0.0000620129       -0.0001248416        0.0000966716
  S        -0.0000103961       -0.0000855137       -0.0002830609
  S         0.0001524848        0.0002484761        0.0002770824
  S        -0.0001263326       -0.0000006537       -0.0000328835
  S        -0.0005472555       -0.0001078825       -0.0001427150
  S         0.0000871969       -0.0001039617       -0.0000053566
  S        -0.0001473725        0.0003554926        0.0000540405
  S         0.0000200911       -0.0000300101        0.0002105096
  S        -0.0002803202        0.0000006240        0.0000581003
 Ca        -0.0001595143       -0.0001508776        0.0000647252
 Ca        -0.0000211376        0.0000335489       -0.0000506204
 Ca        -0.0000671680       -0.0001159623        0.0000922236
 Ca         0.0004382227       -0.0000209871        0.0007325925
 Ca         0.0000910250        0.0002318141        0.0001194564
 Ca         0.0001431483       -0.0000687012       -0.0002234631
 Ca        -0.0000821835       -0.0000709833       -0.0000334339
 Ca        -0.0000105105        0.0004389263        0.0007131086
 Ca         0.0000225951        0.0000811930        0.0002934074
 Ca         0.0002963790        0.0000551091        0.0000211499
 Ca         0.0000383804       -0.0000085247       -0.0000096493
 Ca         0.0000149003        0.0000067142       -0.0000161962
  O         0.0002096228       -0.0000471319        0.0002294671
  O         0.0000568552       -0.0000494544        0.0000558263
  O        -0.0000527887        0.0000369497       -0.0000585234
  O         0.0000589522        0.0001167777       -0.0001570257
  O        -0.0002089098       -0.0002419049       -0.0000972761
  O        -0.0002036461        0.0000939440       -0.0000153968
  O        -0.0003893417       -0.0005303996        0.0000321359
  O        -0.0000184342        0.0000376091       -0.0000330272
  O         0.0002114097        0.0001986026       -0.0005217824
  O        -0.0000663038       -0.0000155924        0.0002481872
  O        -0.0000620831       -0.0001740445       -0.0002270539
  O         0.0000171060        0.0000581784        0.0001203092
  O        -0.0003442519        0.0003491204        0.0002253328
  O        -0.0000928388       -0.0000232705       -0.0001077130
  O        -0.0004338007        0.0007853602       -0.0001262272
  O        -0.0000029766       -0.0000128012       -0.0000866717
  O         0.0000711255       -0.0000718410        0.0001718617
  O         0.0000625116       -0.0000915515       -0.0001430979
  O        -0.0000267874        0.0000384537       -0.0000873123
  O         0.0000661676        0.0001088652        0.0002497443
  O        -0.0000551402        0.0001452976        0.0002149723
  O        -0.0001099275       -0.0002533344        0.0001553468
  O         0.0001014976        0.0000151750       -0.0000116471
  O         0.0003000611        0.0000890368        0.0001430805
  O        -0.0001087755        0.0002334948       -0.0001290693
  O        -0.0000859894       -0.0000452714       -0.0003085066
  O         0.0001137185       -0.0001415146        0.0000459097
  O         0.0002751421        0.0000556449       -0.0000070307
  O         0.0002758463       -0.0001067833       -0.0000243148
  O         0.0000204821       -0.0000428776        0.0000248508
  O         0.0000138639       -0.0003234386       -0.0004856441
  O         0.0003132575        0.0001402568       -0.0001095756
  O        -0.0000161420        0.0000182418        0.0000828249
  O        -0.0000852579       -0.0001379868        0.0001157602
  O         0.0000404885       -0.0000116403       -0.0002484713
  O         0.0001684732        0.0001145799       -0.0001523219
  O        -0.0000568866        0.0000243798       -0.0000458041
  O         0.0000573798       -0.0000313725       -0.0001512718
  O        -0.0000001043       -0.0000055654       -0.0000189153
  O         0.0000227591       -0.0000477306       -0.0000543288
  O         0.0000340926        0.0000361435        0.0000322566
  O        -0.0000042857        0.0000558246        0.0000733722
  O        -0.0000341347        0.0000445933        0.0000040716
  O         0.0000875107        0.0000524778       -0.0000194494
  O        -0.0002133737       -0.0001884674        0.0000642183
  O        -0.0000066193       -0.0002153536       -0.0000072597
  O         0.0000172458        0.0002822755       -0.0001723032
  O         0.0000640883       -0.0000304253        0.0001152172
  O         0.0002293125        0.0000401613        0.0001111186
  O         0.0000789458        0.0001918331        0.0000173837
  O        -0.0001057251       -0.0000130046       -0.0000787055
  O         0.0000366176       -0.0000104494        0.0000788396
  O         0.0002877920       -0.0003262551       -0.0001738802
  O        -0.0001266915       -0.0002184851       -0.0002138625
  O        -0.0002114935       -0.0001156904        0.0001714105
  O        -0.0005707827       -0.0000627512       -0.0001989647
  H        -0.0001086649       -0.0000491881       -0.0000373572
  H         0.0000699573       -0.0000006933        0.0000536574
  H        -0.0000201533        0.0000054115       -0.0000472715
  H        -0.0000796380       -0.0001116423       -0.0000301559
  H        -0.0000682360        0.0001400583        0.0001331644
  H         0.0000625892       -0.0002542536       -0.0000062611
  H         0.0000000570       -0.0000608466       -0.0000144275
  H         0.0000299905        0.0000156097       -0.0000446215
  H        -0.0000466301       -0.0000023667       -0.0000131299
  H        -0.0000366298        0.0001116098       -0.0000677237
  H         0.0001242853       -0.0000287847       -0.0000290235
  H         0.0001011430       -0.0000029016        0.0000549806
  H        -0.0001326045        0.0001090148        0.0000616432
  H        -0.0000274824        0.0000280141        0.0000751404
  H         0.0000168663        0.0000146380       -0.0000706376
  H         0.0000860164       -0.0000794092        0.0001134810
  S        -0.0001100039       -0.0000019884        0.0001133589
  S        -0.0000153283        0.0000226121        0.0000306687
  S         0.0000391789        0.0000276921        0.0000110680
  S         0.0000538799       -0.0002516204        0.0000064200
  S        -0.0000314618       -0.0000283411        0.0001200019
  S        -0.0000512853        0.0002953683       -0.0003625175
  S         0.0000155794       -0.0000260302        0.0000640121
  S         0.0001093476       -0.0000145766       -0.0001091245
  S         0.0000091486        0.0000533690        0.0001622383
  S        -0.0000067588       -0.0002733380       -0.0002545637
  S         0.0000266884        0.0000591251        0.0002290849
  S        -0.0001978069       -0.0000660118        0.0001606062
 Ca         0.0000973819        0.0000152663       -0.0000188056
 Ca         0.0000603451       -0.0000729207       -0.0000146131
 Ca         0.0000561948       -0.0000048408        0.0001024664
 Ca        -0.0003114071       -0.0000674070        0.0001991891
 Ca        -0.0000642845       -0.0000161825        0.0000050861
 Ca         0.0002130155        0.0003692851        0.0009683622
 Ca         0.0001028780        0.0000119925        0.0003714094
 Ca        -0.0000028408        0.0002532822        0.0005472315
 Ca         0.0000228912       -0.0000390184        0.0000790333
 Ca         0.0003715930       -0.0002250152        0.0004364626
 Ca        -0.0000099036       -0.0000903774        0.0000682091
 Ca         0.0000126405        0.0000199157        0.0000017719
  O        -0.0000122628        0.0001529633       -0.0002113257
  O        -0.0000814335        0.0000362525        0.0000004767
  O         0.0000933047       -0.0001452674       -0.0002352989
  O         0.0000018116        0.0002852396       -0.0000161003
  O        -0.0001725521       -0.0000795476       -0.0000286123
  O         0.0000852448       -0.0000044695        0.0001972812
  O         0.0002493810       -0.0004001736       -0.0001554145
  O        -0.0001385755        0.0000186536        0.0000876083
  O        -0.0000239523        0.0000364147       -0.0000751403
  O         0.0001344785       -0.0001266205       -0.0000321669
  O         0.0000149985        0.0000253275        0.0000011645
  O        -0.0000323556       -0.0000217783        0.0001029752
  O         0.0005778424       -0.0004486047       -0.0012167466
  O         0.0000415963       -0.0000476671       -0.0000583870
  O        -0.0003203447        0.0006498195        0.0001800067
  O        -0.0001644916       -0.0000101027       -0.0001338336
  O        -0.0000046035       -0.0000386757       -0.0002484004
  O        -0.0001715679       -0.0001798874        0.0002186150
  O         0.0000194058       -0.0000440365       -0.0000165091
  O        -0.0001038157       -0.0000263170        0.0000311081
  O         0.0000179977        0.0000334042       -0.0000031448
  O         0.0000220002        0.0000019070        0.0000434470
  O        -0.0000291486        0.0000038829        0.0000698593
  O         0.0001524955        0.0001102435        0.0000428356
  O        -0.0000818573        0.0000074838        0.0000937516
  O         0.0001045234       -0.0002636700        0.0000794557
  O        -0.0000660964        0.0000277601        0.0000430712
  O         0.0000948686        0.0001010664        0.0002943428
  O        -0.0004386971        0.0005518584        0.0000174451
  O         0.0001692311        0.0000577008        0.0000122366
  O         0.0002881606       -0.0007532022       -0.0001271431
  O        -0.0001220464       -0.0000198630        0.0000716718
  O        -0.0001138323       -0.0000240528       -0.0002132071
  O        -0.0000354823        0.0000461372        0.0002577524
  O         0.0000625972       -0.0000364257        0.0000263279
  O        -0.0001731849        0.0003479822       -0.0003005993
  O         0.0001794026        0.0001257586        0.0000103197
  O        -0.0000612210       -0.0001208050        0.0002426402
  O         0.0000541285       -0.0000454438       -0.0001425738
  O         0.0000498720        0.0002324642        0.0000584928
  O        -0.0000535244       -0.0000639343       -0.0002291318
  O        -0.0000178647        0.0001463154        0.0002537852
  O        -0.0000747632        0.0000468354       -0.0000040134
  O         0.0000510335        0.0000988605       -0.0002427588
  O         0.0000549887        0.0000822933       -0.0001948685
  O        -0.0000325858        0.0002378971       -0.0000169313
  O        -0.0004529984        0.0001447453       -0.0002196903
  O         0.0003200869       -0.0001920086        0.0000286545
  O        -0.0000185708        0.0000145843        0.0001403921
  O         0.0000917251        0.0000244771        0.0000895724
  O         0.0000468474        0.0001344889        0.0000816826
  O        -0.0002265174       -0.0000253059        0.0002625012
  O         0.0000453400       -0.0000186758        0.0000680066
  O        -0.0002593564       -0.0000728721        0.0001884627
  O        -0.0001759693       -0.0000540077       -0.0003654237
  O        -0.0000357285        0.0002540304       -0.0000874150
  H         0.0000642996        0.0000099746       -0.0000333764
  H        -0.0000985087       -0.0001213560       -0.0000259170
  H         0.0000282462       -0.0000408747       -0.0000681402
  H         0.0000570530        0.0000403350       -0.0000208604
  H         0.0000252222       -0.0000247559       -0.0000641158
  H         0.0000553194        0.0000436861       -0.0000309034
  H         0.0000934674       -0.0003940909        0.0002408212
  H        -0.0001087011        0.0000966997        0.0002713348
  H        -0.0000570354        0.0000331264       -0.0000051136
  H         0.0002409555       -0.0001249420       -0.0000656724
  H        -0.0000372382       -0.0000084027        0.0000083984
  H        -0.0000303934       -0.0002445760       -0.0003927834
  H        -0.0000596299        0.0000463320        0.0000119445
  H         0.0000348990        0.0002105446       -0.0001732346
  H        -0.0000866025        0.0003127889        0.0000585963
  H         0.0000931662       -0.0000345508        0.0001252606
  S        -0.0000808013       -0.0002438069        0.0004313360
  S        -0.0001366575        0.0001794566       -0.0001325211
  S        -0.0003561897        0.0000785851       -0.0001495880
  S        -0.0001597306        0.0000224696        0.0002446013
  S         0.0000228429       -0.0000419047        0.0001225673
  S        -0.0001813783        0.0001994069       -0.0002076484
  S         0.0001237976        0.0000196945       -0.0000933412
  S        -0.0002571325       -0.0001338982       -0.0001508057
  S         0.0001198540        0.0000581774        0.0000966604
  S         0.0002789978        0.0000687103       -0.0001721954
  S        -0.0000065958       -0.0000086804        0.0001329471
  S         0.0000808345       -0.0000454850       -0.0001747680
 Ca         0.0000247062        0.0000187316        0.0002302308
 Ca         0.0000631992        0.0000605694        0.0000628484
 Ca        -0.0000229430       -0.0000432594        0.0001070360
 Ca        -0.0002074639       -0.0003156918        0.0004177798
 Ca        -0.0000273293        0.0000261848        0.0000737268
 Ca        -0.0000343321        0.0001177156        0.0001747806
 Ca         0.0000154204        0.0000137165        0.0001047174
 Ca        -0.0001232828        0.0003149550        0.0011972503
 Ca         0.0000599530        0.0000017104        0.0000960709
 Ca         0.0000096389       -0.0006830872        0.0013681222
 Ca         0.0001541535        0.0000333080        0.0000776577
 Ca         0.0000538423        0.0000073357        0.0000465148
  O         0.0000329831       -0.0000652785       -0.0001476539
  O         0.0000582121       -0.0000799310       -0.0001239628
  O        -0.0000555031        0.0000777548       -0.0001489537
  O         0.0000821054        0.0000036123       -0.0000461123
  O        -0.0001985049        0.0008589240       -0.0001392769
  O        -0.0000500803        0.0001216178        0.0000713340
  O         0.0007069722       -0.0004411903       -0.0005438566
  O         0.0000641989        0.0001143733        0.0001594712
  O        -0.0000411621        0.0000431341        0.0004533747
  O         0.0000929262       -0.0000261612        0.0001716283
  O         0.0000974922       -0.0002813614        0.0003532369
  O         0.0000197190       -0.0001274584       -0.0003676262
  O         0.0002434854       -0.0004706530       -0.0000860611
  O         0.0002009055        0.0000279833        0.0002763681
  O         0.0003634420       -0.0000313239       -0.0006362553
  O        -0.0000117178        0.0001299666       -0.0002171473
  O         0.0000104255        0.0000816367       -0.0000522349
  O         0.0000798280       -0.0000936763        0.0002057831
  O        -0.0000192905       -0.0000000040       -0.0000069745
  O         0.0000818992       -0.0000481952        0.0000804815
  O        -0.0001916806        0.0000588102        0.0000018057
  O         0.0000536803        0.0001722830        0.0001058386
  O        -0.0001255880       -0.0000326844       -0.0000588415
  O         0.0000160951       -0.0000484406        0.0000276435
  O        -0.0000118231       -0.0000687043       -0.0001348596
  O        -0.0000026153       -0.0002456715        0.0001730992
  O        -0.0000143646        0.0000197015       -0.0000301603
  O         0.0000295539        0.0002320975        0.0001066842
  O        -0.0002338581        0.0004372733       -0.0001911376
  O         0.0000829662       -0.0000657980       -0.0000002165
  O        -0.0001948417        0.0002163559        0.0000114601
  O         0.0000881923        0.0000750089       -0.0000356764
  O        -0.0001153521       -0.0000086457       -0.0001989168
  O        -0.0002484407       -0.0001701362        0.0003539388
  O         0.0000715581       -0.0000814797       -0.0002527589
  O         0.0000241751        0.0000454445        0.0002277188
  O        -0.0000898923       -0.0000677250        0.0000104970
  O        -0.0000398780       -0.0000719042        0.0001451030
  O         0.0000222991        0.0000310674       -0.0000622455
  O        -0.0000407685        0.0000216277        0.0000220909
  O        -0.0000656758        0.0000076623        0.0000569282
  O         0.0001231859        0.0000930065        0.0000733722
  O         0.0000102910       -0.0000077236       -0.0000072776
  O        -0.0000836836       -0.0000749171       -0.0000171857
  O         0.0000230302       -0.0002497082       -0.0007788053
  O        -0.0001616352       -0.0001566437       -0.0000102883
  O        -0.0003480418       -0.0002126870       -0.0004256455
  O         0.0000277724       -0.0000846104        0.0000301430
  O         0.0000309923        0.0000344306       -0.0000676732
  O         0.0001355039        0.0001571451       -0.0000686352
  O        -0.0000746285       -0.0000338467        0.0000065011
  O        -0.0000808379       -0.0000450486       -0.0001118302
  O         0.0001903758        0.0000272241       -0.0001266027
  O        -0.0003382748        0.0002309440       -0.0003463971
  O        -0.0000051303       -0.0000471507       -0.0000920405
  O        -0.0012795092        0.0002314682        0.0003724046
  H        -0.0000661963       -0.0000230151        0.0000353203
  H        -0.0000714414       -0.0000694942       -0.0000702139
  H         0.0000686341        0.0000508448        0.0000035816
  H         0.0002670598       -0.0000562167       -0.0002396324
  H        -0.0000423760        0.0001201582       -0.0000030948
  H        -0.0000056803       -0.0000077472       -0.0000401123
  H        -0.0000598241       -0.0000559513       -0.0000231508
  H         0.0000066819        0.0000355263        0.0000277884
  H         0.0000083518       -0.0000136430        0.0000088498
  H        -0.0000468491        0.0000126405        0.0000487586
  H        -0.0000137024       -0.0000055369        0.0000614762
  H        -0.0000242934       -0.0001258926       -0.0000776534
  H         0.0000214778       -0.0000909664        0.0000924836
  H         0.0003015554       -0.0001438307        0.0000674881
  H        -0.0000144538        0.0001267373        0.0000932809
  H        -0.0003283164        0.0004666724       -0.0002604297
  O         0.0001828521        0.0001063079       -0.0002300594
  H         0.0000143728        0.0000296757        0.0000156194
  H        -0.0000689242       -0.0001615152        0.0002949168
  O        -0.0000164283        0.0005753680       -0.0000826539
  H         0.0002131679       -0.0002317203        0.0003716074
  H        -0.0001970840       -0.0003042098       -0.0002930961
  O         0.0001726938        0.0001622311       -0.0000818670
  H         0.0000038102       -0.0000908665       -0.0001448027
  H        -0.0001694871       -0.0000675778        0.0001471135
  O         0.0000585446        0.0001141161        0.0000334229
  H         0.0000041788        0.0000122220       -0.0000017602
  H        -0.0000569928       -0.0001149708       -0.0000409442
  O        -0.0002697767        0.0000050347        0.0002707831
  H        -0.0000334444       -0.0000117459       -0.0000018186
  H         0.0002495459        0.0000600827       -0.0002418290
  O        -0.0001098188        0.0000081933        0.0002436148
  H         0.0001146473        0.0000072248       -0.0001818530
  H        -0.0000010632        0.0000215197       -0.0000353764
  O         0.0001680830       -0.0001433804       -0.0001103869
  H         0.0001103985       -0.0000851628        0.0001364383
  H        -0.0002290660        0.0002173540       -0.0000182212
  O         0.0011177696        0.0009161029       -0.0006649557
  H        -0.0008947858       -0.0011630416        0.0007260799
  H        -0.0002818759        0.0002351878        0.0003272938
  O         0.0001196384        0.0002800644       -0.0000684226
  H         0.0000629214       -0.0000742648        0.0000687171
  H         0.0000145004       -0.0000198459       -0.0000119429
  O         0.0000244732       -0.0001653372        0.0000888026
  H        -0.0000153215       -0.0000161088       -0.0000715291
  H         0.0000030405        0.0001800357        0.0000375856
  O         0.0000329926        0.0000743066       -0.0000462991
  H        -0.0000012468       -0.0000232628        0.0000617130
  H        -0.0000177954        0.0000090221       -0.0000061565
  O         0.0001855669       -0.0000088740        0.0000062467
  H        -0.0000416090        0.0000149330       -0.0000051516
  H        -0.0000748943        0.0000039356       -0.0000151616
  O        -0.0000436904       -0.0000943624       -0.0001338987
  H        -0.0001065191        0.0000288763        0.0000066621
  H         0.0001375686        0.0000794273        0.0001182892
  O         0.0000743351        0.0002731818       -0.0008829084
  H        -0.0003443350        0.0003016748        0.0008442449
  H         0.0003186521       -0.0005620883        0.0000400547
  O         0.0000033689        0.0002471225       -0.0000671966
  H        -0.0001117043       -0.0000370796       -0.0000251655
  H        -0.0000137012       -0.0000823167       -0.0003121190
  O        -0.0001488882       -0.0001120594        0.0000249283
  H         0.0000870498        0.0000741981       -0.0000548456
  H         0.0000208597        0.0000286448        0.0000218225
  O         0.0000974787        0.0001146683       -0.0003331787
  H        -0.0000879690       -0.0000442027        0.0003212324
  H         0.0001318421       -0.0001284935       -0.0001001064
  O         0.0002019747       -0.0002573773       -0.0005376468
  H        -0.0002637523        0.0000947754       -0.0001063433
  H         0.0002073274        0.0000237028        0.0004540991
  O         0.0000177097       -0.0000023451       -0.0000547296
  H        -0.0000007169        0.0000325835        0.0000372658
  H         0.0000003557        0.0000421539       -0.0000067760
  O         0.0000079513        0.0000888551       -0.0000302192
  H         0.0000074699        0.0000490374       -0.0000040545
  H        -0.0000692196       -0.0001495662        0.0000766559
  N         0.0001734374       -0.0001513561       -0.0001470350
  H        -0.0000260277       -0.0000088841        0.0000474277
  H        -0.0000467166        0.0000236447        0.0000208143
  H        -0.0000678863        0.0001761037        0.0000243823
  N         0.0001705452        0.0000129998       -0.0000330440
  H        -0.0001260341       -0.0001024291       -0.0000277101
  H        -0.0000078688        0.0000007653       -0.0000015112
  H        -0.0000406392        0.0000777376        0.0000496572
  N        -0.0000579071        0.0002570442       -0.0001749327
  H         0.0001243935       -0.0001328016       -0.0000450242
  H        -0.0000456274       -0.0001082543        0.0001874325
  H        -0.0000350870        0.0000240906        0.0000165509
  N        -0.0003172804        0.0003154803        0.0000176322
  H         0.0000412813        0.0001096319        0.0001283202
  H         0.0002242987       -0.0001959081        0.0000840422
  H        -0.0000551323       -0.0000973534        0.0000450063
  H         0.0001543164       -0.0000517004       -0.0001509510
  N        -0.0000198166        0.0000821821        0.0004352786
  H        -0.0000650106       -0.0000219003       -0.0002321536
  H        -0.0000038236       -0.0000142836        0.0002256828
  H         0.0000266034       -0.0000854223       -0.0002318157
  H         0.0000209622       -0.0000022966       -0.0001103800
  N        -0.0002678640       -0.0002102585       -0.0001677833
  H         0.0000357947        0.0001142138       -0.0000046392
  H         0.0001602178        0.0000676100        0.0001209983
  H         0.0003768790        0.0001259703        0.0000262664
  H        -0.0000532984        0.0000311073        0.0000324577
  N        -0.0001096003       -0.0001360661       -0.0001066784
  H         0.0000101663        0.0000487090        0.0000184644
  H         0.0001507387        0.0000453343        0.0000060393
  H        -0.0000104682        0.0000684410        0.0000370360
  H        -0.0002486223       -0.0000791052        0.0000606885
  P        -0.0002395005       -0.0002393736       -0.0001319135
  O         0.0003583276        0.0001655590       -0.0003489761
  O         0.0000896824        0.0000224052        0.0000524677
  O         0.0000313359        0.0001225138        0.0002288119
  O        -0.0001209494        0.0001929218        0.0000271011
  H         0.0000795102       -0.0000638734        0.0000378327
  P        -0.0001962875        0.0001208587        0.0003953951
  O        -0.0000112062        0.0000154068       -0.0002103384
  O        -0.0000414050       -0.0001371194       -0.0000211865
  O        -0.0001121489        0.0000363050        0.0000046597
  O         0.0003363201       -0.0000789540       -0.0001471571
  H        -0.0000054238       -0.0000152215        0.0000508250
     488
 i =        1, time =        0.500, E =     -6463.2037219718
  S         0.0003252027        0.0011614704        0.0002118865
  S        -0.0013421229        0.0061732948        0.0039525428
  S         0.0007199893        0.0008606778        0.0014521993
  S        -0.0088265425        0.0026822160       -0.0036413193
  S        -0.0029429594        0.0002400399       -0.0046214361
  S        -0.0021455686        0.0020542002       -0.0034463334
  S         0.0006967190        0.0003666159       -0.0046477382
  S         0.0026310132        0.0031288605        0.0030599361
  S         0.0014270108        0.0003095024        0.0035086665
  S         0.0070457867       -0.0072859251        0.0013965646
  S        -0.0003913980       -0.0017560118        0.0051653708
  S         0.0017015251       -0.0008073889       -0.0029018349
 Ca        -0.0001878420       -0.0006318269        0.0033895302
 Ca         0.0006962795       -0.0000753691       -0.0003064738
 Ca         0.0003882750       -0.0006895899        0.0002631306
 Ca        -0.0006847881       -0.0002108522       -0.0004592207
 Ca         0.0002481306        0.0008312035       -0.0033024811
 Ca        -0.0002111524       -0.0002901691       -0.0003888242
 Ca        -0.0003865131        0.0003364912        0.0006572481
 Ca         0.0001545228        0.0000655388        0.0004287635
 Ca        -0.0003885113       -0.0004975849       -0.0058903420
 Ca         0.0004692595        0.0001993863        0.0002922628
 Ca        -0.0006351103       -0.0000703949        0.0020800693
 Ca         0.0013231451        0.0005693928        0.0001703727
  O         0.0005495675       -0.0016048746        0.0024921928
  O        -0.0036518298       -0.0041404492       -0.0031445339
  O        -0.0003277824        0.0053661216       -0.0024470907
  O        -0.0004484947       -0.0013352904        0.0009102240
  O         0.0005718634       -0.0008518319       -0.0011277451
  O         0.0021735136       -0.0010681575        0.0017938070
  O         0.0019602549       -0.0036258563        0.0005111648
  O         0.0032431341       -0.0023817177       -0.0017773120
  O        -0.0018443439       -0.0016816472       -0.0049817833
  O         0.0002637457        0.0009141943        0.0006295041
  O        -0.0018686440       -0.0024009759        0.0020695834
  O         0.0031286470        0.0027979000        0.0019839329
  O         0.0011642380        0.0002141391        0.0007783475
  O         0.0030372056       -0.0033832672       -0.0035271230
  O         0.0001316975        0.0006948663       -0.0001326049
  O         0.0035512998       -0.0018444187        0.0018131057
  O        -0.0006750247        0.0001337711        0.0048289399
  O         0.0006961737        0.0005866088        0.0013537873
  O         0.0010655622        0.0005132119        0.0018788449
  O        -0.0009602093        0.0006763616       -0.0012969242
  O         0.0021502345       -0.0000115735        0.0010071868
  O         0.0017204614       -0.0017176962        0.0016838573
  O        -0.0003213887       -0.0007347283        0.0087187772
  O         0.0003388556       -0.0034925777       -0.0007052103
  O         0.0028207900        0.0011162445        0.0021556951
  O        -0.0005970207       -0.0010015234        0.0005461007
  O        -0.0008562684       -0.0005111634        0.0004994891
  O        -0.0027709141       -0.0005572510       -0.0004563936
  O        -0.0006796802       -0.0016433409       -0.0011745384
  O         0.0006936564       -0.0001003626        0.0003701463
  O         0.0009194121       -0.0003982838        0.0021686365
  O         0.0006820938        0.0010510112       -0.0004800308
  O        -0.0015944812       -0.0002131263       -0.0015761524
  O        -0.0046339692        0.0027261854       -0.0063832586
  O         0.0002417748        0.0007370019       -0.0039925527
  O        -0.0011751174        0.0005430430        0.0013790890
  O         0.0001570656       -0.0002559775       -0.0045347972
  O        -0.0023275507        0.0037170312        0.0006811493
  O        -0.0007753905        0.0009184204        0.0009298647
  O        -0.0013120525        0.0013376346       -0.0010351752
  O         0.0005312538       -0.0000692942        0.0056777998
  O         0.0006540069        0.0021250547       -0.0014995145
  O         0.0009370868       -0.0001678556       -0.0053331247
  O        -0.0023719759       -0.0019088548       -0.0010312487
  O        -0.0005327381        0.0006627339       -0.0004139786
  O        -0.0031466913       -0.0006183742        0.0046328506
  O        -0.0018840727        0.0022455871       -0.0033286666
  O         0.0016534669        0.0009230824        0.0020539532
  O         0.0027681830        0.0019212032       -0.0043180917
  O         0.0032833312       -0.0020084388        0.0062392580
  O        -0.0046304051       -0.0021682174       -0.0044081196
  O         0.0014595304       -0.0017615525        0.0002700409
  O        -0.0056927458        0.0063278763       -0.0133413418
  O        -0.0026959765        0.0034605794        0.0002767173
  O        -0.0122301682        0.0181107257        0.0042047176
  O         0.0076415925       -0.0025080184        0.0065013090
  H         0.0025096161        0.0000870622       -0.0040237228
  H         0.0115602240       -0.0049315657        0.0113541554
  H         0.0036056021        0.0023308976       -0.0003975972
  H         0.0028936166       -0.0003297439       -0.0030665029
  H         0.0001178341        0.0015552246        0.0045770115
  H        -0.0008396658        0.0027969346       -0.0025904221
  H         0.0041911708       -0.0075927576        0.0061036194
  H        -0.0031503875        0.0038961088        0.0016950307
  H        -0.0059408047       -0.0017787131        0.0099029559
  H         0.0003273156       -0.0012498307        0.0004124264
  H         0.0016194060       -0.0001353030        0.0076225776
  H        -0.0035903768       -0.0024340796       -0.0037131557
  H         0.0073071475       -0.0062924561        0.0075738230
  H         0.0023280605       -0.0024858593        0.0000747106
  H         0.0073977199       -0.0102038805       -0.0095164146
  H        -0.0015895064        0.0029119309        0.0008453858
  S        -0.0006762612        0.0005086199        0.0025163925
  S        -0.0012820374       -0.0048314547        0.0067337352
  S        -0.0000382154       -0.0044914607        0.0001151489
  S         0.0025990939        0.0038457687       -0.0025417913
  S         0.0001299774        0.0004325363        0.0019732048
  S        -0.0032915945        0.0031495251        0.0007607210
  S         0.0002679373        0.0012827275        0.0015966139
  S        -0.0000528201       -0.0014817897        0.0005174945
  S        -0.0042161342        0.0012529583       -0.0013292973
  S         0.0029838256       -0.0021441249       -0.0046986379
  S        -0.0011172942        0.0012005095       -0.0020099511
  S         0.0038264519       -0.0043925689        0.0015802718
 Ca         0.0000162164       -0.0002542116       -0.0018679879
 Ca        -0.0007960094        0.0001023463       -0.0004405191
 Ca        -0.0005138537        0.0000670707        0.0016890966
 Ca         0.0000386662       -0.0004255480        0.0004075034
 Ca         0.0009642906       -0.0001159463        0.0003865245
 Ca         0.0000278894       -0.0000880114       -0.0004934631
 Ca         0.0002967424       -0.0003654003        0.0060452156
 Ca        -0.0004588382       -0.0000128286        0.0011549848
 Ca        -0.0000670757       -0.0000006500        0.0015320317
 Ca        -0.0001851047       -0.0003345975       -0.0000374668
 Ca         0.0006210632       -0.0001603509        0.0050319747
 Ca        -0.0002464978        0.0006139238        0.0001078499
  O        -0.0001144224        0.0007987113       -0.0032564927
  O         0.0008606117        0.0009535590        0.0000857812
  O         0.0001872245        0.0011820039        0.0002931361
  O        -0.0027794545       -0.0050289264        0.0032831055
  O         0.0002547285       -0.0010611264        0.0002261839
  O        -0.0032373485        0.0023803209       -0.0023589610
  O         0.0002642986        0.0009203146       -0.0000523643
  O        -0.0005454060        0.0001202372       -0.0002491390
  O         0.0006781430        0.0009187345        0.0034653543
  O         0.0018668675        0.0044183558       -0.0035052463
  O         0.0010851434       -0.0009994869       -0.0016293766
  O         0.0002675647        0.0001178453        0.0001541166
  O        -0.0053983482        0.0001234748        0.0021858314
  O         0.0012832416       -0.0018712427       -0.0039611509
  O        -0.0005116243        0.0025608568        0.0003233406
  O         0.0012827058        0.0004753162       -0.0017524258
  O        -0.0000405426       -0.0007576088       -0.0000972183
  O         0.0006534756       -0.0010999797       -0.0008879091
  O        -0.0000672954       -0.0003780967       -0.0008607738
  O        -0.0030923885       -0.0005570962       -0.0025836132
  O        -0.0006271778       -0.0011730594       -0.0093635137
  O         0.0017623046       -0.0024457351        0.0010062927
  O        -0.0017360144       -0.0009652276       -0.0007214546
  O        -0.0003312677        0.0002187980        0.0018672414
  O         0.0010835237        0.0010567892        0.0024690881
  O         0.0009857072        0.0002579278       -0.0005030202
  O        -0.0003424181       -0.0002526813       -0.0014069435
  O         0.0036999243        0.0023944816        0.0014139425
  O         0.0019627991       -0.0011480556       -0.0017116907
  O         0.0001859974        0.0003253069        0.0004711310
  O        -0.0001298652       -0.0029113821        0.0017201683
  O        -0.0008186758       -0.0017016677       -0.0005961459
  O         0.0020850963        0.0008600337        0.0024407756
  O         0.0014233711        0.0007588797        0.0012256669
  O         0.0020908044       -0.0001103283       -0.0027182109
  O         0.0000908894        0.0024062700       -0.0012853595
  O         0.0018387018       -0.0034439995        0.0028047845
  O        -0.0009411213        0.0041778602        0.0015054535
  O         0.0001067501        0.0029256635        0.0018695277
  O        -0.0022379814        0.0037546860       -0.0016384596
  O        -0.0008464439        0.0006229327       -0.0038805156
  O        -0.0014722513       -0.0022528293       -0.0009111646
  O        -0.0009831749       -0.0029643560        0.0042595263
  O        -0.0003202945       -0.0009646686        0.0001974678
  O         0.0000886763        0.0004982146        0.0021184637
  O        -0.0007073425        0.0005060891        0.0028879698
  O        -0.0006712048       -0.0008223929       -0.0001192386
  O        -0.0007426485        0.0006632358       -0.0005092155
  O         0.0163779740        0.0066303515        0.0018502119
  O        -0.0097244914        0.0041898484       -0.0106042433
  O         0.0252990354       -0.0083791028        0.0073629280
  O        -0.0016143348       -0.0014833576        0.0006935657
  O         0.0024151561       -0.0076793229        0.0011269864
  O        -0.0020941906        0.0036719356       -0.0015669857
  O        -0.0047549531       -0.0005088051       -0.0000398302
  O        -0.0017369052        0.0115100689        0.0026250376
  H        -0.0140919987       -0.0060537016       -0.0019779667
  H        -0.0026948284       -0.0020009184       -0.0026292696
  H         0.0016217265       -0.0026965755        0.0035903903
  H         0.0016202334       -0.0012675837       -0.0020615419
  H        -0.0003417728        0.0004063239        0.0013440713
  H        -0.0015774572        0.0012454937       -0.0003853499
  H        -0.0006533691        0.0008851201        0.0002696883
  H        -0.0004471860        0.0017467806        0.0009888740
  H        -0.0016558168       -0.0004312588        0.0022620215
  H         0.0004499503       -0.0013407347        0.0004841378
  H        -0.0278642265        0.0118709476       -0.0013813370
  H        -0.0065290923       -0.0020437419       -0.0068207297
  H        -0.0011495210        0.0042743980       -0.0024115411
  H         0.0021591489       -0.0023126362        0.0000976857
  H         0.0006349277       -0.0016879745        0.0003480287
  H         0.0056053225       -0.0079867861        0.0019063536
  S         0.0005551318        0.0008537864        0.0009922366
  S         0.0011486993       -0.0023299580        0.0040801941
  S         0.0010369746        0.0012166935       -0.0021926242
  S        -0.0009824154        0.0027920712        0.0045549995
  S        -0.0036245242       -0.0011512286        0.0036513377
  S        -0.0007084711        0.0070801161       -0.0048420699
  S         0.0010929729       -0.0030574774       -0.0077769775
  S         0.0015988607       -0.0016983760        0.0032272651
  S        -0.0010072994        0.0013026374        0.0020143063
  S        -0.0014101009       -0.0008194855       -0.0022985347
  S        -0.0004553780       -0.0004842266        0.0111465431
  S         0.0055739315        0.0011807694        0.0013172867
 Ca         0.0001963808        0.0008816580       -0.0028140158
 Ca         0.0000024279        0.0009010236       -0.0004270092
 Ca         0.0000989064       -0.0000702216       -0.0005192626
 Ca        -0.0007233490       -0.0004804218       -0.0002110616
 Ca         0.0002536843        0.0000454372        0.0028702135
 Ca        -0.0005732537       -0.0001410179        0.0011640355
 Ca         0.0002992772       -0.0003782035       -0.0021681901
 Ca         0.0001796299        0.0001977025        0.0008671615
 Ca         0.0001131661        0.0003381266        0.0014648038
 Ca         0.0003887058        0.0001637155        0.0001456630
 Ca         0.0004261421       -0.0003104140        0.0016571802
 Ca        -0.0003132156        0.0002360099        0.0003432791
  O         0.0000907665       -0.0015149488       -0.0013902239
  O        -0.0021722533       -0.0007849527       -0.0019483331
  O         0.0008721024       -0.0028220047       -0.0012799897
  O        -0.0002826078       -0.0005016553        0.0004687479
  O        -0.0012235525        0.0026187453        0.0012529750
  O         0.0008945633       -0.0004412880        0.0007783042
  O        -0.0011584959        0.0015032901       -0.0012905633
  O         0.0029894372       -0.0018340947       -0.0029268328
  O        -0.0003571358        0.0002072424       -0.0030413821
  O         0.0017488586        0.0029435763       -0.0024988939
  O         0.0001686117        0.0000743254        0.0042705077
  O        -0.0003856439       -0.0014635386       -0.0021001235
  O         0.0008004309        0.0012424339       -0.0017897324
  O        -0.0032428978        0.0010303925        0.0005154321
  O        -0.0001771707        0.0016241554        0.0007387532
  O        -0.0002693312        0.0008899138       -0.0007860528
  O         0.0012205689       -0.0004163508       -0.0019333656
  O        -0.0005705080       -0.0015816342        0.0012125197
  O        -0.0004043642        0.0002436879        0.0023417611
  O        -0.0031542135       -0.0000848322       -0.0036298964
  O         0.0011163062        0.0007796361       -0.0056036801
  O         0.0002299789       -0.0023287501        0.0018285555
  O        -0.0023493336        0.0024860799       -0.0016593123
  O        -0.0012052908       -0.0004196209       -0.0000210152
  O         0.0018289299       -0.0005024600        0.0011164482
  O         0.0006884573       -0.0027870017        0.0017042468
  O        -0.0003257867        0.0005768477       -0.0009866801
  O         0.0019832799        0.0018993490        0.0028234747
  O         0.0001170214       -0.0026752096        0.0004118974
  O         0.0005673448       -0.0016033209        0.0015901305
  O         0.0002437306       -0.0012293143        0.0003100343
  O         0.0016222207       -0.0005843676       -0.0009374428
  O         0.0035788872        0.0017895737        0.0012882024
  O         0.0003815967        0.0010404895        0.0006435777
  O         0.0017279226        0.0004173454       -0.0047932317
  O        -0.0002522201        0.0001377352       -0.0030050077
  O        -0.0009587770       -0.0008872310        0.0026730770
  O         0.0008632777        0.0004541853       -0.0010315833
  O        -0.0010007929       -0.0016337236       -0.0022098081
  O        -0.0006188772       -0.0008058503       -0.0001415823
  O        -0.0009857189       -0.0014957525       -0.0088810020
  O         0.0000540541       -0.0004482490        0.0008984099
  O        -0.0001969925        0.0019580886        0.0020421445
  O        -0.0028956172       -0.0005129221        0.0016778504
  O         0.0003552545       -0.0025516837       -0.0012593055
  O         0.0001824620        0.0007644833        0.0009089940
  O         0.0002978813       -0.0020368156       -0.0012225633
  O        -0.0021709353       -0.0003514886        0.0000639493
  O         0.0119413166       -0.0097061366       -0.0085934194
  O        -0.0059157813       -0.0043050747       -0.0064621713
  O        -0.0075586595       -0.0033962657        0.0023766042
  O        -0.0081889349       -0.0050923022        0.0093386066
  O         0.0038108763        0.0158675739       -0.0007770073
  O        -0.0032583726       -0.0032951976        0.0038208411
  O         0.0001835818       -0.0170108594        0.0075891704
  O         0.0007546696       -0.0015732590       -0.0000700745
  H        -0.0012188563        0.0018249794       -0.0002492362
  H        -0.0047501484       -0.0078030198       -0.0077190445
  H         0.0026360340        0.0041352109       -0.0057030202
  H        -0.0029090410        0.0005688312        0.0036533145
  H         0.0006443706       -0.0028187964       -0.0041755640
  H         0.0008202415        0.0011755010       -0.0001090545
  H        -0.0009819647        0.0107374508       -0.0116081473
  H        -0.0014901980        0.0072777160        0.0002834036
  H        -0.0102347324        0.0074210353       -0.0018270766
  H         0.0045592587        0.0006139721       -0.0032909978
  H         0.0051618723       -0.0013948195        0.0009484667
  H         0.0005759158        0.0028140601        0.0018060920
  H        -0.0001560176       -0.0123765255        0.0049013286
  H        -0.0009174996        0.0032646042       -0.0002118574
  H         0.0000207474        0.0066725176        0.0044004998
  H         0.0022764072        0.0008585826        0.0020593073
  S        -0.0006005566        0.0009126356        0.0001435137
  S         0.0079918782        0.0033987464       -0.0016619724
  S        -0.0081318317        0.0019022028        0.0009409043
  S         0.0006988235       -0.0018628576       -0.0019430460
  S        -0.0044139871       -0.0002785555       -0.0016228750
  S         0.0030779076       -0.0002951217        0.0032941912
  S         0.0019084919       -0.0038139337       -0.0025182648
  S         0.0011551363       -0.0034949199        0.0010637562
  S         0.0034531648       -0.0010497800       -0.0002169725
  S         0.0007577501       -0.0061485477       -0.0021852000
  S        -0.0003626655        0.0002788109        0.0019733666
  S        -0.0016390561        0.0005668661       -0.0015588160
 Ca        -0.0001855366        0.0007886295        0.0004923657
 Ca         0.0000044795       -0.0003382424        0.0007277541
 Ca         0.0001906342       -0.0001648490        0.0001262364
 Ca        -0.0009080227       -0.0006802325       -0.0000101839
 Ca         0.0003674222        0.0006705829       -0.0009373033
 Ca        -0.0001538572        0.0003091792        0.0006070462
 Ca        -0.0002738267        0.0001126135        0.0012640867
 Ca         0.0005817414        0.0006750528        0.0013884906
 Ca         0.0003188745        0.0005710797        0.0065115283
 Ca         0.0003260662       -0.0007418626        0.0013294084
 Ca         0.0002205854       -0.0000581987        0.0018243510
 Ca        -0.0003064470       -0.0004559150       -0.0001843032
  O        -0.0000714417       -0.0016608808       -0.0048005902
  O        -0.0015029060       -0.0019813801       -0.0018343128
  O        -0.0013080170       -0.0018060624        0.0037490594
  O         0.0000673738        0.0008754121       -0.0004555623
  O        -0.0003227205       -0.0002241676       -0.0005676077
  O        -0.0028530487       -0.0015849759       -0.0010547425
  O         0.0032224871       -0.0052859766        0.0006999364
  O        -0.0007518807        0.0026943560        0.0036238762
  O         0.0012177029       -0.0006016715        0.0069843346
  O        -0.0025894301       -0.0025521626        0.0039322716
  O         0.0085863538       -0.0009483045        0.0016697919
  O        -0.0002054098       -0.0000159157       -0.0003460762
  O         0.0009120717        0.0008580755       -0.0028004600
  O        -0.0009217441        0.0020758019        0.0028191822
  O        -0.0019039051        0.0020092772       -0.0006271987
  O         0.0013191114       -0.0011485373        0.0014051212
  O         0.0027101301       -0.0018986351       -0.0036869113
  O         0.0007018302        0.0000057203       -0.0029250532
  O         0.0013613001        0.0004824768        0.0017368445
  O         0.0001850994        0.0007604397       -0.0008147728
  O        -0.0007928921        0.0001720800        0.0031025941
  O        -0.0027703457        0.0010298667       -0.0026872824
  O        -0.0027784333        0.0027207476        0.0007191923
  O        -0.0003167754        0.0017849461       -0.0009629844
  O         0.0010767379        0.0005643426       -0.0031697378
  O         0.0001269434        0.0005534571        0.0025632836
  O        -0.0001026861        0.0011617108       -0.0057621636
  O        -0.0000061052        0.0010060371       -0.0003198982
  O         0.0003565587       -0.0018595405       -0.0005745096
  O        -0.0015997963       -0.0010990565       -0.0005674459
  O         0.0014596278       -0.0017534104       -0.0003484306
  O         0.0004851506        0.0008327158        0.0031269825
  O        -0.0017448799       -0.0012338762       -0.0003447014
  O        -0.0001646824        0.0011535413        0.0026359395
  O         0.0019978132        0.0006852332       -0.0025794741
  O         0.0002584565       -0.0011698710        0.0007401264
  O        -0.0027384800        0.0007554932       -0.0010491939
  O        -0.0015751658        0.0054718741        0.0024406886
  O        -0.0001090651       -0.0001833330       -0.0037446186
  O        -0.0003322448       -0.0012644478        0.0022736989
  O        -0.0027785726        0.0014273173       -0.0027178084
  O         0.0012080902        0.0003334252        0.0010646474
  O        -0.0009087424       -0.0001107078        0.0098484488
  O         0.0009892078        0.0005653462       -0.0006971348
  O        -0.0002437864        0.0018586894       -0.0018267745
  O         0.0008914018        0.0006045481       -0.0018555913
  O        -0.0027043562        0.0048595564       -0.0029261406
  O         0.0013825079        0.0012998444       -0.0006920468
  O         0.0068291497        0.0036222632        0.0002015862
  O        -0.0093733936        0.0208276096       -0.0000267502
  O         0.0017042201        0.0003146109        0.0054518534
  O         0.0019990693        0.0029156385       -0.0031501618
  O         0.0007434791       -0.0057237463       -0.0116378226
  O        -0.0010658673       -0.0025036050        0.0033152863
  O        -0.0015674039       -0.0026526392        0.0017030630
  O        -0.0075240160       -0.0007726196       -0.0025576881
  H        -0.0060793071       -0.0029073939       -0.0010977638
  H         0.0052292432        0.0036754404        0.0071857729
  H         0.0020871395        0.0003495818        0.0010581038
  H         0.0097776828       -0.0023221947       -0.0093458647
  H        -0.0041321733        0.0061222057        0.0079433814
  H         0.0144813675       -0.0126890961        0.0067421600
  H         0.0000833727        0.0004056432       -0.0010521145
  H         0.0009985471       -0.0036434944        0.0004444249
  H        -0.0001784490       -0.0009320173       -0.0000818752
  H         0.0045389053        0.0029538056       -0.0034948805
  H        -0.0031477474       -0.0008439052       -0.0070545712
  H        -0.0026607900        0.0009526854       -0.0021674247
  H        -0.0002650282       -0.0008996191        0.0026944560
  H        -0.0030372993        0.0004137721        0.0009808440
  H         0.0000833326        0.0001350276       -0.0004790992
  H         0.0044956650       -0.0018989826        0.0008177689
  O        -0.0003913408        0.0007147948       -0.0085831535
  H         0.0029256335        0.0018890202        0.0054062387
  H        -0.0006892786       -0.0026867470        0.0028676291
  O        -0.0010610730       -0.0056990359        0.0082494686
  H         0.0002931028        0.0099031535       -0.0076890900
  H        -0.0005436884       -0.0044906840       -0.0009223562
  O         0.0013992022        0.0035555639        0.0286432749
  H        -0.0040393512       -0.0024715457       -0.0303712523
  H         0.0029364900       -0.0014102597       -0.0849502461
  O         0.0001630043        0.0108525172       -0.0149763641
  H        -0.0006451960       -0.0112527136        0.0148314864
  H         0.0003371562        0.0001382395       -0.0163084695
  O         0.0020487208       -0.0003995782        0.0001007063
  H        -0.0001435464       -0.0002404021        0.0090346083
  H        -0.0005718528       -0.0001808224        0.0005826258
  O        -0.0101824662       -0.0041992372        0.0070841421
  H         0.0035129420        0.0007800791       -0.0081614236
  H         0.0071801051        0.0022345786        0.0012915857
  O         0.0073976162       -0.0094958997        0.0005630942
  H        -0.0021655935        0.0032259696       -0.0047714090
  H        -0.0057078764        0.0056216298        0.0031069084
  O         0.0051324587        0.0055489730       -0.0118091166
  H        -0.0067563364       -0.0064743292        0.0076291494
  H         0.0015348887        0.0005691968        0.0047721914
  O         0.0022390953       -0.0034162266        0.0039975026
  H        -0.0044981969        0.0074981756       -0.0001664494
  H         0.0024182350       -0.0043705283       -0.0037853067
  O         0.0003037143        0.0008133254        0.0130193147
  H         0.0004806538       -0.0034004463       -0.0085485218
  H        -0.0015268535        0.0025853755       -0.0040135981
  O        -0.0194707090        0.0101416964        0.0100741403
  H         0.0119707329       -0.0084793932        0.0026016863
  H         0.0068310277       -0.0008152886       -0.0132053374
  O         0.0033080731        0.0034365851       -0.0074717405
  H        -0.0057328513        0.0035006660        0.0048705866
  H         0.0036969519       -0.0046087797        0.0027785284
  O         0.0118129614       -0.0075411798       -0.0080769350
  H        -0.0097379931        0.0040135959        0.0075473689
  H        -0.0015046801        0.0007623208        0.0007007208
  O        -0.0035902577        0.0037748517       -0.0132735866
  H        -0.0002450274       -0.0000746756        0.0047773235
  H         0.0032525726       -0.0045120469        0.0076686668
  O        -0.0013955253       -0.0100454940       -0.0530395152
  H         0.0002249769        0.0058841199       -0.0176395899
  H         0.0028222937        0.0021887021        0.0252375710
  O        -0.0171240918       -0.0241040538        0.0121282098
  H         0.0130358517        0.0131247854       -0.0170134480
  H         0.0034375372        0.0108902194        0.0053281702
  O         0.0016152652        0.0011307479        0.0131532958
  H        -0.0017452001       -0.0009583649        0.0201561419
  H        -0.0017971404        0.0019737465        0.0293551483
  O        -0.0014734623        0.0014302000       -0.0043612223
  H        -0.0002998829       -0.0004678761       -0.0003224737
  H         0.0008741828       -0.0007399177        0.0537095892
  O         0.0083518810        0.0010564714       -0.0050891962
  H        -0.0014161021        0.0002825207        0.0044965873
  H        -0.0068181176        0.0001144081       -0.0008047310
  O        -0.0022437157        0.0042285126        0.0066423070
  H         0.0005598652       -0.0079209569       -0.0048581693
  H        -0.0000646717        0.0042716997       -0.0017354498
  N         0.0022189184        0.0022647267       -0.0100099731
  H        -0.0014668265        0.0071519383        0.0131026780
  H        -0.0074553567       -0.0042089374       -0.0032451297
  H         0.0067349635       -0.0051121648        0.0003818520
  N        -0.0012890016        0.0122723963        0.0046268073
  H        -0.0030210607       -0.0012980046        0.0001027874
  H         0.0001161467        0.0003760648        0.0004405900
  H         0.0042114440       -0.0113572820       -0.0047860089
  N         0.0268954997        0.0161226441       -0.0152468310
  H         0.0005665356       -0.0016651511        0.0005094582
  H        -0.0082061061       -0.0087723140        0.0194900200
  H        -0.0191983260       -0.0056220454       -0.0052738683
  N        -0.0124942182       -0.0037541732       -0.0008696199
  H         0.0082916475        0.0047513553       -0.0005478393
  H         0.0041029829       -0.0041627894        0.0023581386
  H         0.0008958677        0.0021685534        0.0002943001
  H         0.0004037824        0.0024219701       -0.0007342814
  N        -0.0007879827       -0.0016771783        0.0255679230
  H         0.0013197400       -0.0001297193        0.0530283321
  H        -0.0016540984        0.0012753697       -0.0228967446
  H         0.0020935209       -0.0021679157       -0.0250025793
  H        -0.0009231203        0.0027052125       -0.0210617894
  N        -0.0065361344        0.0120758894       -0.0050305408
  H        -0.0013381168       -0.0153215350        0.0025624316
  H         0.0035392238        0.0041002139        0.0035384123
  H         0.0121507588        0.0036004315        0.0026418031
  H         0.0043715620       -0.0007888732       -0.0010997705
  N        -0.0117725731       -0.0068543981       -0.0015264654
  H        -0.0007394510       -0.0002600447       -0.0012028797
  H         0.0134800434        0.0036176904       -0.0009939576
  H        -0.0008439452        0.0031301511        0.0037339002
  H        -0.0120149165       -0.0035688131       -0.0025739600
  P        -0.0023800145        0.0017343882        0.0039378563
  O         0.0006420927        0.0005899682       -0.0005352846
  O         0.0004583347       -0.0024602302        0.0013270981
  O         0.0005646477        0.0014291874       -0.0042408094
  O        -0.0040808060       -0.0053117783       -0.0001492762
  H         0.0044988343        0.0017867754       -0.0014715680
  P        -0.0025348820        0.0059240729        0.0001745647
  O         0.0008524018        0.0024648731       -0.0014933242
  O         0.0031021777       -0.0036171248       -0.0008490249
  O        -0.0003782537       -0.0039838404        0.0033930586
  O         0.0013006681        0.0014619291        0.0034731254
  H        -0.0023795995       -0.0019078533       -0.0047654283
     488
 i =        2, time =        1.000, E =     -6463.1585294492
  S         0.0005381555        0.0021163609        0.0006759831
  S        -0.0028810115        0.0121156599        0.0078548629
  S         0.0014186109        0.0017080317        0.0029811492
  S        -0.0175031913        0.0054583967       -0.0068302799
  S        -0.0062372440        0.0002595513       -0.0084720029
  S        -0.0039830019        0.0037972599       -0.0066364881
  S         0.0010075851        0.0008591936       -0.0095432769
  S         0.0056200071        0.0061035612        0.0063125278
  S         0.0027612622        0.0006164448        0.0066035769
  S         0.0139575068       -0.0146018430        0.0025731778
  S        -0.0007763062       -0.0034456322        0.0098276072
  S         0.0033591119       -0.0016092024       -0.0057554548
 Ca        -0.0004051341       -0.0013016340        0.0065287027
 Ca         0.0014785294       -0.0001821645       -0.0005634952
 Ca         0.0007943119       -0.0014352396        0.0002459199
 Ca        -0.0010604747       -0.0003714289       -0.0006898765
 Ca         0.0004294119        0.0016645735       -0.0067073597
 Ca        -0.0006459928       -0.0005281649       -0.0005666947
 Ca        -0.0008554248        0.0005483534        0.0010994168
 Ca         0.0003186824        0.0000254988        0.0005019021
 Ca        -0.0004736006       -0.0008092133       -0.0119861552
 Ca         0.0006812861        0.0004914890       -0.0001350315
 Ca        -0.0008898369       -0.0001563525        0.0038685767
 Ca         0.0025627102        0.0010296904        0.0002662122
  O         0.0007673377       -0.0031830339        0.0046654195
  O        -0.0069275641       -0.0080125271       -0.0059970068
  O        -0.0006346646        0.0100657176       -0.0047435263
  O        -0.0010164241       -0.0026445878        0.0016604126
  O         0.0013741863       -0.0021117602       -0.0023030826
  O         0.0042228931       -0.0021498741        0.0035835310
  O         0.0031433366       -0.0068423589        0.0008507816
  O         0.0065616201       -0.0048143183       -0.0039875046
  O        -0.0023943868       -0.0021693177       -0.0091412340
  O         0.0005575973        0.0018514824        0.0013092603
  O        -0.0030828952       -0.0046235766        0.0033276126
  O         0.0063558228        0.0056142997        0.0038095318
  O         0.0022201870        0.0003466579        0.0015158407
  O         0.0063460387       -0.0063281525       -0.0071035553
  O        -0.0001302472        0.0014373619       -0.0001286408
  O         0.0069456263       -0.0036241541        0.0035786264
  O        -0.0011761868        0.0001774148        0.0088758857
  O         0.0012963800        0.0014080516        0.0027278552
  O         0.0022083502        0.0008871737        0.0041917205
  O        -0.0021450992        0.0013711728       -0.0027206479
  O         0.0045226627        0.0001884206        0.0017663643
  O         0.0031208233       -0.0032731239        0.0033144576
  O        -0.0005676853       -0.0012061033        0.0173534729
  O         0.0004898269       -0.0068451366       -0.0013181434
  O         0.0056584723        0.0014403517        0.0037681272
  O        -0.0010904206       -0.0017294174        0.0010821244
  O        -0.0016507663       -0.0007830055        0.0009178479
  O        -0.0055954015       -0.0012498965       -0.0008501029
  O        -0.0009177751       -0.0033456716       -0.0026814486
  O         0.0012392257       -0.0002147274        0.0006786273
  O         0.0013830763       -0.0010067438        0.0044525710
  O         0.0015271211        0.0020720919       -0.0013140204
  O        -0.0031993504       -0.0004219233       -0.0029588228
  O        -0.0092783464        0.0054103688       -0.0123519546
  O         0.0005392229        0.0013206127       -0.0077072505
  O        -0.0023696302        0.0011732750        0.0027047656
  O         0.0002576605       -0.0005495817       -0.0093044524
  O        -0.0048441909        0.0074438000        0.0014823135
  O        -0.0014432413        0.0018079357        0.0017738353
  O        -0.0027428397        0.0028224760       -0.0021338170
  O         0.0006483979       -0.0000717265        0.0115771644
  O         0.0014042427        0.0041643700       -0.0030615286
  O         0.0018681147       -0.0005988506       -0.0104912957
  O        -0.0042673487       -0.0036596637       -0.0020772759
  O        -0.0012228689        0.0019261682       -0.0002250882
  O        -0.0060599502       -0.0014350051        0.0098921541
  O        -0.0033902200        0.0040954543       -0.0064427402
  O         0.0032661379        0.0018300148        0.0040294572
  O         0.0058287270        0.0040329533       -0.0086063397
  O         0.0063426468       -0.0039186072        0.0121352861
  O        -0.0089199059       -0.0042923093       -0.0087486091
  O         0.0028226819       -0.0033627106        0.0008208035
  O        -0.0096864288        0.0119049066       -0.0251267019
  O        -0.0050078015        0.0066777160        0.0001480599
  O        -0.0233164322        0.0347284336        0.0094265909
  O         0.0147515651       -0.0049194888        0.0120985245
  H         0.0045181294       -0.0001148955       -0.0079773220
  H         0.0234971013       -0.0100176783        0.0232809206
  H         0.0068115817        0.0045512538       -0.0007901031
  H         0.0054541785       -0.0007501830       -0.0058546471
  H         0.0004983933        0.0025722053        0.0085035338
  H        -0.0016386657        0.0053921317       -0.0050592916
  H         0.0077583463       -0.0142567765        0.0107355047
  H        -0.0060567683        0.0073304095        0.0031235686
  H        -0.0116667029       -0.0034180469        0.0193753597
  H         0.0007433455       -0.0024709262        0.0007634805
  H         0.0032258674       -0.0002533610        0.0147817447
  H        -0.0068498695       -0.0046727563       -0.0068795743
  H         0.0129324890       -0.0110731187        0.0143498237
  H         0.0043531458       -0.0046459354        0.0001950623
  H         0.0142823943       -0.0201212105       -0.0185450726
  H        -0.0031917101        0.0056557287        0.0016275623
  S        -0.0013136695        0.0013337454        0.0053719033
  S        -0.0026143635       -0.0094757599        0.0134167405
  S        -0.0004181933       -0.0083567884        0.0001843532
  S         0.0052779697        0.0078365451       -0.0052139319
  S         0.0002519437        0.0009393845        0.0040554976
  S        -0.0068316585        0.0061617394        0.0012024993
  S         0.0006468243        0.0024689600        0.0030848384
  S         0.0004197983       -0.0027884286        0.0011400901
  S        -0.0084659896        0.0026298124       -0.0028115930
  S         0.0061449408       -0.0047344397       -0.0093871828
  S        -0.0022011949        0.0024465522       -0.0043075140
  S         0.0078554636       -0.0086349973        0.0031087547
 Ca         0.0002126666       -0.0003564226       -0.0039754415
 Ca        -0.0016242076        0.0001963525       -0.0008526238
 Ca        -0.0009521361        0.0002337242        0.0031223770
 Ca        -0.0004212492       -0.0009017423        0.0000711404
 Ca         0.0016288778       -0.0004478395        0.0004470304
 Ca        -0.0000867170       -0.0001023033       -0.0007666485
 Ca         0.0005824181       -0.0005981424        0.0118324081
 Ca        -0.0009197244       -0.0004263487        0.0015982951
 Ca        -0.0001511883       -0.0000759236        0.0025989474
 Ca        -0.0006348661       -0.0007065724       -0.0000600200
 Ca         0.0012551884       -0.0003248906        0.0098690489
 Ca        -0.0004756483        0.0012415847        0.0002292521
  O        -0.0005621317        0.0015880156       -0.0066985013
  O         0.0015965744        0.0018171397        0.0002485490
  O         0.0004300557        0.0022501743        0.0005516658
  O        -0.0056070487       -0.0095913034        0.0066416911
  O         0.0008593021       -0.0018871945        0.0005767023
  O        -0.0060247807        0.0045994506       -0.0045807808
  O         0.0005332980        0.0020013540       -0.0005025763
  O        -0.0011318204        0.0002062152       -0.0005564358
  O         0.0011074497        0.0017717352        0.0072735446
  O         0.0036897317        0.0087348813       -0.0070351605
  O         0.0022073002       -0.0015259759       -0.0030435260
  O         0.0005387230        0.0001999734        0.0001901446
  O        -0.0102651805        0.0004669705        0.0042824315
  O         0.0027069625       -0.0035986298       -0.0077219982
  O        -0.0008184700        0.0042919107        0.0007593898
  O         0.0026195748        0.0009667510       -0.0034211118
  O        -0.0001518837       -0.0014351218       -0.0004057854
  O         0.0012395503       -0.0017676453       -0.0015480848
  O        -0.0001017070       -0.0007233997       -0.0016129938
  O        -0.0063070860       -0.0013830344       -0.0053249693
  O        -0.0007696242       -0.0022632409       -0.0199530990
  O         0.0037695918       -0.0047007010        0.0019567464
  O        -0.0034464535       -0.0019820880       -0.0012953706
  O        -0.0007793145        0.0004310987        0.0038693899
  O         0.0023704616        0.0017668134        0.0051311947
  O         0.0020175347        0.0005295054       -0.0006814717
  O        -0.0008046480       -0.0003668293       -0.0029224427
  O         0.0068928595        0.0045865678        0.0029512937
  O         0.0036059022       -0.0026028262       -0.0032110637
  O         0.0003412818        0.0007209342        0.0009344276
  O        -0.0002226441       -0.0052168419        0.0042482345
  O        -0.0019510923       -0.0035297677       -0.0012609271
  O         0.0041936187        0.0016848939        0.0049509702
  O         0.0030390162        0.0013564194        0.0023585087
  O         0.0043022080       -0.0003460139       -0.0053305632
  O         0.0000799752        0.0049290045       -0.0025502472
  O         0.0035623667       -0.0065873665        0.0054109932
  O        -0.0019773220        0.0085432526        0.0029230397
  O        -0.0000969835        0.0050501760        0.0034801990
  O        -0.0043497585        0.0074491800       -0.0030354735
  O        -0.0014333117        0.0009490629       -0.0077141500
  O        -0.0031146059       -0.0043724994       -0.0017799061
  O        -0.0019720548       -0.0060207317        0.0085592180
  O        -0.0006594717       -0.0019706208        0.0003143489
  O         0.0001802892        0.0012510715        0.0042584311
  O        -0.0019224259        0.0008302472        0.0053555397
  O        -0.0008395590       -0.0018154927       -0.0000446105
  O        -0.0015459332        0.0013170252       -0.0011519719
  O         0.0292885254        0.0117109635        0.0039076941
  O        -0.0196662786        0.0085718627       -0.0215446735
  O         0.0426176796       -0.0129711082        0.0134362574
  O        -0.0034443727       -0.0029606674        0.0014624884
  O         0.0042585753       -0.0134117745        0.0020955296
  O        -0.0039956828        0.0070158738       -0.0025930165
  O        -0.0091284801       -0.0014473144       -0.0004402780
  O        -0.0025390856        0.0211144372        0.0048273579
  H        -0.0249165934       -0.0104455577       -0.0039479234
  H        -0.0050651009       -0.0039130838       -0.0048936893
  H         0.0032075853       -0.0049556854        0.0069607722
  H         0.0032125868       -0.0024171489       -0.0039361594
  H        -0.0005262372        0.0005498723        0.0024773571
  H        -0.0031341382        0.0024319925       -0.0008120463
  H        -0.0012904215        0.0017955076        0.0005610151
  H        -0.0008095837        0.0035225512        0.0020396763
  H        -0.0031698103       -0.0008598739        0.0042698940
  H         0.0010517553       -0.0026104518        0.0009685018
  H        -0.0476529921        0.0195102736       -0.0019214109
  H        -0.0124487799       -0.0032834881       -0.0128418494
  H        -0.0020064888        0.0079074724       -0.0044619353
  H         0.0040786792       -0.0044448397        0.0001485805
  H         0.0010539220       -0.0030144181        0.0009517685
  H         0.0099653594       -0.0145640145        0.0032735042
  S         0.0011940346        0.0016666079        0.0018327216
  S         0.0022209663       -0.0046048140        0.0080257145
  S         0.0019598178        0.0024584866       -0.0042988633
  S        -0.0020180831        0.0056724540        0.0090608200
  S        -0.0071042067       -0.0023304223        0.0069514194
  S        -0.0014531855        0.0137496799       -0.0091823185
  S         0.0021172580       -0.0060703490       -0.0156190769
  S         0.0029661913       -0.0034007411        0.0064336009
  S        -0.0020064662        0.0025269130        0.0037121968
  S        -0.0028017337       -0.0013733203       -0.0043050431
  S        -0.0008409848       -0.0010720749        0.0216052977
  S         0.0112120049        0.0024147843        0.0024929643
 Ca         0.0002934509        0.0017896223       -0.0057514861
 Ca        -0.0000539733        0.0018296607       -0.0008577046
 Ca         0.0001183694       -0.0001340049       -0.0013077375
 Ca        -0.0010903346       -0.0008950101       -0.0005664179
 Ca         0.0005640203        0.0000897987        0.0055677800
 Ca        -0.0013689087       -0.0006305361        0.0013168519
 Ca         0.0004690015       -0.0007906517       -0.0048269239
 Ca         0.0003634777        0.0001489776        0.0011165442
 Ca         0.0001961770        0.0006406930        0.0026943408
 Ca         0.0004091175        0.0004894348       -0.0000133799
 Ca         0.0008433275       -0.0005501417        0.0031264832
 Ca        -0.0006425618        0.0004307423        0.0006510080
  O         0.0001976206       -0.0028728813       -0.0027154955
  O        -0.0042045229       -0.0017000077       -0.0037826917
  O         0.0013913148       -0.0052885704       -0.0023336281
  O        -0.0005837621       -0.0012269167        0.0009594003
  O        -0.0023808132        0.0051401525        0.0022868290
  O         0.0017276887       -0.0008420833        0.0013486333
  O        -0.0024044279        0.0035829345       -0.0025134279
  O         0.0063842333       -0.0035251682       -0.0057509196
  O        -0.0006775171        0.0003325065       -0.0060338069
  O         0.0032399348        0.0059420304       -0.0048580161
  O         0.0003708718        0.0000785239        0.0083566259
  O        -0.0006962712       -0.0028387855       -0.0043000509
  O         0.0008054633        0.0029175066       -0.0023429668
  O        -0.0065404898        0.0020734951        0.0009632429
  O        -0.0002095116        0.0025270250        0.0012279280
  O        -0.0003934548        0.0017969503       -0.0015102735
  O         0.0023758863       -0.0008313720       -0.0034744127
  O        -0.0009780558       -0.0029317000        0.0020645237
  O        -0.0008090922        0.0004212400        0.0047019532
  O        -0.0060573777       -0.0000475104       -0.0070608164
  O         0.0021079988        0.0013579067       -0.0115548570
  O         0.0004465029       -0.0046552962        0.0036285536
  O        -0.0042562909        0.0050988221       -0.0037550993
  O        -0.0025255249       -0.0008806696        0.0000452203
  O         0.0040011054       -0.0010976077        0.0021091409
  O         0.0012611121       -0.0052665213        0.0033226250
  O        -0.0005517436        0.0011071089       -0.0021109864
  O         0.0037696540        0.0035859828        0.0048039516
  O         0.0006655063       -0.0057493993        0.0008259150
  O         0.0009359464       -0.0030939147        0.0031022568
  O         0.0003397834       -0.0016488412        0.0008009099
  O         0.0035326514       -0.0010858625       -0.0018321974
  O         0.0070624482        0.0029385122        0.0011287859
  O         0.0006564942        0.0019957208        0.0009822907
  O         0.0031470210        0.0007766214       -0.0092487227
  O        -0.0002873650       -0.0000772533       -0.0056386512
  O        -0.0018497354       -0.0019563973        0.0051347128
  O         0.0015682082        0.0010837576       -0.0024046775
  O        -0.0019174715       -0.0028553838       -0.0042254415
  O        -0.0011284098       -0.0017453350       -0.0003195144
  O        -0.0015937224       -0.0029001656       -0.0171533463
  O         0.0001206065       -0.0010445910        0.0015738655
  O        -0.0003591956        0.0037562784        0.0039783824
  O        -0.0053860496       -0.0013496047        0.0027627538
  O         0.0007554042       -0.0050323519       -0.0023747026
  O         0.0004002197        0.0013217908        0.0017550615
  O         0.0008342428       -0.0043401086       -0.0020575524
  O        -0.0045910708       -0.0005202937        0.0000327541
  O         0.0235432977       -0.0182987110       -0.0171022883
  O        -0.0112750118       -0.0082039582       -0.0127189759
  O        -0.0143067407       -0.0068163322        0.0046379577
  O        -0.0144631624       -0.0098816637        0.0164303931
  O         0.0077383316        0.0290033738       -0.0010513630
  O        -0.0060417587       -0.0061436487        0.0068812552
  O        -0.0001242350       -0.0323510755        0.0151644911
  O         0.0014762382       -0.0033668870       -0.0001513202
  H        -0.0027390061        0.0033884749       -0.0004685421
  H        -0.0080582412       -0.0146792910       -0.0139937734
  H         0.0048569758        0.0079430263       -0.0111980043
  H        -0.0056637637        0.0010428983        0.0070058947
  H         0.0011584413       -0.0052533509       -0.0077506468
  H         0.0015602909        0.0022226991       -0.0000415416
  H        -0.0016047755        0.0213055455       -0.0226867084
  H        -0.0027269666        0.0133310755        0.0003673992
  H        -0.0198993651        0.0144755532       -0.0033306401
  H         0.0083958887        0.0013539664       -0.0059696589
  H         0.0098387908       -0.0026214040        0.0017595698
  H         0.0010352874        0.0056240509        0.0038412326
  H        -0.0004299659       -0.0223087418        0.0086994942
  H        -0.0016616709        0.0059860942       -0.0002230106
  H         0.0003721470        0.0120497549        0.0083082423
  H         0.0043621060        0.0016990900        0.0039466872
  S        -0.0010577488        0.0019929034       -0.0001537104
  S         0.0160373400        0.0066590620       -0.0033274109
  S        -0.0159675698        0.0033760716        0.0018951343
  S         0.0015563506       -0.0036986173       -0.0040510687
  S        -0.0088023332       -0.0005624392       -0.0035380954
  S         0.0062540208       -0.0007077827        0.0068480861
  S         0.0037288179       -0.0076043431       -0.0050432129
  S         0.0027682669       -0.0069413504        0.0020575593
  S         0.0067004863       -0.0021778193       -0.0006546420
  S         0.0014301193       -0.0124288139       -0.0041557185
  S        -0.0006659002        0.0005879987        0.0036717977
  S        -0.0032982734        0.0012111362       -0.0029052516
 Ca        -0.0004492611        0.0015544441        0.0005908732
 Ca        -0.0000922328       -0.0007101492        0.0014159128
 Ca         0.0003946515       -0.0002208343       -0.0000231357
 Ca        -0.0015942933       -0.0010089183       -0.0003539495
 Ca         0.0007652400        0.0013980674       -0.0020590092
 Ca        -0.0002765811        0.0005130584        0.0010009978
 Ca        -0.0005816265        0.0002048746        0.0022589504
 Ca         0.0012017145        0.0009644398        0.0016423638
 Ca         0.0005619042        0.0011164094        0.0126671644
 Ca         0.0006385718       -0.0007591418        0.0012117659
 Ca         0.0002815878       -0.0001421536        0.0034079531
 Ca        -0.0006605236       -0.0008834889       -0.0004106666
  O        -0.0002406017       -0.0031163450       -0.0091672726
  O        -0.0029777229       -0.0038150166       -0.0034447244
  O        -0.0025516361       -0.0037773858        0.0074975077
  O         0.0000552038        0.0017192794       -0.0007966261
  O        -0.0002702316       -0.0011769476       -0.0009083866
  O        -0.0053135587       -0.0024820297       -0.0021932057
  O         0.0056100259       -0.0099435799        0.0018898256
  O        -0.0016735081        0.0054554289        0.0068361692
  O         0.0023401209       -0.0013651688        0.0132900219
  O        -0.0057983733       -0.0051620797        0.0072292389
  O         0.0169356295       -0.0013299855        0.0023956780
  O        -0.0004335009        0.0000737374       -0.0003399916
  O         0.0012295395        0.0021349478       -0.0055338102
  O        -0.0020640224        0.0039404261        0.0050274132
  O        -0.0035743538        0.0040607262       -0.0006028196
  O         0.0026150173       -0.0024087679        0.0028471397
  O         0.0052870863       -0.0033689067       -0.0074429174
  O         0.0014019844       -0.0001215633       -0.0055081407
  O         0.0025210446        0.0008665814        0.0034937515
  O         0.0003131038        0.0015806434       -0.0015273390
  O        -0.0014424890        0.0001969883        0.0060363635
  O        -0.0051657185        0.0016289046       -0.0044553812
  O        -0.0054826927        0.0055379557        0.0013774321
  O        -0.0009170419        0.0037053286       -0.0018724087
  O         0.0022704539        0.0012786794       -0.0061592318
  O         0.0004037879        0.0010917200        0.0046887434
  O        -0.0003239529        0.0022611798       -0.0113888359
  O        -0.0000644220        0.0018045540       -0.0006768104
  O         0.0011121918       -0.0040916733       -0.0009994757
  O        -0.0032452912       -0.0021845968       -0.0012703308
  O         0.0026363293       -0.0038218450       -0.0007327841
  O         0.0002660258        0.0028122926        0.0054034555
  O        -0.0031453588       -0.0023275549       -0.0002969647
  O        -0.0000344930        0.0026380008        0.0046423485
  O         0.0040118801        0.0016143573       -0.0045753761
  O         0.0005614005       -0.0022561016        0.0011336389
  O        -0.0055282364        0.0015371476       -0.0022604268
  O        -0.0037239662        0.0100366217        0.0045458900
  O        -0.0002308241       -0.0004045639       -0.0076138054
  O        -0.0005537194       -0.0026213089        0.0044221133
  O        -0.0048534874        0.0032304009       -0.0057288103
  O         0.0021525021        0.0004222217        0.0019753433
  O        -0.0019903221        0.0002868969        0.0201985830
  O         0.0019282796        0.0012354756       -0.0013090735
  O        -0.0006469396        0.0039445242       -0.0028089354
  O         0.0017210322        0.0015256461       -0.0034544139
  O        -0.0050048295        0.0097404872       -0.0052908330
  O         0.0022473601        0.0022579191       -0.0013564722
  O         0.0128327325        0.0067581623        0.0001263609
  O        -0.0171542248        0.0371227171        0.0004934310
  O         0.0036809976        0.0006932220        0.0101637602
  O         0.0038586865        0.0056969235       -0.0058835215
  O         0.0004741779       -0.0100765638       -0.0216921615
  O        -0.0011740178       -0.0048130370        0.0062157009
  O        -0.0032780237       -0.0045508301        0.0030587780
  O        -0.0131585316       -0.0021871783       -0.0050174157
  H        -0.0111937786       -0.0054324831       -0.0022627248
  H         0.0100541090        0.0072325003        0.0140593041
  H         0.0039028595        0.0006132629        0.0019593235
  H         0.0173817339       -0.0038655290       -0.0166512142
  H        -0.0074489243        0.0106030005        0.0146524105
  H         0.0256806159       -0.0221175286        0.0117055448
  H         0.0004932013        0.0003704141       -0.0015495713
  H         0.0019232304       -0.0071084470        0.0008272867
  H        -0.0003370924       -0.0018218276       -0.0002637857
  H         0.0083942574        0.0054992549       -0.0066763522
  H        -0.0061289475       -0.0017889015       -0.0132283657
  H        -0.0051133553        0.0020561516       -0.0041261224
  H        -0.0006745537       -0.0015329134        0.0052423402
  H        -0.0062623429        0.0008579872        0.0020087747
  H         0.0000792649        0.0000911662       -0.0010317792
  H         0.0090452416       -0.0039709589        0.0015964374
  O        -0.0006724738        0.0009809285       -0.0156086112
  H         0.0053898264        0.0036656893        0.0099018649
  H        -0.0011182462       -0.0048734477        0.0051652278
  O        -0.0020222900       -0.0111652557        0.0157023862
  H         0.0001686846        0.0189455416       -0.0151656174
  H        -0.0007977792       -0.0083454032       -0.0012648250
  O         0.0021928541        0.0061024653        0.0515755648
  H        -0.0072008423       -0.0043439893       -0.0447069145
  H         0.0056510464       -0.0024058698       -0.1250971899
  O        -0.0002060824        0.0190485149       -0.0261952715
  H        -0.0008180211       -0.0200091612        0.0260153400
  H         0.0006750213        0.0004093772       -0.0232635714
  O         0.0042664431       -0.0009086649       -0.0000593245
  H        -0.0002482609       -0.0004540202        0.0129020085
  H        -0.0012761008       -0.0003621371        0.0013549732
  O        -0.0185484983       -0.0082025252        0.0134880903
  H         0.0064364715        0.0016303591       -0.0154844109
  H         0.0131832281        0.0041776402        0.0024083061
  O         0.0136290063       -0.0174779349        0.0006904856
  H        -0.0043696566        0.0061942581       -0.0090345502
  H        -0.0102451423        0.0100141168        0.0062675878
  O         0.0079118369        0.0092184964       -0.0216137736
  H        -0.0110785436       -0.0107105435        0.0132591771
  H         0.0030081468        0.0007554231        0.0092318234
  O         0.0042564714       -0.0065579819        0.0069433040
  H        -0.0086490491        0.0140093358       -0.0001017339
  H         0.0045181637       -0.0082748041       -0.0067647958
  O         0.0001862090        0.0018048841        0.0251694093
  H         0.0012003308       -0.0064995674       -0.0162874513
  H        -0.0029392129        0.0047916327       -0.0079267531
  O        -0.0360907786        0.0181500104        0.0200502642
  H         0.0218310829       -0.0149727483        0.0044132333
  H         0.0130664151       -0.0016029030       -0.0255117108
  O         0.0059425749        0.0065288394       -0.0136335948
  H        -0.0104369092        0.0064764087        0.0089321936
  H         0.0068997466       -0.0084771561        0.0050459502
  O         0.0211720445       -0.0136573217       -0.0151600933
  H        -0.0171099926        0.0071378876        0.0140620291
  H        -0.0029678956        0.0012871852        0.0014432436
  O        -0.0065014128        0.0061357742       -0.0246684852
  H        -0.0000703063       -0.0005641028        0.0086722674
  H         0.0054253003       -0.0072742793        0.0144636571
  O        -0.0026912429       -0.0186941858       -0.0973360953
  H         0.0004776143        0.0107066072       -0.0262112673
  H         0.0055875105        0.0041654229        0.0373946867
  O        -0.0329784560       -0.0462569600        0.0245374615
  H         0.0253290091        0.0263704371       -0.0330910879
  H         0.0064914730        0.0197928892        0.0094394793
  O         0.0029272877        0.0022438083        0.0249109901
  H        -0.0032057967       -0.0019460874        0.0295532985
  H        -0.0036585414        0.0038194938        0.0432876579
  O        -0.0027684109        0.0029773779       -0.0084657852
  H        -0.0002423373       -0.0010425922       -0.0010523602
  H         0.0010338383       -0.0013728586        0.0786091881
  O         0.0155653256        0.0021254769       -0.0095125501
  H        -0.0025152372        0.0004829358        0.0083038003
  H        -0.0128752139        0.0001852207       -0.0014208547
  O        -0.0043418767        0.0081870629        0.0126099597
  H         0.0010506886       -0.0150612606       -0.0092663092
  H        -0.0001548019        0.0081880688       -0.0032182705
  N         0.0034500615        0.0042892101       -0.0175261128
  H        -0.0024270632        0.0130424113        0.0234154695
  H        -0.0136104604       -0.0078006359       -0.0060522088
  H         0.0125636509       -0.0094449305        0.0006400917
  N        -0.0029121593        0.0237151027        0.0088986842
  H        -0.0055212341       -0.0022152283        0.0002793148
  H         0.0002232196        0.0007134331        0.0008366679
  H         0.0082524501       -0.0222080805       -0.0092402845
  N         0.0510810826        0.0286633408       -0.0245931387
  H         0.0009114452       -0.0028646246        0.0009113287
  H        -0.0139832647       -0.0147794064        0.0335154843
  H        -0.0378368565       -0.0109642754       -0.0108222614
  N        -0.0233404312       -0.0080206982       -0.0015637890
  H         0.0160408193        0.0090261558       -0.0011533407
  H         0.0072274821       -0.0077689724        0.0042495582
  H         0.0018190701        0.0043552850        0.0008506420
  H         0.0005575797        0.0051056834       -0.0011598094
  N        -0.0013197645       -0.0031059878        0.0470515410
  H         0.0026158557       -0.0001637118        0.0785821380
  H        -0.0029723767        0.0024074499       -0.0340025990
  H         0.0036621215       -0.0040922938       -0.0367084160
  H        -0.0018547171        0.0050246801       -0.0308599209
  N        -0.0120876591        0.0216093604       -0.0083142203
  H        -0.0023672860       -0.0278933618        0.0041113581
  H         0.0063719287        0.0077028316        0.0063483754
  H         0.0210754658        0.0061139609        0.0050228705
  H         0.0083027281       -0.0013851610       -0.0021986131
  N        -0.0226269111       -0.0131456747       -0.0026844010
  H        -0.0014567068       -0.0005585264       -0.0023922502
  H         0.0261270194        0.0070028129       -0.0018357665
  H        -0.0017743969        0.0059431351        0.0069808319
  H        -0.0209339913       -0.0060643521       -0.0049585308
  P        -0.0044436962        0.0035180824        0.0075867279
  O         0.0008647503        0.0010118594       -0.0006943212
  O         0.0007811103       -0.0046555867        0.0022769117
  O         0.0010488062        0.0027926752       -0.0083843923
  O        -0.0074491878       -0.0104351970       -0.0003439045
  H         0.0083643725        0.0033663503       -0.0027972886
  P        -0.0046133528        0.0112004252        0.0002566772
  O         0.0015566376        0.0042063948       -0.0023731987
  O         0.0060882556       -0.0069755911       -0.0016160726
  O        -0.0007172681       -0.0076284753        0.0063703994
  O         0.0020908729        0.0026451012        0.0065445166
  H        -0.0045037409       -0.0034571434       -0.0089733832
