     488
 i =        0, time =        0.000, E =     -6463.2228228093
  S         3.1247481925       11.9796930624        1.9764717120
  S         9.5703883521        5.9515655878        5.4645298657
  S         9.6359697322        0.0804765413        1.9749292791
  S         3.1631852529        5.9939692427        5.4618541577
  S         5.2306746774        8.6664085791        2.9388566187
  S        11.6654652909        2.7737279220        6.4718838449
  S         7.5154355864        3.3651918403        2.9359121619
  S         1.0854849703        9.1895611032        6.4058987584
  S         1.0553292122        3.4275233828        2.9360652814
  S         7.5652177304        9.1530079998        6.4988261991
  S        11.7034442387        8.5332132892        2.9421393378
  S         5.2240231469        2.8112123615        6.4766394242
 Ca         6.9400817809        0.0265790577        2.9738124943
 Ca        -0.0323003431        5.9234425638        5.1459271717
 Ca         1.9537492124        8.5912028422        2.9772612996
 Ca         8.3859299163        2.6939092361        6.5015745060
 Ca        10.8047605414        3.4190223470        2.9775547786
 Ca         4.3848869790        9.2748836986        6.5559128916
 Ca         4.3056098134        3.4076193518        2.9746240407
 Ca        10.7121322253        9.1745834287        6.5064823490
 Ca         8.3949682946        8.5194365136        2.9754790616
 Ca         2.0531801291        2.7006213167        6.4623759874
 Ca        -0.1952475089       -0.0449022498        2.9750426342
 Ca         6.3559134693        5.9994917530        5.2063626934
  O         3.2789106016        1.3363423044        2.9413696881
  O        10.4137741829        6.8200677097        6.3073491674
  O         9.4405382786       10.5403590571        2.9403458419
  O         2.3058856460        5.1294572974        6.2975381630
  O         2.1816504910        1.2994250979        8.4509003422
  O         8.6247494859        6.7264768715        4.5503035385
  O        10.6141712610       10.5582470079        8.6065869233
  O         4.0980138071        5.2107893560        4.5472048509
  O         2.4774483684       10.8665644446        2.9380783859
  O         8.6811765970        5.1023824907        6.2861776749
  O        10.3207265706        1.1613273674        2.9382115974
  O         4.0759269671        6.8340302941        6.2795898817
  O         3.9047278173       10.6043988814        8.6055100378
  O        10.5025386256        5.1893478913        4.5639022714
  O         8.5575439181        1.4559254297        8.5983784236
  O         2.2369349847        6.7633804444        4.5613714497
  O         4.4829924485        8.7544178948        4.2443085079
  O        10.6324745586        3.0600736033        7.4860994075
  O         8.2947226600        3.2695835536        4.2266966052
  O         2.1239747678        8.8738197163        7.4097345389
  O         6.1241298505        7.3770105903        2.9516132450
  O        12.5834161771        1.6643730295        6.8627773458
  O         6.5987870539        4.6403147532        2.9528282623
  O         0.1893659756       10.3007676283        6.7878543524
  O         6.3558680309        9.8031836418        2.9435630691
  O        12.5499730723        3.9593047294        6.2176187083
  O         6.4085999301        2.2137465662        2.9440423550
  O         0.1907186392        8.0132432272        6.1390775185
  O         4.3763470020        9.4586677000        8.9190897121
  O        10.9116305569        2.3773642518        5.2089187151
  O         8.0353917552        2.5780010276        8.8520935894
  O         1.8475284094        9.5790826690        5.1377621794
  O         1.8155535532        3.4536755952        4.2467035126
  O         8.5302291650        8.8149671157        7.5609010052
  O        10.9856334784        8.4960730654        4.2780126568
  O         4.2525058172        3.2148067822        7.5027575577
  O        -0.0369426894        4.5567857497        2.9542754901
  O         6.6736190523       10.3084613495        6.8485718182
  O        12.7655705594        7.3799142726        2.9521634667
  O         6.1023459102        1.6599212142        6.8514724771
  O         0.1206509989        2.1481198289        2.9435420941
  O         6.5933378603        8.0253363190        6.2243746983
  O        12.6659867713        9.7973488064        2.9431716385
  O         6.1938798964        3.9191566432        6.1434669869
  O         1.7171939803        2.4132865003        8.8449837272
  O         8.3752458666        9.4762869628        5.2650441862
  O        11.0847703946        9.4519443827        8.9905446041
  O         4.3997939538        2.4447948427        5.2462368845
  O         3.9734724832        5.7529745645        1.8342720780
  O        10.8007971921       11.6441661825        5.6484253896
  O         8.8139435653        6.1928033322        1.8347378974
  O         1.5982994019        0.3634830880        5.3569103974
  O         3.2352634227        6.7900935736        9.2370537841
  O         8.0646878013        0.3828978047        5.2789161884
  O         9.8755787296        5.2392221338        9.3059355169
  O         4.8165659456       11.6602423223        5.2662498809
  H         4.8751191145        6.1400188451        1.8898438521
  H        11.9019117575       -0.6128691991        5.8369991807
  H         7.9157973341        5.7943625547        1.8880725416
  H         0.7897300701       12.2285620090        5.9401670462
  H         3.5083647147        6.2027144736        8.5197992799
  H        10.7698155397       12.5200535995        5.2028215593
  H         9.5570205190        5.8376237389        8.6177656615
  H         1.9836977993       -0.5163248111        5.1709106614
  H         3.7768014321        5.8129695519        2.8480208092
  H         7.5994475005       -0.1959974693        5.9365940203
  H         9.0083203543        6.1378936585        2.8490274177
  H         5.4803311179        0.1055644798        6.1141123222
  H         2.6095706702        7.3889996919        8.8022133835
  H         8.8550150086       -0.1430868352        5.0551999289
  H        10.3486621147        4.5591721725        8.8039942067
  H         4.1019264045       12.3087726603        5.1141505787
  S         3.5195754001       23.7905221766        2.9462128480
  S         9.6989990884       17.7623020630        5.8479317025
  S         9.2001962067       12.0465159160        2.9525288885
  S         3.1929080669       18.0107909269        5.4654942722
  S         5.2091994669       20.6817293830        2.9333859114
  S        11.6677657109       14.5769111996        6.4311296530
  S         7.5921342198       15.2522595981        2.9444026716
  S         1.1820927197       21.2113528002        6.4722707725
  S         1.2104979374       15.4146271325        2.9355577133
  S         7.5400800853       21.2483266276        6.5022927381
  S        11.5351059433       20.4893093547        2.9467499743
  S         5.1405191457       14.7677162592        6.5280212333
 Ca         5.7757724356       11.9934059273        2.9715795592
 Ca         0.0247014150       17.9631798671        5.1385868437
 Ca         1.9833621348       20.6126572801        2.9778763413
 Ca         8.2845079718       14.5632179890        6.6662613430
 Ca        10.7948797273       15.2089651930        2.9804819866
 Ca         4.3629791764       21.3916527438        6.4330523501
 Ca         4.3162791871       15.3695617459        2.9754562256
 Ca        10.6709404449       20.9591445625        6.6316615309
 Ca         8.4515698865       20.7021533154        2.9780441124
 Ca         2.0056650216       14.7222896889        6.5129750757
 Ca         0.3932509201       11.9619062295        2.9701739215
 Ca         6.2820783742       18.0483063355        5.3752662771
  O         3.7615768107       13.1086168490        2.9403838952
  O        10.7071591111       18.5826990356        6.5991330249
  O         8.9602849920       22.9433129135        2.9383079045
  O         2.3131509904       17.1544687284        6.2920928817
  O         2.0907903241       13.4262099129        8.6034715678
  O         8.5461880439       18.6014345637        5.4311218753
  O        10.5352156273       22.4842878481        8.6638101538
  O         4.1490893914       17.2333867936        4.5600655483
  O         2.1502714643       23.0306326728        2.9376124921
  O         9.1854330715       16.6684671130        6.6893949565
  O        10.5684114738       12.8003492504        2.9399395673
  O         4.0922203527       18.8566662198        6.2919765276
  O         4.1342062638       21.9483102789        9.4034373714
  O        10.4664174304       17.2258583111        4.6404090883
  O         8.4161943169       13.4858344732        8.8513493243
  O         2.2864624861       18.7873414507        4.5594776081
  O         4.4124150351       20.7769092328        4.2198087738
  O        10.6484216818       14.5458484234        7.4899565927
  O         8.3656731705       15.1275685257        4.2428529441
  O         2.2250471219       20.9158338121        7.4846516069
  O         6.1134663920       19.4075244844        2.9544105445
  O        12.6901475946       13.5149737319        6.6874990521
  O         6.7569092363       16.5793507101        2.9546728137
  O         0.2834418256       22.3243870606        6.8518922416
  O         6.2873210738       21.8352409535        2.9443110716
  O        12.4440305027       15.8595123035        6.3179976295
  O         6.4383101340       14.1652374405        2.9443638516
  O         0.2780195340       20.0354455399        6.2169798314
  O         4.8612249606       21.1436352890        8.7805923969
  O        10.9549478875       14.3109596068        5.1231146284
  O         8.1125644776       14.6872386861        9.0877966520
  O         1.9634035849       21.5741890700        5.2094294207
  O         1.9713614644       15.3830747077        4.2439344239
  O         8.4677400431       20.8277615056        7.5626924463
  O        10.7994818221       20.4805703730        4.2809022844
  O         4.1678672025       15.1652183402        7.5585686250
  O         0.1886806032       16.5912387428        2.9546572807
  O         6.7667342047       22.4795486401        6.8466775789
  O        12.5838350166       19.3271543245        2.9521835890
  O         5.9693001875       13.5903475721        6.9221302814
  O         0.2131672943       14.1881579030        2.9415809731
  O         6.4794085114       20.2024631681        6.2199106014
  O        12.5017803583       21.7356580617        2.9417793112
  O         6.1370903991       15.8741172402        6.2242765605
  O         1.6381929211       14.5896346659        8.8498182270
  O         8.3752205936       21.5043110517        5.2637541743
  O        10.9241201343       21.3250173734        9.0022681735
  O         4.3413722102       14.4249558077        5.2792779759
  O         4.0588096909       17.7041603180        1.8353247159
  O        11.2353211421       23.6004893846        5.1596044809
  O         8.7687141489       18.4537551771        2.9269890146
  O         1.4754304104       12.3056721142        5.2458520662
  O         2.3491494532       18.8040619633        9.4697857718
  O         8.2041163928       12.3687923804        5.8851889871
  O        10.2002790761       16.6169683717        9.4110857821
  O         4.8821796117       23.6741893823        5.4411290257
  H         4.9528109284       18.1114852612        1.8887463877
  H        11.4445700462       11.8176670818        6.3609575425
  H         8.0430828673       17.7667398576        2.9513391920
  H         0.9986002944       24.1107783001        6.0937822731
  H         2.6776518459       18.0844494243        8.9172794420
  H        11.0405716544       24.5538276886        5.3162195019
  H         9.9135885695       17.1229381961        8.6387896957
  H         1.8440048766       11.3884717713        5.2257367640
  H         3.8581549823       17.7869933520        2.8468175108
  H         7.5941726968       11.7434800964        6.3427592286
  H         9.6322116863       18.0053689000        3.0022256791
  H         5.3507034740       12.1342981308        5.9506752366
  H         2.2235139307       19.5354698793        8.8456456733
  H         9.0609187939       11.8933869133        5.8696557245
  H        10.6014654018       15.8387836518        8.9954283810
  H         4.3240693523       24.4534813983        5.2508912048
  S        15.8954105208       12.0228203922        1.9671598514
  S        22.4071577214        5.9057296146        5.8531739211
  S        22.4215072918       -0.1174063903        1.9636349155
  S        15.8862130453        6.1498103496        5.8837764228
  S        17.8768423414        8.6000779160        2.9409838495
  S        24.3703287365        2.6708290637        6.4878954823
  S        20.3792634455        3.3642812450        2.9375909700
  S        13.8425836955        9.2966086479        6.5068160422
  S        13.9617647040        3.4095530795        2.9453237960
  S        20.1842994073        9.2767670622        6.5554509648
  S        24.2950171825        8.5787419268        2.9386752737
  S        18.0265408211        2.6374574593        6.5155914472
 Ca        19.7399101548       -0.0306431187        2.9698452957
 Ca        12.8282996985        6.0191305122        5.1455388961
 Ca        14.8189153612        8.6575995092        2.9814460546
 Ca        21.2645853850        2.5589217339        6.4971641251
 Ca        23.4520552495        3.2161945313        2.9804806182
 Ca        17.0335321799        9.4242456632        6.5069288479
 Ca        17.1141364289        3.1380858505        2.9791367476
 Ca        23.3520397983        9.0805142506        6.5502973881
 Ca        21.0841118293        8.7505949567        2.9814487428
 Ca        14.8605965365        2.8890735988        6.5972271619
 Ca        12.4231621760        0.0268106451        2.9739582617
 Ca        19.3073628536        5.9306188444        5.7847330917
  O        16.7266432486        0.8583895359        2.9401288695
  O        23.4410668492        6.5725400009        6.7050257808
  O        21.5628984921       11.0090479101        2.9411106161
  O        14.9094890113        5.2621314403        6.6046239476
  O        14.9682452521        1.3890268474        8.5896055705
  O        21.4187110669        6.9184769192        5.4062821401
  O        23.4035345495       10.3916337196        8.6828428141
  O        17.0681984046        5.3663412561        5.4393527846
  O        15.2620102167       10.9149152414        2.9371372921
  O        21.5847502521        4.8778957594        6.5533159675
  O        23.1324990769        0.9414679879        2.9392917370
  O        16.3367716632        7.2391164763        6.7598519801
  O        17.0161938173       10.6343465248        8.6208689447
  O        23.1871934902        5.2902701213        4.7069925492
  O        21.2625086567        1.4559146209        8.6138670247
  O        15.0959357348        6.6674757401        4.6896923823
  O        17.1104527339        8.6746253848        4.2409731040
  O        23.4296068393        2.9263636521        7.5898856442
  O        21.1663090218        3.2667367449        4.2283215660
  O        14.7713060253        9.2746161134        7.6446215905
  O        18.8249881705        7.3771421951        2.9523716644
  O        25.2382840916        1.4926035163        6.7666921623
  O        19.4756458136        4.6238296217        2.9552123934
  O        12.8257296835       10.3726080262        6.6230061791
  O        18.9178645494        9.7987469472        2.9417272827
  O        25.2970536114        3.8272837731        6.2264308125
  O        19.3029321990        2.2004789943        2.9428957145
  O        13.0668828164        8.0237392596        6.3112561003
  O        17.3737770712        9.4601700863        8.9214859946
  O        23.5174467357        2.3838305423        5.2624023922
  O        20.9017774621        2.6491276129        8.8463289347
  O        14.7008307643        9.5666086366        5.2649624865
  O        14.7166319769        3.3678571805        4.2694025007
  O        21.1132765248        8.8814752886        7.6323488060
  O        23.5123777431        8.5986593967        4.2409726558
  O        17.0910974563        3.0615925992        7.5676297473
  O        12.9931806670        4.6328776140        2.9527436087
  O        19.3647352199       10.4715303550        6.9166251399
  O        25.3014588346        7.3848663151        2.9533497338
  O        18.7920672565        1.4055475329        6.9026924076
  O        12.9181517960        2.2210926713        2.9422653212
  O        19.1556063001        8.1941972561        6.2351726229
  O        25.3005217153        9.8046516416        2.9439804096
  O        19.0895980741        3.6739381502        6.2303449913
  O        14.5039601527        2.4948472815        8.9957142838
  O        21.0147601055        9.5694845642        5.3284976742
  O        23.7905769536        9.2113963588        8.9259382412
  O        17.2041603987        2.3836507167        5.2693412203
  O        16.7928456077        5.3829381565        2.9282437997
  O        23.4982830257       11.5752331132        5.7588865006
  O        21.4380117201        6.5016348827        2.9275972959
  O        14.3014993241        0.4323106791        5.2774604758
  O        14.8149244907        6.5465194163        9.3256893524
  O        20.6640948412        0.2241724947        5.2410195834
  O        23.4774413634        5.3213895382        9.4821883048
  O        17.4494157186       11.6610737988        5.2632032450
  H        17.5379079726        6.0432438997        2.9595038929
  H        24.3929437602        0.1042306094        5.9764518481
  H        20.6918782070        5.8330170705        2.9489997968
  H        13.6338494728       12.3595986824        5.7935016556
  H        14.9255850402        6.0099323062        8.5304626702
  H        23.5770392555       12.3307164337        5.1474553048
  H        23.4068711243        5.9385896433        8.7415157458
  H        14.4202265854       -0.5385619509        5.3094624845
  H        15.9431762095        5.8570624388        3.0011900679
  H        19.9522027280        0.1974958611        5.9160349832
  H        22.2947418640        6.0409963694        2.9965532673
  H        17.8169216773        0.0868383465        6.2719692439
  H        14.8113627232        7.4442719680        8.9646433882
  H        21.0250751172       -0.6997269852        5.2868353277
  H        23.4967386553        4.4645501727        9.0311081437
  H        16.6980752124       12.2450573352        5.0449045428
  S        16.3065675324       23.3551550205        2.9503227308
  S        22.3381545710       17.9054049917        5.4601817382
  S        21.9811319009       12.4818423841        2.9504548625
  S        15.9374363899       18.0154788139        5.4574532741
  S        17.9886115004       20.6096449457        2.9363843135
  S        24.3619775320       14.7295882251        6.4331857635
  S        20.3036524249       15.3050614493        2.9386122329
  S        13.8490900036       21.1578054698        6.4209949850
  S        13.8780029483       15.4349578846        2.9423289621
  S        20.3416511148       21.1497999761        6.5226874249
  S        24.3665746324       20.4770554723        2.9359906090
  S        17.8801057298       14.7774758583        6.5025700240
 Ca        18.5606073489       11.9969819351        2.9726093049
 Ca        12.7425518276       17.8889531392        5.1585451365
 Ca        14.6160389234       20.5617478819        2.9765944405
 Ca        21.0149674186       14.6599699330        6.5714704872
 Ca        23.6142435899       15.3235339155        2.9769364954
 Ca        17.1971689409       21.2667563567        6.5196183527
 Ca        17.0535476306       15.3757726037        2.9750212611
 Ca        23.5133180396       21.2483993219        6.4886266886
 Ca        21.2361463971       20.5368711459        2.9744078272
 Ca        14.7881506043       14.8019804810        6.5778038112
 Ca        13.1462685737       11.9654436454        2.9699784141
 Ca        19.1480119538       17.9529534678        5.2166384918
  O        16.5509120968       13.1286794803        2.9389953778
  O        23.2006544529       18.7686855403        6.2956896135
  O        21.7287309427       22.7800722025        2.9395274076
  O        15.0772259787       17.1494093582        6.2961705808
  O        14.8856283436       13.4255445745        8.6746743634
  O        21.4049934003       18.6855177970        4.5407210607
  O        23.3308042262       22.5120147896        8.6024412086
  O        16.8796594908       17.2352876104        4.5494568371
  O        14.7784859143       23.1102316032        2.9373106757
  O        21.4235809844       17.0751039579        6.2823762917
  O        23.5210654632       12.7136012657        2.9425272154
  O        16.8218144769       18.8603710936        6.2868349369
  O        17.0883879360       22.6507048804        8.5361300323
  O        23.2691081573       17.1333415764        4.5624314920
  O        21.2750327036       13.4872020500        8.6886177605
  O        15.0046254599       18.7742797719        4.5578431493
  O        17.2047838173       20.6978260655        4.2306988228
  O        23.2791081301       14.9934840029        7.4023812471
  O        21.0831706565       15.2161932577        4.2348817856
  O        14.9311606007       20.9907643152        7.4125795200
  O        18.8987438169       19.3312518324        2.9535095554
  O        25.2300985679       13.5909205147        6.8467161290
  O        19.3864354731       16.5825183623        2.9535250384
  O        12.8890648072       22.2428181185        6.7790384041
  O        19.0771740904       21.7596006636        2.9452064245
  O        25.2894359951       15.9154408943        6.2849429055
  O        19.2129314526       14.1586551879        2.9447651657
  O        13.0135411896       19.9155506868        6.2893770062
  O        17.4679064776       21.4812016089        8.8573223530
  O        23.6958087517       14.3940475150        5.1185689719
  O        20.7338707156       14.6025484170        8.9348852999
  O        14.5278891414       21.5166757813        5.1143202171
  O        14.5968194650       15.4359081160        4.2776083442
  O        21.3166925925       20.7624834714        7.5542362825
  O        23.6026180658       20.5223711544        4.2434815036
  O        16.9426979635       15.1700140374        7.5655662429
  O        12.8183408195       16.5845842545        2.9523625075
  O        19.4732061339       22.3068153805        6.8579531803
  O        25.3915668299       19.3048801424        2.9549036941
  O        18.6836235773       13.5729917532        6.8440536435
  O        12.9151554179       14.1759783080        2.9407399678
  O        19.3838909063       20.0231767783        6.2050075728
  O        25.3767319585       21.6936423389        2.9427241622
  O        18.8980640204       15.8642232690        6.2157798310
  O        14.4945212627       14.5872676068        8.9972700178
  O        21.1659715495       21.5102327197        5.2745049375
  O        23.8703346647       21.3952981860        8.8507005053
  O        17.0434479586       14.4906303619        5.2684183353
  O        16.6927273551       17.7164443271        1.8353307830
  O        23.9152911220       23.5051509971        5.3247427300
  O        21.4548426386       18.2131981639        1.8330147999
  O        14.3223097152       12.2587745464        5.1030671552
  O        15.2214706460       18.7253294283        9.2322235830
  O        20.8374062721       12.4527178618        5.6823706507
  O        22.6671795759       17.1856130793        9.1627979187
  O        17.2406335003       23.5066283431        5.6839091854
  H        17.5929972011       18.1093927833        1.8808622218
  H        24.0088725130       11.9020467809        6.5250190744
  H        20.5512181979       17.8292902215        1.8918631736
  H        13.6076528364       24.5808060670        5.9488801784
  H        15.6056267767       18.0809854551        8.6250855005
  H        23.2358486744       24.1063615089        4.9728232520
  H        22.3916343439       17.8021705519        8.4726538917
  H        14.5937816333       11.3101295930        5.1788905993
  H        16.5042917115       17.7884608325        2.8495553518
  H        20.2270303462       11.8864845501        6.2133894001
  H        21.6551337507       18.1294989293        2.8465529070
  H        17.9492884263       12.1994436979        5.9303255489
  H        14.9953689927       19.4678914165        8.6520328163
  H        21.6641925971       11.9312195592        5.6951339218
  H        23.0785274383       16.4643778157        8.6638943014
  H        16.4713477869       24.0821697237        5.5448065003
  O         8.6579819149       17.0988372173       20.9132318883
  H         8.2459592800       16.9542020021       20.0525959651
  H         8.4130487051       16.3119501333       21.4274637779
  O         2.8329752679        9.7592705623       18.5763849126
  H         2.8261779953       10.4365139807       17.8888404239
  H         2.7378420433        8.9396190248       18.0738152838
  O         6.7029635999        7.2032847225       24.8835647862
  H         7.7602819646        7.8303999403       24.8813526387
  H         5.5219717996        7.5543598072       24.8813527366
  O        16.5960358625        5.8951771374       22.4133778332
  H        16.6554195158        6.4683357392       21.6440490001
  H        16.5600412862        6.2513273855       24.8688266814
  O        14.3378038921       13.1562760221       22.4095090135
  H        14.6023237752       13.2524225239       24.8688076732
  H        14.9026489690       13.3452531558       21.6553101937
  O        14.4900864160       21.7043512688       15.9389137102
  H        14.8139198658       21.8067651150       15.0236535796
  H        13.5711036564       21.4493820303       15.7988963631
  O        23.0762077916        9.5195604798       15.7045047113
  H        22.9395707297        9.8206238097       14.7983347020
  H        23.7362558357        8.8220509068       15.6081097842
  O         5.8339732854        9.6105595600       11.3235895560
  H         6.4719565277       10.1225931903       10.8102000271
  H         5.1733289796        9.3514266189       10.6655575829
  O         6.6252669376        3.9620632632       15.0677703930
  H         6.1144293772        4.7316834917       14.7839282845
  H         6.8109994133        3.5039521123       14.2395486963
  O         1.3775701376       21.0557508294       21.4606903728
  H         1.3664562921       20.8803876185       20.5036253769
  H         1.7687436331       20.1852210155       21.7282523863
  O        18.6985369141        4.7636834171       17.6981293773
  H        17.9537857533        5.3331034965       17.4743704619
  H        19.1803754169        4.6795409951       16.8671379440
  O        16.5911788610       18.8928215258       17.7778786578
  H        17.2464537006       18.5577040699       17.1551589314
  H        16.0950711888       19.5420782337       17.2573283730
  O        20.1618292686       14.2867220520       17.7011867179
  H        20.9639447854       13.9813345174       17.2594123675
  H        19.5182728177       14.3414412301       16.9843383073
  O         2.9983514450       13.0721955713       13.1483915845
  H         3.4436221338       12.4829162370       12.5257712048
  H         2.5446865797       13.7018516730       12.5759759396
  O        20.2633386149        0.7052392847       24.8837377478
  H        20.1909598996       -0.4678757252       24.8817386300
  H        21.3163090336        1.2314416778       24.8817721051
  O        20.6450984194       17.1790102770       19.6082404130
  H        21.1532612268       17.7147489480       18.9880615585
  H        20.4700768655       16.3705051393       19.1020366078
  O         9.8625583730       -1.9917506465       24.8832833560
  H         8.8711878688       -2.7822307045       24.8812972649
  H        19.2845583617        1.3531378458       24.8816311518
  O         8.0951099001       14.7737671650       23.6733049729
  H         8.8045759204       14.6738311684       24.8496439034
  H         7.3630760294       14.8984191137       24.8500025819
  O         7.4414583555       15.5759156614       15.7837105091
  H         7.8308148613       15.5146438319       14.9037744457
  H         6.4929918030       15.5836623150       15.6078189541
  O        15.1387263348       21.8667055325       13.1545008107
  H        15.1960741445       21.1181118992       12.5475370875
  H        15.1459327356       22.6420617882       12.5806303161
  N         1.9449274123       19.6155859761       12.4310354659
  H         2.0986014262       19.2072597444       11.5109824394
  H         2.7863617604       20.1263509780       12.6725766646
  H         1.2051088138       20.3000098604       12.3251619087
  N        22.1807195079       21.4664787021       14.1970272995
  H        22.9766231951       22.0965508410       14.2355656982
  H        21.5758845283       21.8573697304       13.4804857842
  H        22.5473651710       20.6126792106       13.7854607679
  N        16.0311871295       18.3992497475       20.8902217731
  H        16.5170664602       17.5068329114       20.9418567189
  H        16.4086143143       18.8086497881       20.0334401632
  H        15.0916489107       18.1319523638       20.6050069591
  N        26.3118186028        4.4408551974       12.9294495486
  H        27.0439272080        5.1424965359       12.8654305646
  H        25.4928777956        4.8392164903       12.4792910893
  H        26.2129994883        4.1621020036       14.5924170672
  H        26.6043016231        3.6646778932       12.3462342395
  N        26.1446293867       18.3940221305       24.8843323812
  H        26.6750869123       19.6156172108       24.8812122253
  H        27.4916652190       18.2325116050       24.8804713783
  H        24.9474152047       18.8155016104       24.8822611577
  H        26.0698623559       17.1104997303       24.8816153615
  N        10.9277255480        7.8269565088       20.5051103305
  H        11.0166541535        8.7965685460       20.2113385724
  H        10.3039480329        7.4218509092       19.8106000362
  H        13.2071119338        7.0925882152       18.2373979927
  H        11.8352786536        7.4255985631       20.2809756945
  N        16.1882450274        8.5519412829       17.4633965662
  H        15.7006868144        9.4429276640       17.4539361693
  H        17.1631055919        8.7854478489       17.3031594067
  H        15.8891287910        8.0893894670       16.6092007239
  H        13.9084302295        7.3045382259       18.3737971899
  P         1.9625759719        4.5682896786       16.3407583342
  O         2.6709403690        5.6533627812       15.5717931224
  O         0.6442506828        4.1108061349       15.6100530309
  O         1.6284876634        4.8444195832       17.7803783721
  O         2.9128580062        3.2356870558       16.2668914825
  H         3.7930274982        3.5179683924       15.9820614155
  P         2.1244041934       17.9747402191       20.6102061689
  O         2.4218084302       18.5558331517       22.0018459110
  O         3.0661058578       16.8708259638       20.1934712926
  O         1.9415042900       19.0424712326       19.5536104693
  O         0.5886290167       17.2874923450       20.8363129152
  H         0.3095035221       17.0158507490       19.9514431655
     488
 i =        1, time =        0.500, E =     -6463.2037219718
  S         3.1276832452       11.9781077687        1.9760234431
  S         9.5715562105        5.9509343254        5.4637172340
  S         9.6354620531        0.0793837729        1.9732131548
  S         3.1669235063        5.9914884327        5.4631637736
  S         5.2341702182        8.6651832914        2.9393867898
  S        11.6667793649        2.7725732374        6.4743532419
  S         7.5156486369        3.3640618487        2.9374719290
  S         1.0830177476        9.1876049093        6.4045983012
  S         1.0534950249        3.4293115200        2.9344551672
  S         7.5650592024        9.1566886634        6.4977131098
  S        11.7028896384        8.5362361952        2.9409884057
  S         5.2255202336        2.8107274878        6.4788905374
 Ca         6.9402953433        0.0272578442        2.9719428558
 Ca        -0.0332322230        5.9231619647        5.1474039840
 Ca         1.9537320976        8.5941341474        2.9773601871
 Ca         8.3892203189        2.6949502272        6.5020807028
 Ca        10.8048177215        3.4167950904        2.9793574596
 Ca         4.3845624441        9.2756293017        6.5565400072
 Ca         4.3067121741        3.4077458063        2.9743247027
 Ca        10.7112703147        9.1760967624        6.5072857119
 Ca         8.3960929905        8.5193374235        2.9787956915
 Ca         2.0515729767        2.7007399624        6.4617274225
 Ca        -0.1927269906       -0.0447716479        2.9741687120
 Ca         6.3516875098        5.9991731631        5.2066383124
  O         3.2764445624        1.3384744889        2.9398456935
  O        10.4177052879        6.8227066435        6.3106954739
  O         9.4420633676       10.5366557848        2.9416234772
  O         2.3069660934        5.1297263804        6.2976750247
  O         2.1776477872        1.2989681058        8.4524935859
  O         8.6217445177        6.7266908545        4.5493960134
  O        10.6141460214       10.5615725382        8.6089741164
  O         4.0964932006        5.2124014995        4.5498091478
  O         2.4827984221       10.8695185077        2.9411662228
  O         8.6822411386        5.1001343148        6.2843991579
  O        10.3256777447        1.1632219705        2.9365833636
  O         4.0729992563        6.8313874144        6.2800507775
  O         3.9005973236       10.6065865928        8.6044074618
  O        10.5015570548        5.1939380147        4.5652820732
  O         8.5578019842        1.4552729657        8.5983130203
  O         2.2333968454        6.7633467459        4.5617608090
  O         4.4836501444        8.7548436096        4.2403303531
  O        10.6313821815        3.0574789275        7.4847394660
  O         8.2935270708        3.2685025396        4.2257105825
  O         2.1248466483        8.8723316681        7.4095374479
  O         6.1201656520        7.3729422416        2.9514555946
  O        12.5829365407        1.6631645723        6.8603512764
  O         6.6005145701        4.6410519289        2.9477064065
  O         0.1907623692       10.3045512645        6.7878694393
  O         6.3521908648        9.8026341206        2.9426404317
  O        12.5517795836        3.9581464467        6.2184595212
  O         6.4102355100        2.2136899318        2.9439454822
  O         0.1937756245        8.0107699302        6.1419891710
  O         4.3778781033        9.4640307613        8.9216526907
  O        10.9119956190        2.3777360164        5.2095045810
  O         8.0316747350        2.5773713252        8.8478393435
  O         1.8456285989        9.5767910489        5.1372536362
  O         1.8188607519        3.4532343402        4.2453581097
  O         8.5349427606        8.8138763666        7.5642931171
  O        10.9863826097        8.4958431147        4.2815158309
  O         4.2534927830        3.2137406316        7.5018385895
  O        -0.0379942118        4.5586102566        2.9570182849
  O         6.6750397448       10.3057975576        6.8489245222
  O        12.7652914649        7.3804398738        2.9512312857
  O         6.1050688539        1.6579645307        6.8534767674
  O         0.1184788052        2.1505169157        2.9401075510
  O         6.5938123319        8.0232945551        6.2277240050
  O        12.6643074875        9.7993344231        2.9463387152
  O         6.1971747645        3.9210397375        6.1475207919
  O         1.7186725692        2.4139562051        8.8454454310
  O         8.3779421920        9.4771087405        5.2591768260
  O        11.0867851609        9.4543934695        8.9961804417
  O         4.3997668000        2.4425310074        5.2449395147
  O         3.9752013639        5.7486102921        1.8359363981
  O        10.7993334474       11.6478047041        5.6464125717
  O         8.8119705357        6.1913456043        1.8335637056
  O         1.5964897501        0.3589286245        5.3559756879
  O         3.2329896444        6.7864433783        9.2416769875
  O         8.0633487492        0.3831768197        5.2752481480
  O         9.8766967967        5.2385140943        9.3029724752
  O         4.8171970920       11.6654550848        5.2648664434
  H         4.8702485505        6.1487846459        1.9093969018
  H        11.8826946219       -0.6086173267        5.8271679825
  H         7.9145010757        5.7769923243        1.8878123949
  H         0.7837523335       12.2404269813        5.9488441363
  H         3.4982815230        6.1988569804        8.5146514328
  H        10.7660621612       12.5250756782        5.2126584135
  H         9.5559941220        5.8535896406        8.6163221830
  H         1.9923046716       -0.5240995588        5.1770961655
  H         3.7938707694        5.8243069224        2.8376343202
  H         7.5969737274       -0.1900201040        5.9341107236
  H         9.0018412571        6.1377761982        2.8385589421
  H         5.4853083713        0.1073278043        6.1149612980
  H         2.6061032072        7.3894423533        8.7826925153
  H         8.8518216050       -0.1363218227        5.0458265390
  H        10.3383855906        4.5614786816        8.8174221487
  H         4.1058172304       12.3112866489        5.1120844752
  S         3.5211330930       23.7914410880        2.9435759370
  S         9.6998648622       17.7636207770        5.8463492741
  S         9.2002352617       12.0476476141        2.9525020917
  S         3.1930545542       18.0091832581        5.4658114648
  S         5.2074073926       20.6802761894        2.9325972837
  S        11.6698593673       14.5755633188        6.4304354770
  S         7.5927544040       15.2503650013        2.9437170154
  S         1.1829653000       21.2107597477        6.4720799005
  S         1.2155576415       15.4163666395        2.9356041383
  S         7.5372357182       21.2493011424        6.5048724350
  S        11.5370214257       20.4857167489        2.9491885410
  S         5.1378486265       14.7695661380        6.5277104307
 Ca         5.7756700718       11.9935250419        2.9728118776
 Ca         0.0267686784       17.9625060543        5.1403565515
 Ca         1.9852307218       20.6106087274        2.9770636377
 Ca         8.2869171896       14.5654474024        6.6674618451
 Ca        10.7906948873       15.2079500038        2.9804224970
 Ca         4.3637604736       21.3913515239        6.4345692616
 Ca         4.3128794534       15.3713620166        2.9719981004
 Ca        10.6723877469       20.9589064351        6.6293743116
 Ca         8.4517321463       20.7005785705        2.9774746279
 Ca         2.0069652525       14.7236856530        6.5133488161
 Ca         0.3933428314       11.9630535177        2.9674665885
 Ca         6.2844902218       18.0469384492        5.3757456282
  O         3.7627659079       13.1073978538        2.9419507644
  O        10.7070525158       18.5802910834        6.6002161528
  O         8.9607625929       22.9409488170        2.9378246870
  O         2.3144633847       17.1590915353        6.2903416288
  O         2.0888770485       13.4269491801        8.6019348242
  O         8.5492905004       18.6003171290        5.4340704246
  O        10.5329530361       22.4807747351        8.6610079625
  O         4.1504416725       17.2326892843        4.5605740722
  O         2.1531739820       23.0270264207        2.9349520406
  O         9.1843954171       16.6656570280        6.6911172879
  O        10.5658552111       12.8040371195        2.9403232665
  O         4.0921153302       18.8558496677        6.2918985772
  O         4.1393034480       21.9510352767        9.4007475672
  O        10.4657494468       17.2285178388        4.6427956216
  O         8.4157508419       13.4864270300        8.8508674291
  O         2.2841525353       18.7860734066        4.5618410559
  O         4.4120671618       20.7785925676        4.2196989979
  O        10.6499676825       14.5497976064        7.4903229715
  O         8.3655421831       15.1282787470        4.2435320951
  O         2.2293586518       20.9176390961        7.4867808970
  O         6.1151535140       19.4081374206        2.9596744286
  O        12.6897012729       13.5161566000        6.6863050192
  O         6.7613256472       16.5807694146        2.9547618015
  O         0.2854034352       22.3240330616        6.8490922868
  O         6.2836356699       21.8339973872        2.9425763812
  O        12.4420339848       15.8598038474        6.3170561640
  O         6.4385487434       14.1656981480        2.9452276051
  O         0.2741650030       20.0336104794        6.2151678787
  O         4.8628626004       21.1426816925        8.7830642998
  O        10.9553877445       14.3094563151        5.1226800572
  O         8.1150984833       14.6913025669        9.0825681727
  O         1.9661919432       21.5759876109        5.2099343620
  O         1.9702795926       15.3806995235        4.2432554206
  O         8.4649591657       20.8243237739        7.5613851457
  O        10.7982885941       20.4776385526        4.2851899509
  O         4.1667845378       15.1601425921        7.5618898732
  O         0.1888813604       16.5948351215        2.9526552434
  O         6.7651653366       22.4762604170        6.8465992210
  O        12.5841221630       19.3208669752        2.9514245319
  O         5.9707993955       13.5878680468        6.9225388895
  O         0.2192719617       14.1883860394        2.9437403315
  O         6.4780329223       20.2047942012        6.2227340230
  O        12.5019685320       21.7376489352        2.9397446371
  O         6.1345674776       15.8766090206        6.2256366469
  O         1.6350286299       14.5892733373        8.8471273466
  O         8.3722850387       21.5016808865        5.2601741331
  O        10.9271895150       21.3250689795        9.0021281227
  O         4.3418592741       14.4247280692        5.2797420810
  O         4.0577628102       17.7046410447        1.8324014076
  O        11.2326231867       23.5987684826        5.1595704494
  O         8.7699058446       18.4525044326        2.9241780449
  O         1.4718543642       12.3059023515        5.2489138247
  O         2.3480108828       18.8110828227        9.4694906154
  O         8.2037497597       12.3676931613        5.8876781790
  O        10.2038190648       16.6192765489        9.4084824801
  O         4.8797268045       23.6702502348        5.4408013151
  H         4.9731751839       18.1145401274        1.9021035287
  H        11.4458312479       11.8283838812        6.3617319029
  H         8.0356678700       17.7752502133        2.9410331714
  H         0.9938524630       24.1189792977        6.0966552721
  H         2.6705525043       18.0919545977        8.9107424426
  H        11.0523526568       24.5540408182        5.3132677784
  H         9.9170102007       17.1243394300        8.6356463535
  H         1.8277948570       11.3812676755        5.2214749423
  H         3.8626295637       17.7915139721        2.8420754864
  H         7.5852978410       11.7558198240        6.3465333719
  H         9.6711449172       17.9958451234        3.0003813199
  H         5.3648119115       12.1275184276        5.9640155448
  H         2.2355680177       19.5417939037        8.8492790478
  H         9.0585296047       11.8961677513        5.8808919052
  H        10.6148177883       15.8527245795        8.9833188277
  H         4.3210257231       24.4647250303        5.2513323784
  S        15.8937751903       12.0232663009        1.9681223476
  S        22.4078310663        5.9072322867        5.8489785016
  S        22.4177687066       -0.1168040230        1.9665850857
  S        15.8857662689        6.1499691676        5.8814736727
  S        17.8801832165        8.6010406012        2.9396579716
  S        24.3705027713        2.6669776453        6.4905911151
  S        20.3806383095        3.3642883923        2.9417256112
  S        13.8421846716        9.2975441903        6.5054152636
  S        13.9622166251        3.4068606231        2.9432121493
  S        20.1860088282        9.2761288755        6.5584367884
  S        24.2930583327        8.5788795686        2.9336862837
  S        18.0224233079        2.6381876781        6.5153382922
 Ca        19.7376820827       -0.0328109261        2.9714356018
 Ca        12.8285810189        6.0162154100        5.1485805102
 Ca        14.8188838870        8.6565436516        2.9819200030
 Ca        21.2646583353        2.5610974415        6.4984950158
 Ca        23.4500225490        3.2159684342        2.9788550367
 Ca        17.0365448258        9.4250251719        6.5051810426
 Ca        17.1119058708        3.1400895702        2.9804960884
 Ca        23.3515160503        9.0796269078        6.5478470858
 Ca        21.0827994261        8.7509362141        2.9808319172
 Ca        14.8601064048        2.8877573520        6.5980215095
 Ca        12.4234710495        0.0282549994        2.9729860614
 Ca        19.3077637091        5.9291811228        5.7861967299
  O        16.7246962282        0.8617817462        2.9408175596
  O        23.4426269980        6.5743663067        6.7045957246
  O        21.5596222148       11.0125182282        2.9415588675
  O        14.9090853185        5.2630669244        6.6030982895
  O        14.9714455609        1.3882343532        8.5861025027
  O        21.4168623552        6.9188100046        5.4045921677
  O        23.4078457158       10.3921126876        8.6848126938
  O        17.0665484192        5.3677431796        5.4427843771
  O        15.2626751408       10.9150318305        2.9389562521
  O        21.5869854086        4.8762413844        6.5553372168
  O        23.1327092833        0.9427705624        2.9371144795
  O        16.3358110289        7.2399620313        6.7610350161
  O        17.0109564658       10.6344919305        8.6213621689
  O        23.1921622676        5.2890248107        4.7056327354
  O        21.2613357945        1.4545560981        8.6117152395
  O        15.0955305491        6.6659289320        4.6892456888
  O        17.1095056475        8.6764466014        4.2406627353
  O        23.4307568661        2.9278022786        7.5904395039
  O        21.1696398283        3.2657333733        4.2277757399
  O        14.7742837447        9.2743859513        7.6462954813
  O        18.8246585933        7.3756467966        2.9559243240
  O        25.2407781054        1.4928319126        6.7646319299
  O        19.4804846159        4.6214433454        2.9571560010
  O        12.8276239482       10.3747061621        6.6235980461
  O        18.9148446365        9.8013185024        2.9414269973
  O        25.2944646414        3.8280817339        6.2251600294
  O        19.3037721617        2.2000544111        2.9439098187
  O        13.0644094549        8.0236572629        6.3076300126
  O        17.3703448917        9.4628734424        8.9214662128
  O        23.5174569537        2.3859543744        5.2623588956
  O        20.9023367783        2.6488739940        8.8451255221
  O        14.6980271475        9.5679159456        5.2648620946
  O        14.7135692819        3.3630517984        4.2662170357
  O        21.1145796599        8.8773779002        7.6329326307
  O        23.5104635138        8.5977751317        4.2428171422
  O        17.0917023004        3.0632975961        7.5718812182
  O        12.9972358600        4.6339877832        2.9507943690
  O        19.3642056604       10.4700128807        6.9206948064
  O        25.3020203755        7.3884939422        2.9541700842
  O        18.7920868801        1.4086741666        6.9034787952
  O        12.9174237428        2.2224426253        2.9473215862
  O        19.1559773666        8.1956979189        6.2349619037
  O        25.2995826324        9.8028768929        2.9424165441
  O        19.0934360608        3.6723547046        6.2252145993
  O        14.5083142866        2.4963449158        8.9965787363
  O        21.0138884491        9.5681663868        5.3289795836
  O        23.7915824963        9.2131263654        8.9289900646
  O        17.2059987226        2.3844783161        5.2685257431
  O        16.7907134727        5.3847313275        2.9319193280
  O        23.5011438321       11.5738638522        5.7558750120
  O        21.4363671677        6.5063345439        2.9265672323
  O        14.2991162563        0.4356372446        5.2754532545
  O        14.8098474133        6.5439707060        9.3252050455
  O        20.6639536682        0.2226653464        5.2398888874
  O        23.4781870499        5.3201956805        9.4792937520
  O        17.4483011271       11.6613672761        5.2633766799
  H        17.5496268936        6.0280707297        2.9610872059
  H        24.3879787264        0.1256330770        5.9854345206
  H        20.6895251390        5.8281418806        2.9637465631
  H        13.6312870382       12.3561899174        5.7821681849
  H        14.9118793048        6.0157971269        8.5289892161
  H        23.5773589867       12.3255252004        5.1420852843
  H        23.4213717524        5.9335209032        8.7545863490
  H        14.4232311114       -0.5436177185        5.3022102956
  H        15.9531494153        5.8519004826        3.0114551311
  H        19.9419363497        0.1926270811        5.9132181442
  H        22.2842553274        6.0401873897        2.9941905637
  H        17.8262403977        0.0790215552        6.2662136287
  H        14.8122871106        7.4567647440        8.9623480679
  H        21.0208537890       -0.7084464459        5.2836356525
  H        23.4843589649        4.4615839638        9.0135099588
  H        16.6894416429       12.2334705084        5.0355042311
  S        16.3067848638       23.3565005871        2.9505118421
  S        22.3353450936       17.9053064166        5.4593717989
  S        21.9861316773       12.4808074119        2.9494916639
  S        15.9366343533       18.0164910939        5.4572611049
  S        17.9933937067       20.6105545028        2.9390502488
  S        24.3593237607       14.7284005539        6.4321271747
  S        20.3011990571       15.3085507461        2.9398336670
  S        13.8470267307       21.1590465763        6.4178915293
  S        13.8773717427       15.4348375188        2.9429902978
  S        20.3409418422       21.1518694482        6.5232153534
  S        24.3650616647       20.4756182086        2.9357585968
  S        17.8804631485       14.7771360328        6.5037586290
 Ca        18.5612187359       11.9974960994        2.9726539888
 Ca        12.7441849443       17.8898356763        5.1560637026
 Ca        14.6163165447       20.5639617088        2.9762916493
 Ca        21.0163105694       14.6598166442        6.5730355332
 Ca        23.6127664360       15.3213178231        2.9774999530
 Ca        17.1968387127       21.2659567418        6.5189788418
 Ca        17.0540755613       15.3764306016        2.9744814277
 Ca        23.5110362917       21.2459288701        6.4882610093
 Ca        21.2364520404       20.5354259528        2.9707860907
 Ca        14.7885190647       14.8021296260        6.5779889818
 Ca        13.1452225111       11.9647972825        2.9688874917
 Ca        19.1478182476       17.9547651902        5.2183857636
  O        16.5498834310       13.1310197977        2.9411336815
  O        23.2009438166       18.7686588432        6.2965322451
  O        21.7291523842       22.7810957173        2.9384453436
  O        15.0789973308       17.1488264122        6.2973625132
  O        14.8874283633       13.4243634530        8.6752889251
  O        21.4089557559       18.6905535599        4.5404086772
  O        23.3280774254       22.5137253852        8.6016635531
  O        16.8783396207       17.2337872385        4.5441649653
  O        14.7773922863       23.1106299263        2.9340868804
  O        21.4235434464       17.0787790523        6.2777781100
  O        23.5155334570       12.7156864529        2.9417827544
  O        16.8231670155       18.8595282715        6.2862900299
  O        17.0841913084       22.6504471091        8.5399590035
  O        23.2680564990       17.1307497215        4.5606626559
  O        21.2802308468       13.4879685595        8.6901570221
  O        15.0022885319       18.7769805993        4.5578791530
  O        17.2029216068       20.7019039897        4.2344546628
  O        23.2789623921       14.9909678944        7.4069290535
  O        21.0791949292       15.2160362081        4.2352602087
  O        14.9300818377       20.9897006486        7.4101172554
  O        18.9012321945       19.3302629168        2.9521167450
  O        25.2333077569       13.5927593896        6.8512437014
  O        19.3883846850       16.5814339324        2.9533274973
  O        12.8880291384       22.2397968223        6.7806298653
  O        19.0780164944       21.7591573077        2.9476339126
  O        25.2865815828       15.9137134878        6.2789921664
  O        19.2134552945       14.1576071796        2.9483351816
  O        13.0135298102       19.9137223374        6.2891366720
  O        17.4657443253       21.4826693586        8.8593737406
  O        23.6974453322       14.3936505627        5.1184090431
  O        20.7313585676       14.6026223305        8.9348496116
  O        14.5251452377       21.5129111857        5.1078238023
  O        14.5995523033       15.4382820874        4.2781766357
  O        21.3165770324       20.7584421682        7.5504488551
  O        23.5979940227       20.5192206776        4.2449162395
  O        16.9430285282       15.1734769912        7.5655984832
  O        12.8216831246       16.5838305029        2.9531638035
  O        19.4705429271       22.3006206897        6.8556393038
  O        25.3912272235       19.3052252443        2.9572166829
  O        18.6862567396       13.5748993694        6.8414911117
  O        12.9210723878       14.1722422844        2.9426504543
  O        19.3821136156       20.0243296143        6.2022027465
  O        25.3769516202       21.6924897282        2.9371341821
  O        18.8964488976       15.8646819521        6.2167062212
  O        14.4950439270       14.5837064362        9.0003666134
  O        21.1635711922       21.5122244897        5.2766076767
  O        23.8693715378       21.3929395114        8.8539533555
  O        17.0408012587       14.4880801602        5.2712839118
  O        16.6899910325       17.7186270909        1.8394116803
  O        23.9187745714       23.5012246519        5.3254503927
  O        21.4516059297       18.2144377632        1.8314686507
  O        14.3211124381       12.2601026830        5.1004938645
  O        15.2257638391       18.7260713698        9.2377420412
  O        20.8343893011       12.4502344358        5.6820824745
  O        22.6682070602       17.1916878681        9.1605355944
  O        17.2395231186       23.5114317928        5.6850689926
  H        17.5961208477       18.1189686152        1.9007321978
  H        23.9961197469       11.8948950089        6.5210087442
  H        20.5451956648       17.8340174888        1.8980052532
  H        13.5930521175       24.5788554987        5.9609299718
  H        15.6179205949       18.0812326897        8.6173421479
  H        23.2156919368       24.1115620231        4.9670693498
  H        22.3687782943       17.8022495729        8.4767055599
  H        14.5939151125       11.3169708168        5.1744080322
  H        16.4929812860       17.7943745965        2.8511727158
  H        20.2265444209       11.8774107325        6.2244449219
  H        21.6698540114       18.1400887905        2.8534704907
  H        17.9515203302       12.1894080354        5.9387653288
  H        15.0083959471       19.4661724811        8.6460425682
  H        21.6702829127       11.9374351260        5.6822689951
  H        23.0797617038       16.4729710985        8.6591844278
  H        16.4587089960       24.0847172873        5.5615189458
  O         8.6556756791       17.0986849497       20.9149880717
  H         8.2441653343       16.9413911364       20.0487387857
  H         8.4178394843       16.3105035918       21.4240618159
  O         2.8349703692        9.7601717894       18.5782266797
  H         2.8216114355       10.4178445546       17.8883744637
  H         2.7415574133        8.9415140685       18.0807013794
  O         6.7012707646        7.2047413385       24.8821449150
  H         7.7789660513        7.8369272258       24.8885367437
  H         5.5091723349        7.5698469198       24.9014916518
  O        16.5963605059        5.8959611035       22.4133782279
  H        16.6405615310        6.4877895362       21.6329135283
  H        16.5384996723        6.2408234543       24.8722615635
  O        14.3346450020       13.1576469902       22.4078662096
  H        14.6052578972       13.2655511505       24.8667786751
  H        14.9050957719       13.3487131363       21.6569034636
  O        14.4884809424       21.7060169273       15.9386025391
  H        14.8021445501       21.8127678066       15.0302049599
  H        13.5656488737       21.4350181141       15.7998999253
  O        23.0774730623        9.5201015969       15.7099960267
  H        22.9402657187        9.8126664212       14.8064447562
  H        23.7455327862        8.8207276624       15.5937089837
  O         5.8344352417        9.6119731543       11.3236145642
  H         6.4765389268       10.1359130289       10.8052804938
  H         5.1852459666        9.3587000790       10.6439342703
  O         6.6250874255        3.9633725296       15.0674438587
  H         6.1053874045        4.7160635023       14.7801661825
  H         6.7905917377        3.5086406061       14.2388385552
  O         1.3798889126       21.0535441459       21.4588955879
  H         1.3753360215       20.8871887028       20.5104323511
  H         1.7707906661       20.1847694103       21.7469102173
  O        18.7004037820        4.7626262191       17.6994288164
  H        17.9338514344        5.3293455109       17.4774135928
  H        19.1738611870        4.6771656319       16.8800864184
  O        16.5897867897       18.8887254025       17.7771744698
  H        17.2425774216       18.5410672694       17.1458019921
  H        16.0912337701       19.5465142588       17.2568737274
  O        20.1584734785       14.2913643017       17.7008596912
  H        20.9670724382       13.9874551130       17.2393787697
  H        19.5181260882       14.3336533716       16.9801336635
  O         2.9995969387       13.0735558822       13.1515292314
  H         3.4471404415       12.5003534175       12.5101593520
  H         2.5381591762       13.6960051900       12.5607843876
  O        20.2646074524        0.7059038491       24.8864476040
  H        20.1887483124       -0.4843426695       24.8858364667
  H        21.3131529467        1.2193313111       24.8757075047
  O        20.6457505086       17.1790286543       19.6058691753
  H        21.1374979107       17.7151995330       19.0090030170
  H        20.4568397490       16.3626722821       19.0926689800
  O         9.8636266718       -1.9930529702       24.8825493012
  H         8.8829024553       -2.7830465857       24.8764856103
  H        19.2905822980        1.3476525046       24.8746324481
  O         8.0980124811       14.7729299750       23.6763328223
  H         8.8064497316       14.6755051945       24.8496410203
  H         7.3686420422       14.9086793119       24.8369689802
  O         7.4403241556       15.5731276961       15.7880550353
  H         7.8233035028       15.5137496649       14.8999622464
  H         6.4973583679       15.5814334808       15.6182002240
  O        15.1407863182       21.8599220042       13.1541017684
  H        15.1965218562       21.1238337020       12.5454937954
  H        15.1379982617       22.6311832496       12.5818380658
  N         1.9450813649       19.6167345395       12.4279727590
  H         2.0967382599       19.1959070490       11.4921541811
  H         2.7927777321       20.1365935064       12.6730450192
  H         1.1907921522       20.3010056975       12.3246677324
  N        22.1807324216       21.4665145497       14.1947435692
  H        22.9820179926       22.0960603400       14.2277587313
  H        21.5776538833       21.8527141428       13.4737200742
  H        22.5444125544       20.6238320629       13.7931113364
  N        16.0308981288       18.3994795229       20.8929642467
  H        16.5210329734       17.5105718877       20.9321622190
  H        16.4187905609       18.8185445669       20.0078554776
  H        15.1131696261       18.1424885919       20.6065099537
  N        26.3100220048        4.4407821449       12.9272213238
  H        27.0302665232        5.1392469273       12.8641691961
  H        25.4903717184        4.8481842654       12.4710163448
  H        26.2042402319        4.1397386777       14.5893936600
  H        26.5946839269        3.6478857309       12.3611826289
  N        26.1423244127       18.3928337483       24.8825781156
  H        26.6612618300       19.6167523748       24.8684151658
  H        27.4996911222       18.2269544869       24.8859771904
  H        24.9373104920       18.8236886037       24.8882082630
  H        26.0792724269       17.0981128386       24.8863543483
  N        10.9268380520        7.8271567958       20.5053253956
  H        11.0133314815        8.8199396241       20.2225347654
  H        10.2994203567        7.4159516989       19.8074572442
  H        13.1997865843        7.0822628250       18.2274691957
  H        11.8294237779        7.4281628163       20.2810417377
  N        16.1876439672        8.5542503659       17.4629810083
  H        15.6991310434        9.4438239397       17.4549874240
  H        17.1488716045        8.7817528784       17.3069516498
  H        15.9015251261        8.0785086729       16.6058390898
  H        13.9176664585        7.2950952345       18.3817756460
  P         1.9632465848        4.5676601454       16.3377920774
  O         2.6709804796        5.6535245402       15.5712714588
  O         0.6428736963        4.1130421744       15.6081060254
  O         1.6282981746        4.8414908526       17.7822696212
  O         2.9126944079        3.2394526840       16.2689409065
  H         3.7911278990        3.5119196724       15.9869849849
  P         2.1252521462       17.9726704754       20.6103910654
  O         2.4209648531       18.5482641384       22.0057817374
  O         3.0645163290       16.8728918973       20.1922577657
  O         1.9424970667       19.0449199209       19.5520497572
  O         0.5899718441       17.2872775473       20.8375882501
  H         0.3159200010       17.0257840447       19.9538471362
     488
 i =        2, time =        1.000, E =     -6463.1585294492
  S         3.1306246379       11.9765242276        1.9755752185
  S         9.5727208944        5.9503258709        5.4629184984
  S         9.6349562827        0.0782924450        1.9714996820
  S         3.1706340578        5.9890137127        5.4644615588
  S         5.2376604161        8.6639568121        2.9398999860
  S        11.6680874067        2.7714245070        6.4768135706
  S         7.5158647537        3.3629313203        2.9390164017
  S         1.0805564402        9.1856574429        6.4033074398
  S         1.0516631873        3.4311039509        2.9328558500
  S         7.5649276788        9.1603474900        6.4966035007
  S        11.7023325627        8.5392575354        2.9398554797
  S         5.2270264997        2.8102386488        6.4811343127
 Ca         6.9405086935        0.0279358486        2.9700804801
 Ca        -0.0341635594        5.9228806465        5.1488824034
 Ca         1.9537161560        8.5970683910        2.9774600608
 Ca         8.3925142962        2.6959923673        6.5025863533
 Ca        10.8048757691        3.4145665529        2.9811530315
 Ca         4.3842366934        9.2763752967        6.5571670039
 Ca         4.3078152459        3.4078735219        2.9740268824
 Ca        10.7104073908        9.1776129188        6.5080917936
 Ca         8.3972184299        8.5192366206        2.9820998170
 Ca         2.0499644958        2.7008594312        6.4610786402
 Ca        -0.1902040763       -0.0446410380        2.9732997201
 Ca         6.3474583332        5.9988557854        5.2069149363
  O         3.2739785185        1.3405979118        2.9383383984
  O        10.4216148624        6.8253180186        6.3140231737
  O         9.4435885533       10.5329877392        2.9428843364
  O         2.3080449312        5.1299855683        6.2978191860
  O         2.1736425917        1.2985037130        8.4540808371
  O         8.6187512126        6.7268969198        4.5485008360
  O        10.6141359483       10.5648756911        8.6113694082
  O         4.0949951263        5.2139979532        4.5524041623
  O         2.4881434265       10.8724646362        2.9442207499
  O         8.6833095694        5.0978893407        6.2826224467
  O        10.3306229904        1.1651012233        2.9349683697
  O         4.0700907534        6.8287616694        6.2805278651
  O         3.8964687133       10.6087797529        8.6033090165
  O        10.5005973513        5.1985098322        4.5666368955
  O         8.5580615190        1.4546247639        8.5982464748
  O         2.2298801369        6.7632986777        4.5621649109
  O         4.4843037410        8.7552710992        4.2363827809
  O        10.6302933151        3.0548843118        7.4833876747
  O         8.2923376800        3.2674236365        4.2247374315
  O         2.1257125875        8.8708462921        7.4093299525
  O         6.1162112755        7.3688667605        2.9513054864
  O        12.5824694236        1.6619406950        6.8579340728
  O         6.6022425831        4.6417846796        2.9426433360
  O         0.1921638094       10.3083143505        6.7878790803
  O         6.3485292205        9.8020923094        2.9417329237
  O        12.5535845897        3.9569783878        6.2193060270
  O         6.4118672771        2.2136292332        2.9438523174
  O         0.1968164014        8.0082880278        6.1449023225
  O         4.3794065812        9.4693903553        8.9242109924
  O        10.9123666953        2.3781076457        5.2100943331
  O         8.0279584143        2.5767374424        8.8435945603
  O         1.8437307923        9.5745036168        5.1367404879
  O         1.8221613037        3.4527906676        4.2439981479
  O         8.5396285596        8.8128048826        7.5676415714
  O        10.9871349138        8.4956184846        4.2849940898
  O         4.2544723392        3.2126768489        7.5009287313
  O        -0.0390463357        4.5604359357        2.9597306409
  O         6.6764448365       10.3031579960        6.8492831220
  O        12.7650058709        7.3809735112        2.9503047060
  O         6.1077863306        1.6560148391        6.8554764951
  O         0.1163069733        2.1529176143        2.9367111182
  O         6.5942926994        8.0212657457        6.2310674745
  O        12.6626325679        9.8013221747        2.9494698931
  O         6.2004569315        3.9229112803        6.1515736127
  O         1.7201495840        2.4146322115        8.8459047218
  O         8.3806187688        9.4779271427        5.2533352566
  O        11.0887887958        9.4568642201        9.0018002074
  O         4.3997524290        2.4402704156        5.2436558362
  O         3.9769547166        5.7442533719        1.8375700939
  O        10.7978926451       11.6514339403        5.6444446817
  O         8.8099581619        6.1898685291        1.8323532773
  O         1.5946882905        0.3543526084        5.3550414557
  O         3.2306677582        6.7828359642        9.2462046746
  O         8.0619864603        0.3834831694        5.2715759050
  O         9.8777219017        5.2379453559        9.3000369299
  O         4.8178886244       11.6706574106        5.2635310566
  H         4.8656786552        6.1575763442        1.9284882127
  H        11.8648680497       -0.6049654965        5.8187182149
  H         7.9136466620        5.7598791125        1.8875028273
  H         0.7781206450       12.2522718797        5.9571585574
  H         3.4881953895        6.1951843608        8.5100584078
  H        10.7621988667       12.5304509386        5.2221932436
  H         9.5554821593        5.8686480089        8.6156279660
  H         2.0005384217       -0.5314078959        5.1835011479
  H         3.8102379484        5.8354448415        2.8284495616
  H         7.5945359862       -0.1841863284        5.9316739250
  H         8.9955504002        6.1376418698        2.8290111892
  H         5.4898520274        0.1087943846        6.1153544077
  H         2.6035297361        7.3891107624        8.7640706944
  H         8.8489094118       -0.1298512735        5.0364461247
  H        10.3290024267        4.5625324093        8.8297012342
  H         4.1095190180       12.3141636412        5.1101189182
  S         3.5226908643       23.7923635593        2.9409442039
  S         9.7007271711       17.7649230682        5.8447901770
  S         9.2002742363       12.0487638819        2.9524756944
  S         3.1932113578       18.0075876957        5.4661193655
  S         5.2056127193       20.6788221548        2.9318149303
  S        11.6719439041       14.5742252986        6.4297430445
  S         7.5933766991       15.2484720909        2.9430363538
  S         1.1838391863       21.2101599317        6.4718907015
  S         1.2206097810       15.4181140087        2.9356454971
  S         7.5343979796       21.2502690428        6.5074384061
  S        11.5389358981       20.4821225719        2.9516235474
  S         5.1351882990       14.7714022127        6.5274052083
 Ca         5.7755675811       11.9936435753        2.9740405430
 Ca         0.0288370547       17.9618313921        5.1421279582
 Ca         1.9871009518       20.6085568362        2.9762547594
 Ca         8.2893306978       14.5676793570        6.6686656876
 Ca        10.7865057900       15.2069326980        2.9803641016
 Ca         4.3645432097       21.3910495100        6.4360872704
 Ca         4.3094747536       15.3731642719        2.9685527142
 Ca        10.6738361331       20.9586678558        6.6270867106
 Ca         8.4518944792       20.6990010976        2.9769089032
 Ca         2.0082671609       14.7250829971        6.5137230873
 Ca         0.3934368256       11.9642022953        2.9647701557
 Ca         6.2869054810       18.0455700965        5.3762261431
  O         3.7639561758       13.1061829458        2.9434950778
  O        10.7069524138       18.5778863618        6.6013018212
  O         8.9612424733       22.9385897995        2.9373429076
  O         2.3157564843       17.1636833238        6.2886128189
  O         2.0869624374       13.4276814935        8.6003971755
  O         8.5523732080       18.5992162295        5.4370057743
  O        10.5306885788       22.4772626815        8.6582005140
  O         4.1517920626       17.2319915006        4.5610815433
  O         2.1560867861       23.0234210546        2.9323138724
  O         9.1833704521       16.6628763619        6.6928154025
  O        10.5633029431       12.8077236173        2.9406949871
  O         4.0920122021       18.8550326164        6.2918216877
  O         4.1443675684       21.9537659498        9.3980700672
  O        10.4650902639       17.2311674509        4.6451555505
  O         8.4153026294       13.4870404831        8.8503872086
  O         2.2818485387       18.7848068555        4.5641949975
  O         4.4117183718       20.7802729378        4.2195882776
  O        10.6515214300       14.5537450907        7.4906830949
  O         8.3654104467       15.1289872641        4.2442057427
  O         2.2336536506       20.9194431825        7.4888938261
  O         6.1168386901       19.4087423158        2.9648747707
  O        12.6892678529       13.5173225385        6.6851167274
  O         6.7657362330       16.5821830855        2.9548453454
  O         0.2873658701       22.3236801475        6.8463019735
  O         6.2799522935       21.8327598681        2.9408578463
  O        12.4400416591       15.8600978973        6.3161091657
  O         6.4387851090       14.1661576924        2.9460819370
  O         0.2703325084       20.0317908218        6.2133637605
  O         4.8645183050       21.1417175372        8.7855272003
  O        10.9558298062       14.3079529452        5.1222483894
  O         8.1176358680       14.6953508924        9.0773439897
  O         1.9689787761       21.5777760615        5.2104355517
  O         1.9692120268       15.3783269008        4.2425941807
  O         8.4621845188       20.8208859796        7.5600850925
  O        10.7971095236       20.4747008009        4.2894639483
  O         4.1657007042       15.1550767284        7.5652068974
  O         0.1890967321       16.5984110028        2.9506715036
  O         6.7635864501       22.4729989189        6.8465324087
  O        12.5844106349       19.3145914430        2.9506786670
  O         5.9722838335       13.5854133630        6.9229354916
  O         0.2253806290       14.1886194042        2.9458733178
  O         6.4766435283       20.2071117892        6.2255552622
  O        12.5021494026       21.7396202538        2.9377394918
  O         6.1320377035       15.8790976294        6.2270006200
  O         1.6318595490       14.5889152490        8.8444482458
  O         8.3693389136       21.4990500951        5.2566103032
  O        10.9302590011       21.3251142938        9.0019869043
  O         4.3423414187       14.4245050828        5.2802030383
  O         4.0568411990       17.7051740505        1.8294873951
  O        11.2298451055       23.5970771118        5.1594540774
  O         8.7712959061       18.4511865069        2.9214193404
  O         1.4682596015       12.3061214776        5.2519862650
  O         2.3468890813       18.8180562497        9.4692036928
  O         8.2033662424       12.3666205310        5.8901595212
  O        10.2073282865       16.6215847738        9.4058743624
  O         4.8772562741       23.6663935785        5.4404934057
  H         4.9918390324       18.1168546698        1.9152401733
  H        11.4467627209       11.8388727867        6.3621837664
  H         8.0284397786       17.7834431740        2.9311515251
  H         0.9892959708       24.1270383684        6.0992793321
  H         2.6633987783       18.0995228087        8.9043596714
  H        11.0639597637       24.5544077197        5.3102634831
  H         9.9203572821       17.1258521066        8.6325307864
  H         1.8115016981       11.3742662533        5.2173275390
  H         3.8669079503       17.7959893012        2.8376038580
  H         7.5764630406       11.7680157794        6.3503736782
  H         9.7067136114       17.9877669610        2.9983636337
  H         5.3781406078       12.1204752681        5.9765388624
  H         2.2475013892       19.5486553374        8.8526216915
  H         9.0564022139       11.8986685643        5.8921595683
  H        10.6282714907       15.8664817387        8.9712311771
  H         4.3186672119       24.4750044231        5.2520091142
  S        15.8921391782       12.0237162870        1.9690903516
  S        22.4085100243        5.9087285393        5.8447916166
  S        22.4140276643       -0.1161959024        1.9695318738
  S        15.8853149156        6.1501390703        5.8791845718
  S        17.8835158421        8.6020004957        2.9383439352
  S        24.3706743645        2.6631469715        6.4932726676
  S        20.3820197852        3.3642837145        2.9458373002
  S        13.8417911472        9.2984747767        6.5040245549
  S        13.9626654286        3.4041685492        2.9411046459
  S        20.1877157489        9.2754864112        6.5614188816
  S        24.2910943289        8.5790155739        2.9287318126
  S        18.0183202471        2.6389237325        6.5150897989
 Ca        19.7354507618       -0.0349797552        2.9730199442
 Ca        12.8288628339        6.0132980524        5.1516260670
 Ca        14.8188526648        8.6554857486        2.9823931634
 Ca        21.2647291712        2.5632754273        6.4998275567
 Ca        23.4479871156        3.2157420865        2.9772355319
 Ca        17.0395609111        9.4258055933        6.5034338174
 Ca        17.1096723785        3.1420955870        2.9818510663
 Ca        23.3509919521        9.0787386414        6.5453952278
 Ca        21.0814851015        8.7512791095        2.9802185611
 Ca        14.8596166286        2.8864393338        6.5988176834
 Ca        12.4237817776        0.0297008926        2.9720173114
 Ca        19.3081642884        5.9277416434        5.7876639651
  O        16.7227465416        0.8651680738        2.9414966547
  O        23.4441729924        6.5761896833        6.7041498062
  O        21.5563470328       11.0159726569        2.9419979630
  O        14.9086787339        5.2640001355        6.6015736276
  O        14.9746419159        1.3874608068        8.5826030930
  O        21.4150173843        6.9191402425        5.4029053088
  O        23.4121553561       10.3926041493        8.6867759696
  O        17.0649187734        5.3691332987        5.4461991999
  O        15.2633384449       10.9151502295        2.9407547619
  O        21.5892380042        4.8746069856        6.5573425754
  O        23.1329211619        0.9440759685        2.9349665892
  O        16.3348457393        7.2407976940        6.7622038046
  O        17.0057162587       10.6346472282        8.6218423599
  O        23.1971144838        5.2877853395        4.7042745670
  O        21.2601595272        1.4532078259        8.6095654615
  O        15.0951225722        6.6643863512        4.6887921228
  O        17.1085663925        8.6782677401        4.2403368277
  O        23.4319044569        2.9292311231        7.5910037307
  O        21.1729732631        3.2647301556        4.2272471394
  O        14.7772421443        9.2741547325        7.6479441044
  O        18.8243371072        7.3741548590        2.9594396528
  O        25.2432782211        1.4930426349        6.7625823194
  O        19.4853135654        4.6190722285        2.9590900981
  O        12.8295121398       10.3768046741        6.6241907746
  O        18.9118336871        9.8038906105        2.9411348549
  O        25.2918765315        3.8288594509        6.2239002703
  O        19.3046110505        2.1996335689        2.9449180224
  O        13.0619472006        8.0235898619        6.3040195561
  O        17.3669076788        9.4655607204        8.9214495928
  O        23.5174715915        2.3880694423        5.2623276619
  O        20.9028989539        2.6486103974        8.8439224319
  O        14.6952312647        9.5692209833        5.2647542551
  O        14.7105290547        3.3582519836        4.2630360518
  O        21.1158880118        8.8732814922        7.6335224597
  O        23.5085593783        8.5968925743        4.2446276295
  O        17.0923062345        3.0650066133        7.5761167319
  O        13.0012906335        4.6350929899        2.9488624963
  O        19.3636818826       10.4684963037        6.9247635136
  O        25.3025751230        7.3921151726        2.9549747081
  O        18.7921017357        1.4117999599        6.9042654455
  O        12.9166867807        2.2237833103        2.9523176937
  O        19.1563494948        8.1971977015        6.2347577908
  O        25.2986403952        9.8011142653        2.9408658170
  O        19.0972582235        3.6707645379        6.2200883450
  O        14.5126787145        2.4978253434        8.9974349138
  O        21.0130166995        9.5668518593        5.3294693804
  O        23.7925920910        9.2148435625        8.9320376848
  O        17.2078233839        2.3853046208        5.2677093505
  O        16.7886703031        5.3864522898        2.9355345399
  O        23.5039636885       11.5724588165        5.7528081683
  O        21.4346611184        6.5110159879        2.9255538263
  O        14.2966655227        0.4389300560        5.2735150196
  O        14.8047911168        6.5415407050        9.3247138713
  O        20.6637869681        0.2211300207        5.2387858812
  O        23.4789354518        5.3188677636        9.4764530752
  O        17.4471904618       11.6616490541        5.2635498713
  H        17.5612159792        6.0130960694        2.9626425622
  H        24.3824200394        0.1461115252        5.9934820167
  H        20.6874926681        5.8237675699        2.9778164375
  H        13.6283618720       12.3528453123        5.7712650601
  H        14.8982292082        6.0213249193        8.5269989226
  H        23.5777802975       12.3204697628        5.1366925360
  H        23.4357765374        5.9297658808        8.7662498461
  H        14.4260572963       -0.5477858688        5.2949804582
  H        15.9618793116        5.8476436121        3.0215129298
  H        19.9322137463        0.1878254934        5.9099910889
  H        22.2743864062        6.0392052149        2.9919405891
  H        17.8356461830        0.0715378297        6.2606704996
  H        14.8131938821        7.4677547754        8.9606524526
  H        21.0165121482       -0.7167789116        5.2804043446
  H        23.4719603996        4.4594344495        8.9964233030
  H        16.6810735045       12.2219693722        5.0263412838
  S        16.3070002462       23.3578520164        2.9507018365
  S        22.3325616943       17.9052208296        5.4585540230
  S        21.9911086253       12.4797780127        2.9485304408
  S        15.9358336339       18.0174979139        5.4570610803
  S        17.9981671021       20.6114645559        2.9417145158
  S        24.3566773121       14.7272096841        6.4310795073
  S        20.2987488313       15.3120313170        2.9410474657
  S        13.8449643583       21.1602763001        6.4147868198
  S        13.8767528138       15.4347128802        2.9436519383
  S        20.3402342756       21.1539186977        6.5237357354
  S        24.3635446739       20.4741795364        2.9355338231
  S        17.8808148400       14.7767978136        6.5049432563
 Ca        18.5618306066       11.9980135965        2.9727002751
 Ca        12.7458209019       17.8907186933        5.1535802274
 Ca        14.6165952370       20.5661788574        2.9759887250
 Ca        21.0176532327       14.6596609831        6.5746032568
 Ca        23.6112878631       15.3190999716        2.9780614827
 Ca        17.1965074362       21.2651567004        6.5183401041
 Ca        17.0546035576       15.3770900875        2.9739445754
 Ca        23.5087523959       21.2434562328        6.4878989979
 Ca        21.2367592005       20.5339800270        2.9671782545
 Ca        14.7888891729       14.8022767311        6.5781785908
 Ca        13.1441753209       11.9641496203        2.9678003318
 Ca        19.1476232569       17.9565786365        5.2201354892
  O        16.5488524302       13.1333512791        2.9432384376
  O        23.2012220198       18.7686167257        6.2973621024
  O        21.7295644059       22.7821069901        2.9373904966
  O        15.0807722721       17.1482492497        6.2985529740
  O        14.8892289949       13.4231785475        8.6759001464
  O        21.4129028331       18.6955857420        4.5400875688
  O        23.3253709084       22.5153979265        8.6008899825
  O        16.8770116316       17.2323051757        4.5388920516
  O        14.7763062137       23.1110242704        2.9309116980
  O        21.4234857512       17.0824407057        6.2732024801
  O        23.5100584986       12.7177678915        2.9410499610
  O        16.8245203016       18.8586838669        6.2857414943
  O        17.0799944931       22.6501955497        8.5437728734
  O        23.2669958681       17.1281694867        4.5589126326
  O        21.2854232156       13.4887519865        8.6916940818
  O        14.9999577939       18.7796771903        4.5579261217
  O        17.2010772015       20.7059742411        4.2381883967
  O        23.2788218476       14.9884474747        7.4114620362
  O        21.0752228824       15.2158826303        4.2356527636
  O        14.9290026434       20.9886410411        7.4076444063
  O        18.9037187274       19.3292736245        2.9507455976
  O        25.2365010053       13.5946094389        6.8557582600
  O        19.3903157125       16.5803687363        2.9531351947
  O        12.8869892189       22.2367841458        6.7822166094
  O        19.0788687115       21.7587175633        2.9500410080
  O        25.2837232143       15.9119873855        6.2730510154
  O        19.2139792464       14.1565663712        2.9518666671
  O        13.0135183637       19.9118986290        6.2888934395
  O        17.4635811968       21.4841252203        8.8614242215
  O        23.6990723324       14.3932443954        5.1182444344
  O        20.7288533965       14.6026827667        8.9348111580
  O        14.5224003486       21.5091465345        5.1013404048
  O        14.6022763334       15.4406505944        4.2787432363
  O        21.3164599944       20.7544028199        7.5466753243
  O        23.5933774765       20.5160700640        4.2463334442
  O        16.9433616705       15.1769368623        7.5656365221
  O        12.8250099669       16.5830813086        2.9539583455
  O        19.4678628879       22.2944577333        6.8533403597
  O        25.3908861830       19.3055695211        2.9595046200
  O        18.6888918821       13.5768004765        6.8389417862
  O        12.9269780406       14.1685108684        2.9445431598
  O        19.3803426222       20.0254870331        6.1994013258
  O        25.3771646109       21.6913342633        2.9316109423
  O        18.8948386545       15.8651458159        6.2176288058
  O        14.4955656045       14.5801535230        9.0034543950
  O        21.1611735963       21.5142243986        5.2786996578
  O        23.8683857598       21.3906144605        8.8571891319
  O        17.0381607044       14.4855356298        5.2741490790
  O        16.6873029625       17.7208417395        1.8435012061
  O        23.9221913199       23.4974531177        5.3261590729
  O        21.4483768413       18.2156819495        1.8299621276
  O        14.3199285997       12.2614557421        5.0978916760
  O        15.2300702329       18.7267701833        9.2431797509
  O        20.8313588371       12.4477272845        5.6818195238
  O        22.6692241611       17.1977525903        9.1582825684
  O        17.2383524336       23.5162375627        5.6862109617
  H        17.5985011359       18.1282029308        1.9205013630
  H        23.9839889710       11.8881835468        6.5178765168
  H        20.5394197713       17.8387959962        1.9042882881
  H        13.5796304044       24.5766155377        5.9718495290
  H        15.6297267504       18.0822344017        8.6105637477
  H        23.1972839225       24.1152086708        4.9621358939
  H        22.3458929474       17.8023786922        8.4806346569
  H        14.5941718102       11.3233751277        5.1699724435
  H        16.4816293021       17.8001838046        2.8527827953
  H        20.2266166945       11.8686850166        6.2350891304
  H        21.6842120578       18.1505930430        2.8595311639
  H        17.9534283780       12.1794723389        5.9469527651
  H        15.0214128098       19.4643397674        8.6403738165
  H        21.6760096782       11.9437124153        5.6695026050
  H        23.0810083698       16.4815958880        8.6544073922
  H        16.4466020406       24.0870353702        5.5783610437
  O         8.6533624145       17.0985379647       20.9166806959
  H         8.2427286226       16.9287907575       20.0455407956
  H         8.4225536608       16.3087236296       21.4210071600
  O         2.8369606911        9.7610303561       18.5801356452
  H         2.8170730709       10.4003625448       17.8869606601
  H         2.7452122509        8.9428592918       18.0874857922
  O         6.6995858556        7.2062280647       24.8809448378
  H         7.7971849699        7.8431613996       24.8919925703
  H         5.4967123898        7.5851871456       24.9112024218
  O        16.5966869761        5.8968306347       22.4132624171
  H        16.6255983593        6.5058910544       21.6235855193
  H        16.5169622941        6.2303183663       24.8736937378
  O        14.3314965402       13.1590172310       22.4062213433
  H        14.6081794183       13.2786728946       24.8658589239
  H        14.9074763774       13.3521568352       21.6585712515
  O        14.4867936808       21.7076528859       15.9383457973
  H        14.7907815264       21.8188769689       15.0357624688
  H        13.5610689952       21.4209045573       15.8010643046
  O        23.0787979237        9.5205699691       15.7155012172
  H        22.9406951826        9.8050925884       14.8139811728
  H        23.7541227780        8.8200945227       15.5796659205
  O         5.8349378220        9.6134322518       11.3235479851
  H         6.4802971055       10.1484585063       10.8012920984
  H         5.1973726296        9.3660562360       10.6228612988
  O         6.6249249764        3.9646575548       15.0671477770
  H         6.0957757529        4.7013399958       14.7763770671
  H         6.7704465796        3.5127989144       14.2376609625
  O         1.3822140582       21.0513399533       21.4571987169
  H         1.3842903230       20.8935827400       20.5161982189
  H         1.7726531858       20.1846354544       21.7651060067
  O        18.7021228024        4.7616458836       17.7008086732
  H        17.9153569982        5.3245366443       17.4807824318
  H        19.1681770328        4.6746857406       16.8914308554
  O        16.5884179769       18.8846488539       17.7764110873
  H        17.2379883384       18.5248328331       17.1370287472
  H        16.0878450484       19.5503903167       17.2567605159
  O        20.1552035396       14.2959560733       17.7004694270
  H        20.9690061127       13.9940806438       17.2202400733
  H        19.5177937788       14.3259459238       16.9760080462
  O         3.0008167306       13.0749478383       13.1545693161
  H         3.4506346606       12.5178115860       12.4951088788
  H         2.5320210806       13.6895928541       12.5465110589
  O        20.2658676580        0.7064916179       24.8887506015
  H        20.1865606063       -0.5001133944       24.8877687941
  H        21.3103390078        1.2074695545       24.8727408242
  O        20.6462708555       17.1788600328       19.6035879392
  H        21.1233128844       17.7172674292       19.0278852437
  H        20.4440031065       16.3561671735       19.0839413870
  O         9.8647093533       -1.9943487746       24.8819160362
  H         8.8944223709       -2.7839819174       24.8741481836
  H        19.2963953152        1.3424007669       24.8712371939
  O         8.1009086537       14.7721024331       23.6793320731
  H         8.8082898511       14.6771244920       24.8495984144
  H         7.3743253602       14.9188661384       24.8305280276
  O         7.4392527971       15.5703431021       15.7923675936
  H         7.8156047255       15.5128887471       14.8966972758
  H         6.5008927295       15.5792148795       15.6285003491
  O        15.1428324579       21.8531595433       13.1537535751
  H        15.1970392995       21.1285898148       12.5428486034
  H        15.1300420871       22.6208120086       12.5828341573
  N         1.9452552507       19.6179051640       12.4248160297
  H         2.0946912047       19.1854155788       11.4749071377
  H         2.7982865618       20.1463353664       12.6731144939
  H         1.1772802276       20.3013736120       12.3242197318
  N        22.1807339329       21.4666592321       14.1924968939
  H        22.9870500362       22.0954091195       14.2199509097
  H        21.5794406065       21.8480968145       13.4669969180
  H        22.5419735344       20.6336053875       13.8001856738
  N        16.0308470082       18.3998525943       20.8955763320
  H        16.5250761312       17.5141122460       20.9225136850
  H        16.4279737077       18.8273760210       19.9846270162
  H        15.1323630091       18.1523506127       20.6073659873
  N        26.3081115579        4.4406756919       12.9249815340
  H        27.0176034420        5.1365769002       12.8628381687
  H        25.4883666523        4.8566548492       12.4630177191
  H        26.1955761531        4.1176037314       14.5864012669
  H        26.5850993139        3.6313628050       12.3760664567
  N        26.1400084646       18.3916284437       24.8810474270
  H        26.6475753626       19.6178735269       24.8621272569
  H        27.5075271898       18.2215448314       24.8886724262
  H        24.9274461383       18.8316227553       24.8910861880
  H        26.0885850903       17.0860376950       24.8885074360
  N        10.9258910886        7.8274644607       20.5054962463
  H        11.0098382468        8.8414640630       20.2340659453
  H        10.2953207558        7.4105472847       19.8047448248
  H        13.1939451178        7.0723630125       18.2178485921
  H        11.8240971960        7.4306343458       20.2809724406
  N        16.1869375238        8.5565026941       17.4625512016
  H        15.6974815038        9.4446897381       17.4558923443
  H        17.1362732639        8.7784970891       17.3106280355
  H        15.9138389749        8.0679945723       16.6029315271
  H        13.9254388435        7.2851963390       18.3894508885
  P         1.9639088194        4.5670364739       16.3348364688
  O         2.6710256419        5.6536911569       15.5707447388
  O         0.6414978825        4.1152629951       15.6061659468
  O         1.6281127391        4.8385681416       17.7841312385
  O         2.9124988622        3.2431836151       16.2709927199
  H         3.7897791162        3.5060805520       15.9917358299
  P         2.1260914070       17.9706208927       20.6105769817
  O         2.4201264298       18.5407011482       22.0097127900
  O         3.0629481194       16.8749333408       20.1910355502
  O         1.9434886270       19.0473419363       19.5505126712
  O         0.5913270883       17.2870737214       20.8388927417
  H         0.3220545010       17.0354995527       19.9556683283
