     296
 i =        1, E =     -2894.7709226950
 Ca         9.5096366275        1.1560857294        6.3385580498
 Ca         2.5348513822        4.0448278097       13.5863801756
 Ca        -0.3004146881        4.0904009315       18.0989428292
 Ca         0.9510682378        1.1543898135       11.1039571515
  S         2.5513038480        4.0419745945        6.0974419354
  S         9.4420906849        1.1057528975       13.4729331392
  S         0.7901921120        1.3087121592       18.6508865815
  S        -0.3122001258        4.0223828926       11.2255753182
  O         7.6633311767        2.9333587737        6.9952630161
  O         3.8732795051       11.3674872528       14.2355721201
  O         1.2142519840        2.2298662876       17.5215317871
  O         0.1302231733        5.1775222658       10.3969198986
  O         3.1059662227        5.1356420683        6.9848480375
  O         9.8226503726        2.2240575509       14.3785494581
  O         0.8905971937       11.2112050543       17.6787681677
  O        -0.7205145875        2.8643123613       10.3813841598
  O         9.2474677006        3.3540419132        5.2841969556
  O        10.5795186511        0.6850668725       12.6338991648
  O        -0.1751240429        2.1123574517       19.4216021371
  O        -1.4536489166        4.4990055340       12.0301592478
  O         1.5021386272        4.6973042316        5.2990273376
  O         8.3149480817        1.6293995690       12.6722731274
  O         7.5967170790        0.2893391836       19.3908014199
  O         0.7927889261        3.5432427544       12.0795663736
  O        -0.5425429131        2.4533386894        7.7141479009
  O        -1.5965676166        5.1655538132       14.9048036136
  O         9.3420583245        2.8718211396       16.9831498854
  O         5.8626623465       11.3901700323        9.6278268278
  O         3.0624981703       11.3471110219        7.7418311308
  O         1.0780662566        2.8654065548       14.9400735488
  O         1.4128667520        5.2471046684       17.0009662777
  O         7.9845311259        2.4082281871        9.6859789542
  H         0.3303082163        2.7758642416        7.3796240563
  H         2.1672550102       11.2050480283       14.7187466746
  H         8.6613191228        2.2875646248       17.3830082274
  H         1.8893003210        5.4185180699        9.9905107563
  H        -0.9148749014        5.2802503926        7.3878757713
  H         0.2043540286        2.5933496615       14.5914479394
  H         4.9345251215       11.4381435115       17.2992675642
  H         8.8878381632        2.6365126028        9.9895422884
  H        -0.5490848755        2.6215683287        8.6806588097
  H        -1.6672225907        5.6683597009       15.7488348184
  H         9.5157908195        2.5218836437       16.0847392498
  H         5.9342861062       11.1191141072        8.6884418080
  H         3.0685392158       11.1799853442        8.7086479786
  H         1.1284619082        2.4754273192       15.8415013368
  H         1.3114246615        5.6454010361       16.1146854832
  H         7.9323057705        2.6544722418        8.7383318994
 Ca         3.8405344374        1.1798896538        6.3598394420
 Ca         8.2280805804        4.0211147342       13.6112688949
 Ca         5.3107809494        4.1030215756       17.3511312886
 Ca         6.6341642660        1.1589308460       11.1182213036
  S         8.2096521811        4.0173653372        6.0909626872
  S         3.7591305826        1.1486188738       13.4259617279
  S         6.4376718806        0.8309960231       18.6449712876
  S         5.3859419700        4.0358526254       11.2715655718
  O         1.9884438836        2.9467572818        6.9784143021
  O         3.3307001193        0.0364025886       14.3087535765
  O         6.8324435296        2.0332473578       17.8501059265
  O         5.8455810732        5.1746134436       10.4308368601
  O         8.7868899017        5.1175140333        6.9555305478
  O         4.2098926906        2.3275458864       14.2281081576
  O         0.1962164686        0.0749467474       18.0721931057
  O         4.9263373301        2.8918161961       10.4382778125
  O         3.6075043050        3.3886868028        5.3065533845
  O         4.8631119563        0.6315810421       12.5905500843
  O         5.3153316981        1.1715728088       19.5294635483
  O         4.2826749567        4.5627967629       12.1018636421
  O         7.1451455454        4.6677560421        5.3089797970
  O         2.6432317762        1.6553153804       12.6061427972
  O         1.9849691010        0.8860883434       19.4010971154
  O         6.4885905518        3.5155519611       12.1066193655
  O         5.1281804571        2.4709713518        7.7629124031
  O         4.1638103872        5.1023595421       15.1543644705
  O         3.8276687491        2.3810928343       16.8920188744
  O         0.1714514711       11.4146051406        9.6407937290
  O        -2.6190778902       11.3485751140        7.7317409806
  O         6.5829834355        3.0283309563       15.2214482647
  O         6.9285734239        5.7290167868       16.9430541492
  O         2.3086672076        2.3902991054        9.6654898197
  H         6.0020142150        2.7892613023        7.4268795937
  H        -3.6105777349       11.2511690336       14.7560389448
  H         2.9073879511        2.2955301013       17.2448434890
  H         7.5691881598        5.4014270282        9.9634147540
  H         4.7644947051        5.2826502262        7.4224846556
  H         5.8078927933        2.6876484425       14.7037328108
  H        -0.7781802143       10.8777149831       17.3077342821
  H         3.1944158490        2.6519601966        9.9911649078
  H         5.1173407011        2.6364742532        8.7283764839
  H         3.8826217554        5.9420141432       15.5674231353
  H         3.7800925847        2.2095861940       15.9297225442
  H         0.2428055114       11.1366938878        8.7033317242
  H        -2.6214566576       11.1826933592        8.6983927604
  H         6.8661248972        2.2673572903       15.7665214950
  H         6.9208653641        5.8796576927       15.9746078214
  H         2.2536322200        2.6668270818        8.7266557856
 Ca         1.2576992540        6.9099982164        6.3465281828
 Ca         5.6499227934        9.7351182506       13.5505592072
 Ca         2.7974805118        9.7685377049       18.2896187890
 Ca         4.1317317410        6.9135001830       11.1009381580
  S         5.6475790944        9.7557271792        6.0755260708
  S         1.3175551200        6.9502509793       13.4171178172
  S         4.1891329665        7.1938632842       18.6763178412
  S         2.8075202952        9.7732835404       11.2269646808
  O        -0.5902942083        8.6854404470        6.9688319769
  O         1.0032114690        5.8642873571       14.3850425891
  O         4.6209581364        8.2975614932       17.7211842326
  O         3.2642994682       10.9231405656       10.3994297546
  O         6.2153434032       10.8490147815        6.9548294026
  O         1.7799352431        8.1872010501       14.1057780073
  O        -1.8005927347        5.9981839445       17.3795823671
  O         2.3653221025        8.6274305607       10.3858593265
  O         1.0228382652        9.1214174649        5.2913120384
  O         2.3921528508        6.4042077989       12.5627013265
  O         2.9549232937        7.6905122205       19.3164981737
  O         1.6878477846       10.2894754271       12.0403349630
  O         4.5901598918       10.4112864308        5.2885769230
  O         0.1252104292        7.3391847367       12.6444701533
  O        -0.5688197059        5.9923773546       19.3935370968
  O         3.9113172300        9.2541936395       12.0614105069
  O         2.5624755104        8.1934352493        7.7299005650
  O         1.2241998375       11.1467182868       14.9842349647
  O         1.7501716711        8.3473016663       16.7456773681
  O         2.7845507575        5.6571491713        9.6734132279
  O        -0.0493927333        5.6129745855        7.7299848659
  O         4.3846241614        8.3578844837       15.0036192963
  O         4.0439272918       11.2322490703       16.9082329866
  O        -0.2445460635        8.1476310092        9.6451669655
  H         3.4342497953        8.5115667160        7.3889501876
  H        -0.7241118400        5.4065110850       14.5330030702
  H         0.8893646698        8.0581648644       17.1556046178
  H         4.9727352723       11.1243283773        9.9433930111
  H         2.1912618055       11.0239281443        7.4036006814
  H         3.4608199149        8.3271084632       14.6728885205
  H         2.1943541098        5.6670942377       17.4283085632
  H         0.6501626373        8.4055046633        9.9531621516
  H         2.5552258211        8.3714714042        8.6946938940
  H         1.1955413187       11.1827055633       15.9673089323
  H         1.6165694721        8.3268330232       15.7771870954
  H         2.8304948129        5.4046826431        8.7268262977
  H        -0.0423461887        5.4347469244        8.6947209758
  H         4.3371391047        8.3516974231       15.9882259780
  H         4.1463793924       11.2865161421       15.9358595823
  H        -0.3137556747        8.4150669432        8.7043957873
 Ca         6.9292078160        6.8890529392        6.3475381050
 Ca        -0.0461893631        9.7989602133       13.5384562006
 Ca        -3.0807949532        9.9246257494       18.8891016055
 Ca        -1.5690340804        6.9019213651       11.0880286660
  S        -0.0267207541        9.7792869162        6.0865117864
  S         7.0015057802        6.9205378767       13.4387232562
  S        -1.3224393769        6.9019038720       18.5058998574
  S        -2.8795564535        9.7648212597       11.2298978072
  O         5.0899847063        8.6654379265        6.9666240806
  O         6.5744623662        5.7457959434       14.2634574525
  O        -0.5101149213        7.9979038355       17.9650212253
  O        -2.4356603864       10.9151717407       10.3980167060
  O         0.5374496172       10.8695708241        6.9734882202
  O         7.4372567483        8.0430061124       14.3048469299
  O         3.8974928943        5.9847852341       17.8581472588
  O        -3.3166735552        8.6172854816       10.3888351252
  O         6.6921381781        9.0959433636        5.2756410941
  O         8.1025731539        6.4128172125       12.6027460318
  O        -2.5229008025        7.5019756129       19.1392689513
  O        -3.9959625942       10.2724528343       12.0555244720
  O        -1.0767698956       10.4409716338        5.2951344356
  O         5.8775987687        7.4188881382       12.6179985327
  O         5.2715757612        6.9312988477       19.6227558115
  O        -1.7723983397        9.2537170913       12.0640224516
  O        -3.1220971925        8.1961640016        7.7162188412
  O        -4.5083245319       11.0270120440       15.0770203490
  O         7.0742663280        8.9839821192       16.9085719198
  O         8.4434606992        5.6858602025        9.6254905866
  O         5.6345507167        5.6081014944        7.7606048029
  O        -1.2479795464        8.5479781878       15.0886048945
  O        -1.6624185868       10.6022739150       16.9499117443
  O         5.4385820933        8.1480798480        9.6424215232
  H        -2.2519362127        8.5210585142        7.3779794902
  H         4.9787157212        5.3571891190       14.6450543455
  H         6.2106300737        8.6393832894       17.2663484888
  H        -0.7168600927       11.1483699201        9.9599329109
  H        -3.4829012824       11.0154062798        7.3859768092
  H        -2.1390888639        8.3146939509       14.7553610091
  H         7.8755727004        5.8409456034       17.2151724470
  H         6.3347962827        8.4013611357        9.9514306751
  H        -3.1239444800        8.3578553190        8.6834021014
  H        -4.3747085248       10.5202948863       15.9110462799
  H         7.2949242127        8.3881524986       16.1671039294
  H         8.5059125800        5.3969366322        8.6909634979
  H         5.6492019482        5.4318970627        8.7241089964
  H        -1.4046187748        9.0130397677       15.9415353352
  H        -1.8006654926       11.1668197416       16.1645097120
  H         5.3731664440        8.4078194722        8.6992381295
  O        -1.5652302995        5.3275263535       27.4909484294
  H        -1.1036182772        4.8882894678       28.2434869510
  H        -1.5456488985        6.2578819802       27.8125167110
  O         7.3541637138        4.3557299718       28.1228151736
  H         8.2511411128        4.7539398059       27.8927220417
  H         7.5753927622        3.6886214355       28.7886851457
  O        -1.3800586315        6.9540159075       22.0296983206
  H        -0.6087174831        7.4146263789       21.6299617159
  H        -2.5883957329        7.5452450895       22.0372704486
  O         6.3698803020        7.9174897634       24.7777442456
  H         6.0113292672        8.4879436584       24.0291696919
  H         5.6548834442        7.7790865010       25.4308780674
  O        -0.7900529899        4.4554557817       30.0396366681
  H        -1.4882835698        5.1517928674       30.2897363168
  H         0.0337738287        4.8325546169       30.3805310025
  O         5.1047190795        3.7891848090       19.5531424557
  H         5.3041636965        2.8121159619       19.6305935775
  H         4.2215640911        3.7494589907       20.0381122908
  O        10.1932959969        1.6775146857       30.3567442089
  H        -0.9697480582        2.6357406651       30.2534519457
  H         9.6964340774        1.6583220367       31.1848809517
  O         5.2151095699        2.0387987004       24.3426274766
  H         4.3052112581        1.7574882238       24.1107124371
  H         5.1322456846        2.6878484490       25.0777815403
  O         3.0306547502        2.9614837347       20.8833524625
  H         3.3083377367        2.3411042600       21.6078468448
  H         2.6311281021        2.2969536482       20.2840446878
  O         4.6091585154        6.7069719640       26.6707209500
  H         3.6779902785        6.9192078940       26.8148954166
  H         5.0372539228        6.7624167789       27.5881417590
  O         5.8334205788       10.3531813437       30.3547554480
  H         6.5550784442        9.9548937010       29.8294802099
  H         5.7793031980       11.3025135078       30.1397289233
  O         0.7035292599        8.4551522639       20.9084378626
  H         0.1237165433        8.9713257953       20.3114154415
  H         1.3192115507        7.9056908547       20.3986634307
  O         0.8988714189        7.8410312400       30.4060292873
  H         0.4465636168        8.3323291006       31.1092977368
  H         1.8820322615        8.0706649980       30.4632091652
  O        -1.1787059206       10.2966267988       20.1019470392
  H        -0.7832259470       11.1965398372       20.0720662623
  H        -1.7240164395       10.3062360866       20.9456955816
  O         5.8131449398        6.6012185352       28.9880506025
  H         6.3547538465        5.7925647086       28.8639739190
  H         6.5344303928        7.2974581001       29.1671878510
  O         5.6462487507        4.2037013064       26.0201507316
  H         5.0974168283        4.9887116553       26.2556101589
  H         6.2385294234        4.1112537523       26.8085315253
  O         6.6541513857        6.1481961864       32.1609290837
  H         7.4526678950        6.0896991908       31.5804627170
  H         5.9374558810        6.0882564286       31.5131602137
  O         7.0656971972        5.4424140749       24.0009345267
  H         6.6701334786        5.0044195983       24.7979687106
  H         6.8051045862        6.3973788912       24.1624845585
  O         3.4464558484        0.9270499263       22.6308476161
  H         4.1244561320        0.1745435316       22.7826412903
  H         2.6079639579        0.4384297610       22.5106648652
  O        -2.5657149708        9.4459775100       24.7317304871
  H        -2.7220214281        9.8462001041       23.8612322276
  H        -3.4324748268        9.0383451055       24.9504079718
  N         8.5332483539        2.8292369474       20.4547500754
  H         9.5380999576        2.8373591432       20.6288649471
  H         8.3929703890        3.0820650465       19.4769682768
  H         8.3123889347        1.8273893019       20.4596668366
  N         0.0393778966       10.4534106306       23.1843166585
  H         0.8059372291       10.9254331983       23.6591482327
  H         0.4553312651        9.8219696813       22.5017742692
  H        -0.4038006323        9.8715147641       23.8969303289
  N         3.6096972546        8.2011774128       30.6086568293
  H         4.1511925590        9.0459338777       30.3954755515
  H         4.0939923927        7.4667590209       30.0889258768
  H         3.8295876935        8.0037478382       31.5840360912
  N        -3.9302955749        9.0178560300       32.6102893077
  H         6.9905436679        8.0874156438       32.6377251075
  H        -2.6277417305        8.8236397421       31.8316766234
  H        -3.8531458072        9.3648762465       33.5580685677
  H         6.8056830877        9.6289012402       32.0757876551
  N        -1.5046644537        6.6458022047       24.5862361076
  H        -2.3734089216        6.1060221836       24.6221202271
  H        -0.9141473929        6.2379454765       25.3053076903
  H        -1.7780139357        7.5786592269       24.9118660397
  H        -1.2200632094        6.8390328322       23.0478357126
  N         7.4404061589        5.5916314367       20.5379120782
  H         7.9761185942        4.7363687057       20.7372024414
  H         7.3304313628        6.1910544427       21.3880745331
  H         6.5193988788        5.3633538997       20.1537972363
  H         7.9541229549        6.2256959385       19.8903476217
  N         6.2914720637        3.5008863442       22.3315586816
  H         6.5652205325        4.3642169065       22.8863194048
  H         5.5935468518        3.7400704705       21.6244150787
  H         5.8832279392        2.8234392391       23.0329758328
  H         7.1186371358        3.1302907600       21.8324725769
  P         7.0897267501        9.1468807077       21.8424031627
  O        -3.1617276573       10.1810004380       21.7801294598
  O         5.8666940047        9.3706485995       22.6576400549
  O         7.6851961407        7.7101598143       22.0840250696
  O         6.6492084437        9.0923505983       20.2688702818
  H         6.0568319373        8.3091455042       20.0805145165
  P        -2.4070149465        7.7338681802       30.0038441772
  O        -3.6620062088        8.3475734927       29.4338805905
  O        -2.5893906415        6.2757852327       30.4130801129
  O        -1.8188153090        8.5919563968       31.1789954114
  O        -1.2633134414        7.8039103940       28.8833620124
  H        -0.3552797319        7.8477098619       29.3113011698
     296
 i =        2, E =     -2894.7917628112
 Ca         9.5106924080        1.1563947860        6.3267653588
 Ca         2.5395240857        4.0495600706       13.6068120528
 Ca        -0.2924408441        4.0844226575       18.1322972758
 Ca         0.9503389685        1.1554409421       11.0978204675
  S         2.5513492647        4.0423171497        6.1022379904
  S         9.4411865269        1.1069157498       13.4675962096
  S         0.7897939357        1.3060447275       18.6313310052
  S        -0.3132175721        4.0211699348       11.2285677008
  O         7.6669171186        2.9190928849        6.9986883414
  O         3.8698568023       11.3627593827       14.2324965478
  O         1.2203219123        2.2489464858       17.5031417199
  O         0.1335017306        5.1788165107       10.3911746795
  O         3.1061741991        5.1495673685        6.9903187481
  O         9.8237207539        2.2269520176       14.3831615954
  O         0.8919373155       11.1929290098       17.6613037705
  O        -0.7263646860        2.8594707746       10.3771352177
  O         9.2544462014        3.3580540976        5.2752816855
  O        10.5864173090        0.6770839955       12.6263702754
  O        -0.1714278103        2.1068752380       19.4218240996
  O        -1.4594100095        4.5106828396       12.0361044540
  O         1.4970648674        4.6948778574        5.2923236012
  O         8.3105047852        1.6428424711       12.6612645880
  O         7.6029184229        0.2971359202       19.3822282271
  O         0.7956556431        3.5305309826       12.0873088699
  O        -0.5434219100        2.4583058449        7.7026490295
  O        -1.6034397804        5.1742864563       14.9053669491
  O         9.3332797513        2.8912375067       16.9881451622
  O         5.8647972213       11.3830826038        9.6200073428
  O         3.0634311379       11.3430020541        7.7305571426
  O         1.0851370643        2.8547467128       14.9381300957
  O         1.4211186852        5.2278264536       17.0054707140
  O         7.9818690430        2.4177749779        9.6817488103
  H         0.3398119738        2.7754210785        7.3803974558
  H         2.1694393501       11.1988640009       14.7254073916
  H         8.6643993115        2.2863823732       17.3847068578
  H         1.8876133306        5.4186415053        9.9905856134
  H        -0.9245540227        5.2805346213        7.3879019270
  H         0.2051306946        2.5926055648       14.5932405604
  H         4.9374198149       11.4340691515       17.3090798660
  H         8.8890115891        2.6356398456        9.9886676235
  H        -0.5472449518        2.6202937834        8.6714554743
  H        -1.6607719524        5.6683801248       15.7628771533
  H         9.5190569688        2.5086469224       16.1039994955
  H         5.9301814462       11.1118135342        8.6753768746
  H         3.0664138959       11.1808560883        8.6993976369
  H         1.1258803716        2.4746164820       15.8508159056
  H         1.3082780375        5.6603155079       16.1348800566
  H         7.9349992951        2.6606331288        8.7281243306
 Ca         3.8410615594        1.1790811044        6.3441071677
 Ca         8.2263543619        4.0170177597       13.6295432891
 Ca         5.3083291761        4.1047796883       17.3478778251
 Ca         6.6338040880        1.1597271348       11.1120836802
  S         8.2110800231        4.0177460754        6.0939973212
  S         3.7606958215        1.1500525669       13.4222889880
  S         6.4382224578        0.8308115634       18.6274112448
  S         5.3860251461        4.0354484569       11.2712328490
  O         1.9902586748        2.9324655586        6.9838648600
  O         3.3302780397        0.0337206874       14.3104617555
  O         6.8306487685        2.0516158689       17.8347797406
  O         5.8489178578        5.1780259173       10.4230374623
  O         8.7869636721        5.1320414972        6.9591395907
  O         4.2175430386        2.3326416250       14.2300107161
  O         0.1822013290        0.0668977310       18.0531279699
  O         4.9240203892        2.8857943170       10.4320854416
  O         3.6143422771        3.3923461818        5.3014973439
  O         4.8683008319        0.6224230087       12.5808912934
  O         5.3199620521        1.1705755347       19.5226537765
  O         4.2763439784        4.5720228929       12.1033602673
  O         7.1376271962        4.6631528920        5.3038650741
  O         2.6388431168        1.6661601851       12.5991557325
  O         1.9881341967        0.8815857012       19.3829592345
  O         6.4946978517        3.5065786082       12.1094845288
  O         5.1265514776        2.4748454067        7.7543954265
  O         4.1513807682        5.1059131029       15.1441894916
  O         3.8285855022        2.3743853933       16.8997777548
  O         0.1731198173       11.4078610920        9.6335248239
  O        -2.6181270594       11.3439586163        7.7194967664
  O         6.5987565861        3.0220645559       15.2090454399
  O         6.9303323686        5.7382800799       16.9461752114
  O         2.3057235123        2.4011756108        9.6631803277
  H         6.0104370922        2.7887310573        7.4304009398
  H        -3.6086066399       11.2533031624       14.7548877852
  H         2.9023009392        2.2938129468       17.2484745660
  H         7.5691387749        5.4000990972        9.9609281891
  H         4.7559100988        5.2830803998        7.4253712528
  H         5.8116646713        2.6791095062       14.7086584674
  H        -0.7861181845       10.8718629513       17.3165292331
  H         3.1959667102        2.6522323501        9.9914770184
  H         5.1208171622        2.6366228198        8.7220501534
  H         3.8843363484        5.9371291888       15.5878637452
  H         3.7691986972        2.2092895008       15.9369056194
  H         0.2392410696       11.1302116544        8.6907678222
  H        -2.6236604452       11.1835463050        8.6885904276
  H         6.8599678034        2.2747579281       15.7902858203
  H         6.9304027040        5.8800992884       15.9766556688
  H         2.2554102154        2.6725498896        8.7176774698
 Ca         1.2592428862        6.9080580520        6.3298456838
 Ca         5.6507227121        9.7287567004       13.5749976841
 Ca         2.7949434129        9.7663595168       18.3240167109
 Ca         4.1303496767        6.9133442153       11.0940250371
  S         5.6476075322        9.7556961542        6.0781106374
  S         1.3177427208        6.9492813879       13.4114152666
  S         4.1903632204        7.1860221869       18.6571397958
  S         2.8065141536        9.7726544165       11.2290757110
  O        -0.5887517841        8.6718573007        6.9736162749
  O         0.9961233336        5.8629881309       14.3879958285
  O         4.6220027929        8.3117723791       17.7069653726
  O         3.2657722281       10.9266096710       10.3939904866
  O         6.2153734571       10.8622667650        6.9582224100
  O         1.7828227015        8.1913253546       14.1038770247
  O        -1.8037053887        5.9762521558       17.3667708166
  O         2.3615434099        8.6199711917       10.3839331989
  O         1.0305204184        9.1257557080        5.2855200572
  O         2.3972192196        6.3896460092       12.5537912689
  O         2.9538431976        7.6790183562       19.3076798507
  O         1.6813675101       10.2992588660       12.0450488880
  O         4.5832028469       10.4065625850        5.2805165490
  O         0.1192699776        7.3470849577       12.6338669244
  O        -0.5639962565        5.9998645167       19.3891361229
  O         3.9161147869        9.2459085303       12.0676579536
  O         2.5612942472        8.1984141647        7.7178758651
  O         1.2227021705       11.1670673651       14.9912055407
  O         1.7573681229        8.3380884183       16.7546337116
  O         2.7863774465        5.6483391634        9.6699802815
  O        -0.0489445409        5.6091398997        7.7175408202
  O         4.3836558432        8.3366846701       15.0107197615
  O         4.0382106246       11.2369456529       16.9183170052
  O        -0.2484575948        8.1574190419        9.6389061905
  H         3.4442344405        8.5114644069        7.3908189628
  H        -0.7252223143        5.4095672632       14.5400557704
  H         0.8837643713        8.0655246908       17.1621213858
  H         4.9720884988       11.1234770660        9.9392016518
  H         2.1821258738       11.0246895108        7.4047409436
  H         3.4563906639        8.3327608956       14.6814084045
  H         2.1972663002        5.6714521487       17.4273624642
  H         0.6499701567        8.4051471234        9.9516056379
  H         2.5581315420        8.3710165184        8.6851350448
  H         1.1943459682       11.1862577835       15.9817672886
  H         1.6028157191        8.3293842418       15.7890357343
  H         2.8287955042        5.3989599795        8.7175535331
  H        -0.0442987977        5.4353650395        8.6844407190
  H         4.3387756081        8.3477968454       16.0023275507
  H         4.1537287156       11.2851351058       15.9474210993
  H        -0.3116865394        8.4213574490        8.6919303578
 Ca         6.9296497877        6.8878997713        6.3346948498
 Ca        -0.0435020393        9.8012199620       13.5551395386
 Ca        -3.0951114077        9.9349148845       18.9355484624
 Ca        -1.5689255591        6.9040620100       11.0797994944
  S        -0.0260710764        9.7797557168        6.0907184077
  S         7.0005983265        6.9184608399       13.4348921677
  S        -1.3185763710        6.9073249641       18.4887318189
  S        -2.8811298001        9.7639699766       11.2325995609
  O         5.0921239590        8.6521211139        6.9715411621
  O         6.5678932724        5.7410504519       14.2668463403
  O        -0.4918798953        8.0029462957       17.9413396208
  O        -2.4356610079       10.9177423753       10.3917247516
  O         0.5376766421       10.8829890644        6.9797157901
  O         7.4407265816        8.0419534071       14.3087571229
  O         3.8900666497        5.9673178920       17.8309342126
  O        -3.3194446957        8.6098898912       10.3862075019
  O         6.6976310660        9.0986649714        5.2670250503
  O         8.1052532552        6.3997744999       12.5933205744
  O        -2.5191762663        7.5115742712       19.1267200514
  O        -4.0031512613       10.2809048432       12.0617988705
  O        -1.0816491157       10.4390460533        5.2886836116
  O         5.8716111480        7.4301000046       12.6120579933
  O         5.2662612711        6.8996914129       19.6087495523
  O        -1.7676955332        9.2458505248       12.0707885730
  O        -3.1234710351        8.2011849551        7.7047931703
  O        -4.5063620430       11.0363768963       15.0835060120
  O         7.0732066943        8.9964219432       16.9077160834
  O         8.4459711406        5.6788726696        9.6188578832
  O         5.6346134181        5.6058852380        7.7528311609
  O        -1.2493789053        8.5404362391       15.0941156358
  O        -1.6658921211       10.5846404026       16.9501711419
  O         5.4341056989        8.1581868215        9.6364349671
  H        -2.2427726398        8.5207654598        7.3791210548
  H         4.9731985438        5.3636627951       14.6460317127
  H         6.2140518409        8.6455214513       17.2787626580
  H        -0.7179180545       11.1477188949        9.9565345716
  H        -3.4922709393       11.0156258451        7.3862996557
  H        -2.1407957096        8.3136712459       14.7541179044
  H         7.8824330643        5.8419312520       17.2196037411
  H         6.3346430702        8.4003187295        9.9494292417
  H        -3.1218638487        8.3565217850        8.6744442840
  H        -4.3812596620       10.5247329350       15.9222741356
  H         7.2971818716        8.3730245958       16.1887462760
  H         8.5026207683        5.3901239070        8.6792128972
  H         5.6462338671        5.4312364550        8.7178863044
  H        -1.3949152254        9.0065730205       15.9543293651
  H        -1.7938074743       11.1806095616       16.1853189689
  H         5.3751954611        8.4136389701        8.6868067474
  O        -1.5433570724        5.3326685147       27.4853484419
  H        -1.1054407098        4.8821446141       28.2520071616
  H        -1.5587092851        6.2629809768       27.8247321928
  O         7.3555096175        4.3429968829       28.1113216363
  H         8.2469924029        4.7618577681       27.8863687485
  H         7.5680744168        3.6889185402       28.7970551718
  O        -1.3813522902        6.9446193452       22.0314696826
  H        -0.6123052032        7.4185281893       21.6437234308
  H        -2.5863682156        7.5461374070       22.0372412204
  O         6.3762543088        7.9054914089       24.7834088478
  H         6.0000603268        8.4755320503       24.0544871906
  H         5.6610925504        7.7689500681       25.4462472098
  O        -0.7846125153        4.4621200393       30.0247715834
  H        -1.4877243660        5.1582724339       30.2782264959
  H         0.0387167480        4.8298303301       30.3841104984
  O         5.0858157196        3.7813776090       19.5858516757
  H         5.3181004153        2.8099903881       19.6319940662
  H         4.1897081177        3.7400511496       20.0625038086
  O        10.1857211011        1.6866937973       30.3516586805
  H        -0.9676283303        2.6444681994       30.2488915712
  H         9.6984381487        1.6456514834       31.1883837737
  O         5.2198716326        2.0572853212       24.3275811457
  H         4.3113215119        1.7579098598       24.1152075460
  H         5.1584054849        2.6962288429       25.0822793397
  O         3.0399565975        2.9704999033       20.8863600654
  H         3.3093192111        2.3523817797       21.6277070761
  H         2.6348467905        2.3114847886       20.2832819094
  O         4.6108480227        6.7165311250       26.6652297030
  H         3.6779665016        6.9238261425       26.8250623140
  H         5.0581229882        6.7506826572       27.5885852453
  O         5.8256958576       10.3496120543       30.3503566264
  H         6.5612960233        9.9470336142       29.8446770876
  H         5.7837143075       11.3021395522       30.1383804897
  O         0.7303474280        8.4847021848       20.9129942509
  H         0.1212515966        8.9622630044       20.3086820551
  H         1.2997233492        7.8963794333       20.3883565063
  O         0.8990119993        7.8331837669       30.4061076798
  H         0.4391138202        8.3281338075       31.1040297102
  H         1.8832268872        8.0659983522       30.4548325905
  O        -1.1560948136       10.3061546995       20.1148935837
  H        -0.7711009469       11.2061955583       20.0773804038
  H        -1.7266976168       10.2808751433       20.9502662879
  O         5.8099402872        6.5953162261       28.9713540049
  H         6.3583218488        5.7871244100       28.8637196035
  H         6.5186599721        7.3067367700       29.1713505361
  O         5.6590035654        4.2192220386       26.0128177398
  H         5.0883873967        4.9935601489       26.2537473602
  H         6.2534748807        4.1014307627       26.8059617179
  O         6.6475605279        6.1256279022       32.1605406966
  H         7.4561637824        6.1016222540       31.5834428528
  H         5.9324449488        6.1028769608       31.5038202432
  O         7.0427018884        5.4343171577       23.9930553237
  H         6.6666482669        4.9881502393       24.8065018096
  H         6.7976825092        6.3993679731       24.1524117404
  O         3.4410000016        0.9375587974       22.5918900479
  H         4.1287110026        0.1865790526       22.7863852299
  H         2.5974653094        0.4412843582       22.5214766603
  O        -2.5629397669        9.4493759184       24.7214826927
  H        -2.7306580568        9.8540014085       23.8564014949
  H        -3.4265379788        9.0433255048       24.9717137453
  N         8.5338418045        2.8375764902       20.4626836473
  H         9.5392272128        2.8484258683       20.6412269190
  H         8.4074921864        3.0696548299       19.4753780030
  H         8.3180253025        1.8347989328       20.4688012633
  N         0.0384633842       10.4579092145       23.1862384452
  H         0.8075822653       10.9235467165       23.6694980632
  H         0.4657152653        9.8160902101       22.5176398792
  H        -0.4127897374        9.8776401863       23.8989402016
  N         3.6116302874        8.1995057885       30.6095404088
  H         4.1476028075        9.0501023735       30.3983480384
  H         4.1018373943        7.4647975014       30.0928480765
  H         3.8261035314        8.0035492040       31.5881764441
  N        -3.9227616257        9.0209465159       32.6036550573
  H         6.9992650360        8.0892556095       32.6344247125
  H        -2.6329132728        8.8270322841       31.8358883904
  H        -3.8627853944        9.3683419511       33.5550021614
  H         6.8076633884        9.6311684019       32.0724290628
  N        -1.4950339767        6.6481494535       24.5847417826
  H        -2.3642223886        6.1046368194       24.6198330654
  H        -0.9112451703        6.2364663359       25.3137744755
  H        -1.7675066918        7.5796900794       24.9171171236
  H        -1.2411059831        6.8140606037       23.0747147289
  N         7.4435253552        5.5853909178       20.5533007728
  H         7.9819622271        4.7311890772       20.7542874310
  H         7.3332635875        6.2027529026       21.4010478122
  H         6.5214099039        5.3658401085       20.1650123902
  H         7.9524131797        6.2196903223       19.9009822321
  N         6.2897131449        3.4983559819       22.3539422987
  H         6.5612063495        4.3741907249       22.9159086292
  H         5.5877195443        3.7369548375       21.6545096563
  H         5.8705391239        2.8193329294       23.0670931831
  H         7.1122881249        3.1257353693       21.8560388900
  P         7.0815958190        9.1558182193       21.8251299516
  O        -3.1506074924       10.1741078700       21.7388376356
  O         5.8614204959        9.3991794242       22.6334170696
  O         7.6784600443        7.7235922048       22.0920979618
  O         6.6196383320        9.0989834685       20.2371176804
  H         6.0487013496        8.3010756760       20.0902779163
  P        -2.4140618426        7.7339232978       29.9915328322
  O        -3.6711017918        8.3481995426       29.4169325171
  O        -2.5864953041        6.2751714335       30.4127211824
  O        -1.8214864755        8.5911787746       31.1724303286
  O        -1.2584027344        7.8092859654       28.8720531984
  H        -0.3562765681        7.8339686677       29.3244699164
     296
 i =        3, E =     -2894.7999140835
 Ca         9.5120448655        1.1586811407        6.3303619933
 Ca         2.5388276633        4.0521679943       13.6094707217
 Ca        -0.2851770967        4.0837430225       18.1289463963
 Ca         0.9491606821        1.1569700204       11.0956848541
  S         2.5524416948        4.0428179578        6.0992756500
  S         9.4404262151        1.1047359065       13.4652635340
  S         0.7896497795        1.3038980035       18.6199597007
  S        -0.3138992319        4.0207734671       11.2291700067
  O         7.6734956479        2.9118733667        6.9968919366
  O         3.8652500614       11.3586761093       14.2326847586
  O         1.2186119538        2.2617724653       17.4928128468
  O         0.1355489298        5.1803970680       10.3871574666
  O         3.1018055353        5.1594342295        6.9889464129
  O         9.8248070534        2.2248510899       14.3874825564
  O         0.9001957603       11.1834373721       17.6554665182
  O        -0.7310617143        2.8565335301       10.3740452413
  O         9.2612810373        3.3618921428        5.2670612866
  O        10.5899103498        0.6702897416       12.6236742660
  O        -0.1706739179        2.0993234947       19.4243915409
  O        -1.4595988273        4.5170145825       12.0414355759
  O         1.4918002896        4.6924637951        5.2866304415
  O         8.3110345086        1.6501435662       12.6535760196
  O         7.6089973035        0.3110747346       19.3782310798
  O         0.7956564311        3.5231622531       12.0906003303
  O        -0.5414817405        2.4635776621        7.6947539403
  O        -1.6078025111        5.1852992887       14.9069625632
  O         9.3278723153        2.8971748448       16.9939227955
  O         5.8670845191       11.3756606612        9.6126983456
  O         3.0626190939       11.3381190416        7.7182199708
  O         1.0896425073        2.8422520235       14.9390694031
  O         1.4313830152        5.2185322692       17.0077948873
  O         7.9787302706        2.4248763434        9.6766052196
  H         0.3469951480        2.7727800328        7.3764120183
  H         2.1692274918       11.1977591002       14.7339065856
  H         8.6637838729        2.2910002004       17.3947555560
  H         1.8881455743        5.4166352388        9.9883483076
  H        -0.9316312268        5.2834631716        7.3824843845
  H         0.2065749603        2.5909062588       14.5926671007
  H         4.9351969837       11.4299525045       17.3218658401
  H         8.8875352594        2.6362649322        9.9861617699
  H        -0.5509384786        2.6174188027        8.6651274175
  H        -1.6558442871        5.6663638036       15.7755314073
  H         9.5325927570        2.5061805159       16.1171759167
  H         5.9243884359       11.1050873170        8.6663904248
  H         3.0700770269       11.1842489708        8.6892578500
  H         1.1216862943        2.4736902249       15.8586136758
  H         1.2925263288        5.6682305687       16.1490428366
  H         7.9406266223        2.6668598768        8.7215900744
 Ca         3.8416157564        1.1796608061        6.3462339416
 Ca         8.2284288267        4.0132272638       13.6375786368
 Ca         5.3070813696        4.1038952633       17.3465111450
 Ca         6.6331796477        1.1597796114       11.1090721122
  S         8.2120983117        4.0186394112        6.0895730338
  S         3.7620327497        1.1515365835       13.4194079442
  S         6.4388167493        0.8365718116       18.6184067249
  S         5.3871252964        4.0350079766       11.2682176912
  O         1.9965444771        2.9269987067        6.9864636291
  O         3.3288090797        0.0343901848       14.3120539872
  O         6.8260140574        2.0631622102       17.8171011443
  O         5.8518958900        5.1802506565       10.4157547224
  O         8.7819242276        5.1425727850        6.9566937712
  O         4.2258256877        2.3346922447       14.2315568886
  O         0.1820093811        0.0616119541       18.0381393102
  O         4.9225260386        2.8820359445       10.4257274532
  O         3.6211751912        3.3925247618        5.2979502927
  O         4.8687498435        0.6162239250       12.5725586051
  O         5.3179995260        1.1717659939       19.5142973875
  O         4.2757988427        4.5773050621       12.1023727884
  O         7.1295412567        4.6620661826        5.3017425712
  O         2.6400996870        1.6768539471       12.5936108516
  O         1.9940908020        0.8822450573       19.3676566462
  O         6.4963824146        3.5015385855       12.1108518595
  O         5.1281449348        2.4804669593        7.7458809637
  O         4.1513299999        5.1085974311       15.1505531175
  O         3.8274207184        2.3644340801       16.9067664371
  O         0.1745814749       11.4011251939        9.6244556935
  O        -2.6197716360       11.3388522895        7.7079210511
  O         6.6003715706        3.0168541477       15.2132369329
  O         6.9310500064        5.7465962396       16.9512476589
  O         2.3026776740        2.4093657731        9.6591184815
  H         6.0174479344        2.7860014657        7.4272162423
  H        -3.6077770341       11.2528764988       14.7597186489
  H         2.8981747525        2.2960812553       17.2544897869
  H         7.5712231952        5.3976410047        9.9574405279
  H         4.7488037592        5.2858464243        7.4226962767
  H         5.8184566860        2.6697012299       14.7081343192
  H        -0.7870543999       10.8534957723       17.3340086224
  H         3.1948659566        2.6538735393        9.9894618427
  H         5.1173015270        2.6335263786        8.7159094921
  H         3.8837618885        5.9325727644       15.6041657601
  H         3.7650610825        2.2103351073       15.9416029906
  H         0.2331959581       11.1237587528        8.6805061291
  H        -2.6201607686       11.1865276383        8.6790619494
  H         6.8589024864        2.2819000454       15.8098539797
  H         6.9379553644        5.8791982999       15.9793161668
  H         2.2607659557        2.6788551101        8.7121595192
 Ca         1.2613821150        6.9094834628        6.3314987047
 Ca         5.6498200053        9.7259031751       13.5851029023
 Ca         2.7926265655        9.7632290192       18.3292669338
 Ca         4.1290272002        6.9137980555       11.0910970395
  S         5.6481374963        9.7556384551        6.0730817112
  S         1.3156283240        6.9502354701       13.4085036443
  S         4.1888518214        7.1701819293       18.6454856686
  S         2.8069902193        9.7720123789       11.2294916526
  O        -0.5826937963        8.6644361884        6.9731802866
  O         0.9900908511        5.8654014469       14.3916262943
  O         4.6234571831        8.3186061239       17.7120812372
  O         3.2678860066       10.9284557326       10.3898198037
  O         6.2105905436       10.8720163298        6.9544317092
  O         1.7853302427        8.1942229011       14.1028118685
  O        -1.8047003539        5.9550512355       17.3690529874
  O         2.3591179620        8.6154883537       10.3819059804
  O         1.0382053409        9.1289908352        5.2795810418
  O         2.3956435274        6.3782598905       12.5501758795
  O         2.9526151698        7.6598457708       19.3058026249
  O         1.6802042563       10.3036187407       12.0484760347
  O         4.5773267823       10.4050049132        5.2743253108
  O         0.1157549351        7.3552471877       12.6271956661
  O        -0.5543824552        6.0170386240       19.3959030559
  O         3.9179606593        9.2399534058       12.0711108268
  O         2.5632417321        8.2039372291        7.7082867572
  O         1.2218828541       11.1775778313       14.9995158901
  O         1.7622259056        8.3312205258       16.7613473372
  O         2.7882271939        5.6412236403        9.6649831774
  O        -0.0499914782        5.6049302866        7.7062744092
  O         4.3830243305        8.3239317790       15.0186138344
  O         4.0327963477       11.2401536374       16.9282484106
  O        -0.2523167712        8.1655191851        9.6307236647
  H         3.4518048145        8.5088873259        7.3860427871
  H        -0.7264966191        5.4128050528       14.5430046143
  H         0.8842352955        8.0702312776       17.1743739725
  H         4.9731448392       11.1213325590        9.9343414938
  H         2.1748973610       11.0275807633        7.3999055742
  H         3.4541528718        8.3329967953       14.6925668825
  H         2.2023866182        5.6672426182       17.4345257237
  H         0.6474916512        8.4063481559        9.9473817194
  H         2.5540396801        8.3677684934        8.6773904197
  H         1.1957873821       11.1915670839       15.9924855887
  H         1.6012017169        8.3355635711       15.7974441536
  H         2.8235003236        5.3926658021        8.7114610667
  H        -0.0404621718        5.4378811202        8.6749179112
  H         4.3380925167        8.3414648603       16.0125236138
  H         4.1516460305       11.2808908256       15.9580241771
  H        -0.3061878535        8.4282105321        8.6820153929
 Ca         6.9297726219        6.8879165656        6.3415810137
 Ca        -0.0424017508        9.8057010379       13.5615842382
 Ca        -3.0863205294        9.9461378379       18.9316754745
 Ca        -1.5697464336        6.9028525644       11.0755495984
  S        -0.0251634354        9.7800442891        6.0867581858
  S         6.9995277538        6.9166814829       13.4320872934
  S        -1.3158794333        6.9114658982       18.4808208865
  S        -2.8820412539        9.7630256742       11.2336182469
  O         5.0991432542        8.6444454543        6.9711878655
  O         6.5618726719        5.7389894560       14.2697110567
  O        -0.4870483565        8.0078542173       17.9253124994
  O        -2.4350489503       10.9197494348       10.3888191813
  O         0.5324788085       10.8921394671        6.9785927859
  O         7.4433636715        8.0401329831       14.3105812924
  O         3.8829918070        5.9582341923       17.7959792355
  O        -3.3219567706        8.6050184203       10.3842501382
  O         6.7031617514        9.0987160770        5.2597331247
  O         8.1031776689        6.3902975743       12.5858391256
  O        -2.5175453026        7.5191525611       19.1168731261
  O        -4.0061685019       10.2841996702       12.0655498982
  O        -1.0866589987       10.4378150257        5.2827000010
  O         5.8690069107        7.4380655457       12.6084497763
  O         5.2647677641        6.8658337861       19.5931962589
  O        -1.7678426977        9.2397737913       12.0761596822
  O        -3.1218237519        8.2062818504        7.6967322904
  O        -4.5077641756       11.0483728068       15.0924068476
  O         7.0758150824        9.0000450134       16.9206256626
  O         8.4484365574        5.6727814040        9.6112106573
  O         5.6327188595        5.6025973166        7.7444588687
  O        -1.2453604038        8.5282185712       15.1017140934
  O        -1.6670248292       10.5846138086       16.9591758244
  O         5.4295283165        8.1671000903        9.6289161576
  H        -2.2359240688        8.5182310297        7.3748490497
  H         4.9655821336        5.3722714780       14.6434060593
  H         6.2137858388        8.6580150141       17.2886782540
  H        -0.7169653953       11.1457306525        9.9515388710
  H        -3.4999123963       11.0180595739        7.3806434031
  H        -2.1405827067        8.3158997611       14.7597881926
  H         7.8872716682        5.8401486016       17.2201075867
  H         6.3319631343        8.4007336274        9.9454112086
  H        -3.1257635801        8.3530711603        8.6679405366
  H        -4.3786890000       10.5288910685       15.9274197719
  H         7.3040102468        8.3665919304       16.2134940094
  H         8.4975595006        5.3836457680        8.6705859367
  H         5.6493617275        5.4332599988        8.7113325533
  H        -1.3947814065        9.0005745340       15.9588832296
  H        -1.8014121362       11.1848872544       16.2013479561
  H         5.3801633498        8.4197067116        8.6771410904
  O        -1.5443545854        5.3377079954       27.4910444432
  H        -1.1008718560        4.8862170689       28.2541078723
  H        -1.5566933903        6.2640617560       27.8365062235
  O         7.3558395581        4.3373751871       28.1030930087
  H         8.2454691385        4.7554213653       27.8804287915
  H         7.5672621171        3.6944511820       28.7995877129
  O        -1.3907387877        6.9398612476       22.0447270522
  H        -0.6210305192        7.4186627328       21.6665465392
  H        -2.5843872561        7.5471158009       22.0328085925
  O         6.3755813493        7.8987659448       24.7902373625
  H         5.9931324717        8.4643779842       24.0738067679
  H         5.6703793442        7.7496168071       25.4648145328
  O        -0.7815226292        4.4687039825       30.0118332100
  H        -1.4854265735        5.1673412944       30.2675839058
  H         0.0405837905        4.8279248703       30.3835343759
  O         5.0841460137        3.7926668384       19.5936716532
  H         5.3044955351        2.8217039365       19.6485975467
  H         4.1871234768        3.7006303210       20.0819928987
  O        10.1802758258        1.6900722732       30.3421609097
  H        -0.9742033664        2.6503183860       30.2538413093
  H         9.7055151494        1.6438697023       31.1856705125
  O         5.2245184053        2.0662540736       24.3261989326
  H         4.3169947285        1.7672034125       24.1186866613
  H         5.1800433172        2.7091537568       25.0800253245
  O         3.0257189907        2.9861321823       20.8994046139
  H         3.3079196989        2.3583905199       21.6322255814
  H         2.6443868779        2.3222428504       20.2874527015
  O         4.6156820555        6.7191632346       26.6629880835
  H         3.6854557844        6.9296471678       26.8373016392
  H         5.0755682598        6.7431435896       27.5894404809
  O         5.8203131081       10.3459530153       30.3472546214
  H         6.5660823723        9.9394025126       29.8578905998
  H         5.7893021640       11.2992514317       30.1357291954
  O         0.7544430829        8.5074261031       20.9080091636
  H         0.1164520139        8.9631382541       20.3133305016
  H         1.2850594279        7.8792966644       20.3828421054
  O         0.8963537737        7.8221462825       30.4048558463
  H         0.4354362427        8.3233896574       31.0979067209
  H         1.8801211118        8.0610570976       30.4497312865
  O        -1.1354990131       10.2986890844       20.1157236754
  H        -0.7669988824       11.2080831510       20.0986757778
  H        -1.7107313747       10.2773623905       20.9514709477
  O         5.8059264201        6.5910326454       28.9590077767
  H         6.3617757817        5.7865419712       28.8617366970
  H         6.5090697920        7.3112130813       29.1647818938
  O         5.6674768309        4.2206260164       26.0048409747
  H         5.0959793566        4.9938907292       26.2537364536
  H         6.2615301053        4.1067403528       26.8017881156
  O         6.6425522809        6.1169803392       32.1577934829
  H         7.4544555754        6.1056467598       31.5839356991
  H         5.9331284659        6.1155994312       31.4947843009
  O         7.0363384138        5.4312298714       23.9952661594
  H         6.6541599275        4.9834769534       24.8087815695
  H         6.7796557755        6.3949736085       24.1481178184
  O         3.4383124760        0.9381762185       22.5867599188
  H         4.1357910556        0.1912543700       22.7680072950
  H         2.5950104867        0.4502856479       22.5192965548
  O        -2.5552518077        9.4545533470       24.7179721729
  H        -2.7483755590        9.8549165759       23.8561173544
  H        -3.4176971544        9.0548939891       24.9797146817
  N         8.5400451648        2.8438755812       20.4664816620
  H         9.5434625286        2.8605061664       20.6555419119
  H         8.4217245860        3.0603954273       19.4738124718
  H         8.3210775462        1.8417223819       20.4825101201
  N         0.0406090415       10.4615677899       23.1962399932
  H         0.8081885757       10.9264131557       23.6829295757
  H         0.4677681614        9.8178650459       22.5281536606
  H        -0.4252523896        9.8853894697       23.9034412606
  N         3.6139572164        8.1970388564       30.6109323082
  H         4.1438506411        9.0522957681       30.4014227498
  H         4.1091414001        7.4640798263       30.0960689018
  H         3.8208314825        8.0043743988       31.5921973371
  N        -3.9198617034        9.0236336049       32.6007147197
  H         7.0078867312        8.0892145565       32.6286700430
  H        -2.6409417913        8.8314606264       31.8381629066
  H        -3.8669361859        9.3729109716       33.5520653651
  H         6.8112999008        9.6315761816       32.0650164659
  N        -1.4931968954        6.6471927041       24.5904276720
  H        -2.3613031946        6.1024040514       24.6152676316
  H        -0.9008190049        6.2325558128       25.3121159697
  H        -1.7567885717        7.5834378184       24.9139087070
  H        -1.2513274906        6.7958853085       23.1054742071
  N         7.4467824167        5.5898511347       20.5648233396
  H         7.9782564040        4.7314140749       20.7705368254
  H         7.3358695560        6.2074714334       21.4139659202
  H         6.5239515228        5.3608348129       20.1824304682
  H         7.9596722583        6.2124455902       19.9076045936
  N         6.2821783344        3.5004613818       22.3780461950
  H         6.5605980385        4.3827029375       22.9440331404
  H         5.5816992168        3.7331710972       21.6757204908
  H         5.8619127649        2.8170441322       23.0997071177
  H         7.1011141187        3.1225179961       21.8819931453
  P         7.0711222695        9.1620322473       21.8230908447
  O        -3.1519828873       10.1734020528       21.7021353769
  O         5.8625825792        9.4292682344       22.6344257552
  O         7.6729906532        7.7334520930       22.0949706923
  O         6.5872776744        9.0881723985       20.2270106883
  H         6.0289907067        8.2896307422       20.0793540497
  P        -2.4216451352        7.7344781434       29.9851348190
  O        -3.6803420517        8.3437781691       29.4026777257
  O        -2.5892087029        6.2724132058       30.4034339840
  O        -1.8276778436        8.5980510155       31.1649332308
  O        -1.2566886982        7.8086405360       28.8666265958
  H        -0.3551470937        7.8201134598       29.3260259396
     296
 i =        4, E =     -2894.8058832330
 Ca         9.5132831026        1.1604903839        6.3344863360
 Ca         2.5381905995        4.0534381264       13.6065205595
 Ca        -0.2819793770        4.0878028703       18.1158082546
 Ca         0.9481393938        1.1569579901       11.0906362603
  S         2.5532084791        4.0435451824        6.0912306444
  S         9.4405137635        1.1012262567       13.4661807506
  S         0.7915602620        1.3039963005       18.6155878876
  S        -0.3147785794        4.0210000618       11.2281811707
  O         7.6825443236        2.9065089502        6.9909516033
  O         3.8599763715       11.3550219006       14.2345712329
  O         1.2115213775        2.2730270909       17.4882552491
  O         0.1367002867        5.1818996691       10.3843588444
  O         3.0952364976        5.1670474892        6.9825714844
  O         9.8261792781        2.2216572670       14.3918328669
  O         0.9072622939       11.1788014436       17.6566250593
  O        -0.7359173056        2.8551445928       10.3719296204
  O         9.2660444465        3.3678081499        5.2586609917
  O        10.5909869122        0.6623146782       12.6252974358
  O        -0.1735365938        2.0920201899       19.4248099975
  O        -1.4564339648        4.5209543226       12.0466467341
  O         1.4866779812        4.6880195686        5.2789622589
  O         8.3157501714        1.6527628591       12.6478745125
  O         7.6153218199        0.3318261459       19.3761526413
  O         0.7947079436        3.5187369773       12.0895221822
  O        -0.5395379669        2.4678535597        7.6878034217
  O        -1.6127371530        5.1967776423       14.9097518273
  O         9.3297653716        2.9025725857       17.0029213544
  O         5.8688979063       11.3678935536        9.6053283303
  O         3.0609325033       11.3327272950        7.7051358689
  O         1.0951035015        2.8284398296       14.9388016605
  O         1.4325666666        5.2126496289       17.0127065867
  O         7.9763660855        2.4317494867        9.6699714377
  H         0.3531154733        2.7692319596        7.3739987757
  H         2.1669913438       11.2009230675       14.7437395998
  H         8.6646380816        2.2992699317       17.4009404317
  H         1.8898420684        5.4123483484        9.9858337206
  H        -0.9380360547        5.2883219685        7.3752015767
  H         0.2103097440        2.5859225314       14.5918183035
  H         4.9284939756       11.4258472367       17.3342739847
  H         8.8844668999        2.6384881307        9.9844530976
  H        -0.5527104139        2.6165046584        8.6583054515
  H        -1.6513483618        5.6637802020       15.7870418591
  H         9.5457775102        2.5034093299       16.1334138712
  H         5.9194485279       11.0981555802        8.6589233655
  H         3.0738645534       11.1867845062        8.6771375062
  H         1.1157473720        2.4709876785       15.8628627976
  H         1.2770541213        5.6776835691       16.1663846608
  H         7.9455019059        2.6740327200        8.7155866128
 Ca         3.8420136188        1.1796280359        6.3512086797
 Ca         8.2281084239        4.0093150221       13.6420128265
 Ca         5.3084936690        4.1018033098       17.3388591765
 Ca         6.6324898149        1.1589660685       11.1020244442
  S         8.2110338193        4.0202101395        6.0805665361
  S         3.7623436933        1.1536441700       13.4172132090
  S         6.4388957618        0.8446701401       18.6136579315
  S         5.3885283383        4.0350184152       11.2634942928
  O         2.0024676881        2.9260023040        6.9848800094
  O         3.3257202225        0.0366606282       14.3125032851
  O         6.8201812290        2.0695450685       17.7983390399
  O         5.8553046886        5.1820141670       10.4094503534
  O         8.7747223864        5.1506016851        6.9499817876
  O         4.2336116935        2.3353382469       14.2326224372
  O         0.1942050155        0.0592416010       18.0273068167
  O         4.9221270206        2.8798165808       10.4195291205
  O         3.6275485053        3.3932759136        5.2943840068
  O         4.8659791016        0.6117126470       12.5664310274
  O         5.3112953877        1.1733318114       19.5030942980
  O         4.2780330441        4.5806040002       12.0993825183
  O         7.1205322971        4.6612463689        5.2987863015
  O         2.6437872021        1.6863298907       12.5883184668
  O         2.0053087444        0.8889995068       19.3545183321
  O         6.4954523102        3.4983866382       12.1099889099
  O         5.1304379873        2.4860184640        7.7347698520
  O         4.1516451854        5.1079541440       15.1590137523
  O         3.8269504151        2.3510844128       16.9162934246
  O         0.1753225562       11.3956788116        9.6138401792
  O        -2.6227847622       11.3330528987        7.6975427361
  O         6.6008430058        3.0159798634       15.2240306931
  O         6.9354100057        5.7566142208       16.9553293971
  O         2.3009382122        2.4161182685        9.6524776797
  H         6.0244835726        2.7823511323        7.4230440973
  H        -3.6074179323       11.2554867193       14.7634766836
  H         2.8945787231        2.3005206320       17.2588051837
  H         7.5744461496        5.3933207990        9.9535284370
  H         4.7414048495        5.2901255936        7.4181090829
  H         5.8300193999        2.6557777770       14.7107325416
  H        -0.7891519707       10.8355536039       17.3438432298
  H         3.1920906587        2.6569723011        9.9878371396
  H         5.1144801410        2.6308696685        8.7063985636
  H         3.8839612858        5.9246969707       15.6231265523
  H         3.7633050856        2.2122110827       15.9477694103
  H         0.2267958945       11.1166820407        8.6706458782
  H        -2.6176938082       11.1878419658        8.6690649271
  H         6.8563200871        2.2902892849       15.8293721860
  H         6.9399333151        5.8771173671       15.9804959642
  H         2.2658750539        2.6867560852        8.7065777142
 Ca         1.2626929032        6.9096772243        6.3350938152
 Ca         5.6492377288        9.7235011538       13.5869498097
 Ca         2.7900158549        9.7568951399       18.3319049471
 Ca         4.1277398832        6.9142209519       11.0858555946
  S         5.6486335409        9.7562282635        6.0621600576
  S         1.3118881611        6.9530154422       13.4086032448
  S         4.1850758783        7.1524974166       18.6364231499
  S         2.8076433131        9.7713597762       11.2283243578
  O        -0.5742461877        8.6607690165        6.9672265252
  O         0.9842635396        5.8684844987       14.3944577095
  O         4.6253523736        8.3181557427       17.7201504521
  O         3.2707534342       10.9292875362       10.3870676749
  O         6.2036058186       10.8803544699        6.9449765520
  O         1.7874238053        8.1971473195       14.1029326961
  O        -1.7997174486        5.9377351871       17.3802693675
  O         2.3571963058        8.6126139451       10.3798472384
  O         1.0450784219        9.1332775557        5.2716726836
  O         2.3896033737        6.3715281973       12.5496041276
  O         2.9494786605        7.6353245992       19.3055556621
  O         1.6818770475       10.3056154965       12.0505333499
  O         4.5718468503       10.4027154691        5.2661397478
  O         0.1145331682        7.3658392180       12.6235920071
  O        -0.5401128035        6.0316263039       19.4016211170
  O         3.9177183174        9.2359769606       12.0720594108
  O         2.5654404364        8.2082924829        7.6996019231
  O         1.2206160566       11.1861054722       15.0096403213
  O         1.7698552972        8.3257847650       16.7683371557
  O         2.7888559925        5.6339600263        9.6576734255
  O        -0.0517523966        5.5996520543        7.6961713795
  O         4.3823586738        8.3145175683       15.0275165470
  O         4.0250230591       11.2411185033       16.9391389085
  O        -0.2554137406        8.1733122780        9.6201348064
  H         3.4582122260        8.5051278614        7.3818674054
  H        -0.7302516244        5.4191523420       14.5453647621
  H         0.8897840956        8.0721727090       17.1851478190
  H         4.9754060532       11.1170668705        9.9295138437
  H         2.1680898214       11.0321379782        7.3921300712
  H         3.4532051901        8.3278582992       14.7055790494
  H         2.2068921846        5.6584457732       17.4346570084
  H         0.6432195464        8.4095198118        9.9424381740
  H         2.5515853803        8.3659754720        8.6688994012
  H         1.1966512542       11.2004796658       16.0026784655
  H         1.6025865326        8.3426263253       15.8062777353
  H         2.8180468181        5.3850959297        8.7050655791
  H        -0.0369496745        5.4388338208        8.6650335453
  H         4.3385462178        8.3309604486       16.0210853061
  H         4.1461462502       11.2758406766       15.9695762874
  H        -0.3007763481        8.4363208848        8.6716634550
 Ca         6.9294912044        6.8873681153        6.3495017055
 Ca        -0.0434216647        9.8100891284       13.5634094935
 Ca        -3.0890440581        9.9418814981       18.9249540666
 Ca        -1.5710978887        6.9022242215       11.0691578405
  S        -0.0244451519        9.7812290478        6.0762210919
  S         6.9987267611        6.9158461725       13.4305247045
  S        -1.3124941586        6.9158876133       18.4816375908
  S        -2.8833631344        9.7623302339       11.2332304645
  O         5.1082531039        8.6401356906        6.9658890620
  O         6.5575450057        5.7380208659       14.2709015119
  O        -0.4929130447        8.0130309494       17.9082590769
  O        -2.4342347906       10.9213674206       10.3881130957
  O         0.5249074128       10.8990273289        6.9720674418
  O         7.4460165945        8.0395278930       14.3105407322
  O         3.8745980886        5.9573944293       17.7547628680
  O        -3.3243398354        8.6016954640       10.3828339102
  O         6.7088592336        9.0998777624        5.2519588007
  O         8.0975518878        6.3840804555       12.5786336344
  O        -2.5186296264        7.5225775683       19.1094618966
  O        -4.0072253787       10.2853817486       12.0673328265
  O        -1.0923439013       10.4349879124        5.2742297043
  O         5.8667897093        7.4420334882       12.6079876431
  O         5.2635304282        6.8253169665       19.5732167493
  O        -1.7699159034        9.2370790984       12.0788939122
  O        -3.1202185013        8.2112230012        7.6896307835
  O        -4.5065827321       11.0568606840       15.1025521558
  O         7.0798363123        9.0047366394       16.9366771533
  O         8.4506666450        5.6659581173        9.6032699593
  O         5.6299831278        5.5988492514        7.7340474134
  O        -1.2436841831        8.5172810394       15.1109162173
  O        -1.6738997464       10.5797615164       16.9798735692
  O         5.4255046801        8.1755871740        9.6196139139
  H        -2.2300559863        8.5145563057        7.3715086423
  H         4.9560190177        5.3844615980       14.6424219284
  H         6.2139607043        8.6746044296       17.3016230075
  H        -0.7145034441       11.1418127926        9.9453703292
  H        -3.5074118370       11.0218679783        7.3733482268
  H        -2.1394901292        8.3150821046       14.7631707091
  H         7.8932589529        5.8354490807       17.2242328383
  H         6.3273742557        8.4031408991        9.9408687287
  H        -3.1276622559        8.3513302409        8.6611252276
  H        -4.3755297303       10.5335086109       15.9334698613
  H         7.3144748106        8.3595346433       16.2441653049
  H         8.4929397958        5.3767975648        8.6628384591
  H         5.6524909516        5.4345903494        8.7021624097
  H        -1.3931782396        8.9936127799       15.9640026869
  H        -1.8028861727       11.1894539852       16.2290980531
  H         5.3849002101        8.4269368864        8.6676304022
  O        -1.5502588669        5.3443459825       27.5009518045
  H        -1.0929018509        4.8899312418       28.2526568390
  H        -1.5525455073        6.2676499487       27.8468842066
  O         7.3587983327        4.3350671883       28.0986384553
  H         8.2465501886        4.7467674021       27.8706106870
  H         7.5655882440        3.6994638485       28.8008498249
  O        -1.4073740941        6.9413995335       22.0690554333
  H        -0.6349190467        7.4158844740       21.6975029351
  H        -2.5832313963        7.5471812331       22.0341517226
  O         6.3754784507        7.8878193837       24.8003866450
  H         5.9803654104        8.4543039008       24.0991756413
  H         5.6798235401        7.7259669064       25.4827606514
  O        -0.7790012340        4.4771050863       30.0031414357
  H        -1.4834946592        5.1793016928       30.2535003440
  H         0.0434903627        4.8266766888       30.3798047186
  O         5.0672088488        3.7854289948       19.6209528958
  H         5.3219990542        2.8235030603       19.6506619259
  H         4.1637303324        3.6863202896       20.1096144509
  O        10.1743555247        1.6988167157       30.3361433192
  H        -0.9810681747        2.6594059729       30.2524112857
  H         9.7117222992        1.6377502630       31.1842543305
  O         5.2332336977        2.0651883204       24.3373629533
  H         4.3227664235        1.7840735381       24.1262111535
  H         5.1969501310        2.7249325655       25.0749873844
  O         3.0182231369        2.9983557890       20.9075284615
  H         3.3031962679        2.3675441579       21.6373951047
  H         2.6488634946        2.3355480896       20.2883414677
  O         4.6253772787        6.7143750005       26.6646318814
  H         3.7008513179        6.9372816541       26.8501508805
  H         5.0941669847        6.7373974316       27.5920432328
  O         5.8183717891       10.3411071719       30.3467422740
  H         6.5690596188        9.9302690171       29.8691565418
  H         5.7966895512       11.2932026770       30.1311582769
  O         0.7790415189        8.5264970626       20.8990240024
  H         0.1165690182        8.9679789360       20.3209836364
  H         1.2675759886        7.8613411538       20.3767259551
  O         0.8930310328        7.8073606017       30.4037239793
  H         0.4315165905        8.3172522074       31.0895977989
  H         1.8753738489        8.0522957517       30.4441322193
  O        -1.1157349531       10.2979101391       20.1239689559
  H        -0.7496676620       11.2090282582       20.1118728358
  H        -1.6989150902       10.2616250835       20.9530740903
  O         5.8039511946        6.5873722498       28.9506063262
  H         6.3651669424        5.7872647552       28.8563722158
  H         6.5038975738        7.3148913923       29.1482731186
  O         5.6765723662        4.2221020717       26.0020663238
  H         5.1041301983        4.9954368801       26.2460490602
  H         6.2759551277        4.1106749563       26.7952995018
  O         6.6386405178        6.1199645795       32.1505829740
  H         7.4518634455        6.1026026949       31.5836954344
  H         5.9347057964        6.1300964376       31.4850805409
  O         7.0356859208        5.4305641884       24.0041961704
  H         6.6375004880        4.9824385810       24.8103452852
  H         6.7577837119        6.3894256598       24.1444307942
  O         3.4426942652        0.9431726013       22.5853976038
  H         4.1360417064        0.1910430897       22.7458713972
  H         2.6014551903        0.4591455696       22.5141276088
  O        -2.5518167186        9.4628033309       24.7117939509
  H        -2.7634710835        9.8590720256       23.8518721101
  H        -3.4063221975        9.0644722557       24.9944897946
  N         8.5462361904        2.8540120280       20.4732121356
  H         9.5469957753        2.8735627252       20.6705536863
  H         8.4422991649        3.0521737540       19.4751095367
  H         8.3275192544        1.8520190285       20.5024206331
  N         0.0415205222       10.4690584371       23.2075902043
  H         0.8065111425       10.9283834866       23.7017213807
  H         0.4688312692        9.8230011955       22.5413293622
  H        -0.4393954483        9.8993253851       23.9091129544
  N         3.6136664850        8.1947132943       30.6127189954
  H         4.1393999104        9.0524336283       30.4051410500
  H         4.1172449406        7.4650608948       30.1018800187
  H         3.8140672118        8.0048411166       31.5953746522
  N        -3.9180845838        9.0261727631       32.5972832395
  H         7.0161054119        8.0891433017       32.6227471840
  H        -2.6530722689        8.8382714023       31.8378837937
  H        -3.8693456291        9.3778444672       33.5471817393
  H         6.8152428232        9.6306270402       32.0548766001
  N        -1.4897192124        6.6430522742       24.5884712912
  H        -2.3603253778        6.1039697432       24.6177950920
  H        -0.8908737430        6.2280352776       25.3038939170
  H        -1.7466550623        7.5823844594       24.9079977793
  H        -1.2610151264        6.7844459130       23.1446536656
  N         7.4515810038        5.5895851505       20.5824889779
  H         7.9784955130        4.7284365594       20.7908860167
  H         7.3394990780        6.2146292738       21.4227747205
  H         6.5278003470        5.3601318085       20.2018208781
  H         7.9627548874        6.2030825700       19.9191680311
  N         6.2743968435        3.5019895384       22.4034662967
  H         6.5567349369        4.3916925511       22.9699055841
  H         5.5724790239        3.7337507190       21.7017193746
  H         5.8507730397        2.8185146729       23.1340681981
  H         7.0917029367        3.1181566984       21.9125027539
  P         7.0603656684        9.1673324883       21.8086061980
  O        -3.1635769028       10.1792764889       21.6582265635
  O         5.8765483420        9.4600252438       22.6415935926
  O         7.6665460870        7.7463620319       22.1014290844
  O         6.5524276401        9.0779462578       20.2085663889
  H         6.0057870612        8.2732978631       20.0650553213
  P        -2.4268166094        7.7338980629       29.9762159549
  O        -3.6890880936        8.3378419453       29.3925961305
  O        -2.5952655746        6.2710397307       30.3950439127
  O        -1.8393694075        8.6046223750       31.1553059837
  O        -1.2554111268        7.8049566694       28.8583883639
  H        -0.3549680192        7.8056690844       29.3218153191
