      96
 i =        1, E =     -1774.5843177657
 Ca         2.2318474828       -0.0000088787        2.2474395364
 Ca         4.1528788070       -0.0000310032        5.6607444385
 Ca         5.4239849749        3.5284331509        2.2473559520
 Ca         0.9607164597        3.5284442899        5.6607343890
  S         1.0682244421       -0.0000324197        5.7484582281
  S         5.3160989418        0.0000405004        2.1600318159
  S         4.2603932744        3.5284628766        5.7484980897
  S         2.1239280961        3.5283882768        2.1600331901
  O         0.1714756322        5.8646781726        5.7660486193
  O         6.2125819475        5.8645616540        2.1428161439
  O         6.2125553978        1.1924624239        2.1427834807
  O         0.1713558673        1.1920582575        5.7662531451
  O         3.3636041713        2.3362979099        5.7662022248
  O         3.0203926479        2.3359626132        2.1428867337
  O         3.0203940398        4.7208033349        2.1426755511
  O         3.3635475086        4.7206093872        5.7662055220
  O         2.0175908871        0.0001086548        6.8650610401
  O         4.3663575492       -0.0000685171        1.0438434909
  O         1.8973033276        0.0001287314        4.4955701685
  O         4.4865663632        0.0000080602        3.4124942343
  O         5.2097851885        3.5285362506        6.8651037849
  O         1.1742975606        3.5285893646        1.0437555668
  O         5.0892344484        3.5283118630        4.4954496864
  O         1.2945376818        3.5284202351        3.4125941533
 Ca         2.2319932327        7.0569247383        2.2473897006
 Ca         4.1528485429        7.0568847362        5.6606552113
 Ca         5.4240834704       10.5852523235        2.2474360813
 Ca         0.9608246742       10.5853938010        5.6607571501
  S         1.0682750480        7.0568666257        5.7485177066
  S         5.3159954027        7.0568893967        2.1599631656
  S         4.2603904408       10.5852774325        5.7485683605
  S         2.1239267014       10.5852404472        2.1599737796
  O         0.1715020399       12.9214663043        5.7660875379
  O         6.2124686520       12.9213018454        2.1428002023
  O         6.2123948539        8.2493550932        2.1429416357
  O         0.1714089331        8.2489914321        5.7660852701
  O         3.3635784572        9.3931138843        5.7660744258
  O         3.0205058158        9.3928863864        2.1428272353
  O         3.0204170648       11.7776539569        2.1429707651
  O         3.3635720692       11.7774380970        5.7660752080
  O         2.0175597040        7.0568854863        6.8652074946
  O         4.3662704455        7.0570143240        1.0437721010
  O         1.8972738657        7.0568799913        4.4955736627
  O         4.4867184381        7.0564744477        3.4125963521
  O         5.2097258952       10.5852191684        6.8652085028
  O         1.1742280991       10.5852959010        1.0437456266
  O         5.0892070665       10.5854251129        4.4955084553
  O         1.2944326338       10.5853656146        3.4124495037
 Ca         8.6161275616        0.0000260205        2.2474649665
 Ca        10.5370219287       -0.0000267223        5.6607172710
 Ca        11.8082774208        3.5283773144        2.2474636462
 Ca         7.3449680913        3.5284735425        5.6606670468
  S         7.4525391458       -0.0000178722        5.7485366917
  S        11.7002814301        0.0000162874        2.1600046920
  S        10.6446447378        3.5284162387        5.7484846479
  S         8.5082889276        3.5284877933        2.1600337316
  O         6.5557269055        5.8646899408        5.7661154155
  O        12.5967347353        5.8643578566        2.1428166413
  O        12.5967184815        1.1924580140        2.1428231617
  O         6.5557456809        1.1921587432        5.7660820004
  O         9.7476961410        2.3363380602        5.7662230577
  O         9.4045688810        2.3359033682        2.1429870495
  O         9.4046162492        4.7209681969        2.1425111948
  O         9.7478001340        4.7205529929        5.7661545858
  O         8.4017563118        0.0000586754        6.8652738113
  O        10.7504671664       -0.0000236087        1.0438721673
  O         8.2813774669        0.0000168930        4.4955063070
  O        10.8708491133       -0.0000302117        3.4125177606
  O        11.5939071991        3.5285315507        6.8651711594
  O         7.5583530705        3.5283619282        1.0439802540
  O        11.4735250657        3.5284181070        4.4954817689
  O         7.6787047706        3.5284327627        3.4124396385
 Ca         8.6160436603        7.0569169471        2.2474440514
 Ca        10.5370759436        7.0568745141        5.6606556484
 Ca        11.8081641782       10.5853269256        2.2474063555
 Ca         7.3449788966       10.5853473813        5.6606998332
  S         7.4525112108        7.0568810323        5.7484716902
  S        11.7003258119        7.0568279760        2.1599645951
  S        10.6445544806       10.5852886204        5.7485551187
  S         8.5081930903       10.5853245774        2.1599739119
  O         6.5556961303       12.9215773428        5.7660778791
  O        12.5967136573       12.9213201743        2.1427726246
  O        12.5967425126        8.2492758324        2.1429799209
  O         6.5555296323        8.2489100786        5.7661952414
  O         9.7478450308        9.3930549841        5.7661271829
  O         9.4046416286        9.3928849745        2.1429062434
  O         9.4045660531       11.7778071123        2.1429344713
  O         9.7477557789       11.7774623747        5.7660026163
  O         8.4017945951        7.0569271628        6.8651577304
  O        10.7504237739        7.0569156057        1.0439106037
  O         8.2814586595        7.0568737931        4.4955007317
  O        10.8708229274        7.0569786147        3.4124404999
  O        11.5938929576       10.5853111882        6.8651884553
  O         7.5584428976       10.5852097615        1.0437878108
  O        11.4735042443       10.5853427533        4.4955851909
  O         7.6786660313       10.5853485484        3.4124290239
      96
 i =        2, E =     -1774.5960087734
 Ca         2.2124951140       -0.0001183165        2.2307589889
 Ca         4.1712148737        0.0000482194        5.6770817831
 Ca         5.4046433276        3.5284145775        2.2307189583
 Ca         0.9792058706        3.5284165779        5.6771465092
  S         1.0650660727        0.0000958572        5.7545739981
  S         5.3190018546       -0.0000855003        2.1548754658
  S         4.2570926768        3.5284010488        5.7545102836
  S         2.1270546522        3.5284901942        2.1547741172
  O         0.1531336041        5.8607882937        5.7703022679
  O         6.2310372140        5.8608699573        2.1382081681
  O         6.2308991573        1.1958559195        2.1385924289
  O         0.1529372097        1.1959836588        5.7703448184
  O         3.3451681189        2.3323608787        5.7705339682
  O         3.0387542683        2.3324038733        2.1385805482
  O         3.0389449605        4.7244452456        2.1385588429
  O         3.3452250655        4.7244975365        5.7703619493
  O         2.0100168515       -0.0000342668        6.8918396281
  O         4.3741064980       -0.0000011980        1.0178066548
  O         1.9072240254        0.0000963746        4.4975381349
  O         4.4758797621        0.0001062862        3.4110051616
  O         5.2021241841        3.5284783035        6.8917181096
  O         1.1819368344        3.5283853141        1.0179050624
  O         5.0992894365        3.5284481950        4.4974947313
  O         1.2838975753        3.5284554469        3.4109108272
 Ca         2.2124964775        7.0567974884        2.2307767495
 Ca         4.1711254360        7.0568461145        5.6771356264
 Ca         5.4045077726       10.5854639266        2.2307480395
 Ca         0.9790468810       10.5852534669        5.6770882136
  S         1.0650268988        7.0568771962        5.7544829009
  S         5.3191523509        7.0568174860        2.1549262755
  S         4.2570831013       10.5853363037        5.7544137149
  S         2.1269961243       10.5853772014        2.1549170649
  O         0.1532121798       12.9177300791        5.7702507521
  O         6.2310397596       12.9178245562        2.1385481026
  O         6.2308270089        8.2529232989        2.1387029419
  O         0.1530832733        8.2529151359        5.7703473273
  O         3.3451818413        9.3892679786        5.7703611043
  O         3.0387338133        9.3892959411        2.1386000501
  O         3.0388120296       11.7813808711        2.1385269628
  O         3.3451094842       11.7813522812        5.7705609132
  O         2.0099186380        7.0569040773        6.8918100710
  O         4.3741776471        7.0569393846        1.0179406864
  O         1.9073513607        7.0569021108        4.4975445098
  O         4.4758955668        7.0565703409        3.4110013141
  O         5.2019587308       10.5853053527        6.8917448328
  O         1.1821102214       10.5852746324        1.0178469221
  O         5.0995462457       10.5852655507        4.4975886156
  O         1.2836790447       10.5851419286        3.4109471885
 Ca         8.5965182164        0.0000519063        2.2308069172
 Ca        10.5553806501       -0.0000259123        5.6771454680
 Ca        11.7888074959        3.5284322617        2.2307689602
 Ca         7.3633064500        3.5284086722        5.6771896067
  S         7.4491587389        0.0000572127        5.7544434245
  S        11.7032272280       -0.0000322815        2.1548861816
  S        10.6412398724        3.5284912165        5.7545572235
  S         8.5109651051        3.5283647922        2.1548528911
  O         6.5373513398        5.8606893043        5.7703204902
  O        12.6150810471        5.8610451552        2.1385262345
  O        12.6151449959        1.1959001738        2.1385071740
  O         6.5372094658        1.1960846820        5.7704272110
  O         9.7294647564        2.3323189798        5.7704503945
  O         9.4231426151        2.3326275331        2.1386227252
  O         9.4230596425        4.7241086856        2.1384355340
  O         9.7293773424        4.7245992923        5.7703016573
  O         8.3940738046       -0.0000548410        6.8917294503
  O        10.7582769111        0.0000437752        1.0178638738
  O         8.2917083563       -0.0000106085        4.4976972459
  O        10.8602068319       -0.0000046769        3.4110931091
  O        11.5862974774        3.5284582888        6.8917208494
  O         7.5661418015        3.5283407805        1.0177013250
  O        11.4835612977        3.5283484355        4.4976461085
  O         7.6681016275        3.5287096285        3.4111743855
 Ca         8.5966793523        7.0569401258        2.2308322956
 Ca        10.5553811202        7.0568610171        5.6771632680
 Ca        11.7886922271       10.5852727186        2.2307983486
 Ca         7.3632372881       10.5853099104        5.6770879273
  S         7.4491591672        7.0568277288        5.7545956736
  S        11.7031239234        7.0569403856        2.1549952099
  S        10.6414152711       10.5852904683        5.7544004358
  S         8.5110882400       10.5853223625        2.1549818988
  O         6.5372957590       12.9176900962        5.7704461587
  O        12.6152126045       12.9178332312        2.1384641806
  O        12.6152237450        8.2527215673        2.1384407191
  O         6.5373268620        8.2529494359        5.7703327971
  O         9.7293581741        9.3893540050        5.7704299213
  O         9.4230890685        9.3894552946        2.1385822472
  O         9.4230079879       11.7812367216        2.1385377309
  O         9.7293311288       11.7812168920        5.7703921388
  O         8.3942833814        7.0569565408        6.8917156065
  O        10.7584118660        7.0569611998        1.0177688082
  O         8.2913640945        7.0569787947        4.4975927383
  O        10.8600352159        7.0567845580        3.4111796751
  O        11.5861457409       10.5853867569        6.8918668333
  O         7.5664312864       10.5852529022        1.0177101576
  O        11.4838010154       10.5853002207        4.4975256295
  O         7.6678171149       10.5852880678        3.4110408859
      96
 i =        3, E =     -1774.5965569094
 Ca         2.2127361432        0.0000119263        2.2347350697
 Ca         4.1714056862        0.0000092462        5.6738296475
 Ca         5.4049235566        3.5284441439        2.2347089138
 Ca         0.9792822084        3.5284310849        5.6738263455
  S         1.0640078362       -0.0000104613        5.7581730545
  S         5.3195206065        0.0000272527        2.1504257376
  S         4.2561411658        3.5284500685        5.7581983926
  S         2.1273944673        3.5283936916        2.1504379813
  O         0.1538905270        5.8575568931        5.7709114697
  O         6.2299648186        5.8578622066        2.1376872538
  O         6.2299236471        1.1990914789        2.1379293156
  O         0.1538526222        1.1992775897        5.7710136076
  O         3.3459739738        2.3291662428        5.7710980689
  O         3.0378076279        2.3293520237        2.1378645394
  O         3.0378301524        4.7274183771        2.1378483514
  O         3.3459412975        4.7277211483        5.7709866680
  O         2.0095345383        0.0000262610        6.8956455068
  O         4.3731261568       -0.0000438683        1.0138041569
  O         1.9089090117        0.0001227927        4.5028588586
  O         4.4740509791       -0.0000286486        3.4050693808
  O         5.2017194968        3.5284562660        6.8956415112
  O         1.1810115075        3.5284403189        1.0138054696
  O         5.1009105903        3.5283851912        4.5028025081
  O         1.2819953333        3.5284953886        3.4051568955
 Ca         2.2128387302        7.0568465895        2.2347182727
 Ca         4.1713571676        7.0568694048        5.6738277840
 Ca         5.4049111646       10.5853063063        2.2346950782
 Ca         0.9793116725       10.5852988771        5.6738385456
  S         1.0640380076        7.0568702447        5.7581733589
  S         5.3195019318        7.0568674495        2.1504172326
  S         4.2561273606       10.5852972372        5.7582212355
  S         2.1273435018       10.5852569443        2.1504269499
  O         0.1538979464       12.9143870159        5.7709230047
  O         6.2298629115       12.9146713869        2.1379547524
  O         6.2298459316        8.2559607325        2.1380903306
  O         0.1538431327        8.2561447225        5.7709354702
  O         3.3459421474        9.3860145693        5.7708858750
  O         3.0378339178        9.3862561385        2.1379670918
  O         3.0377235726       11.7843317165        2.1379856896
  O         3.3459583554       11.7845898240        5.7709822732
  O         2.0095303913        7.0568895779        6.8956887721
  O         4.3730839115        7.0569513676        1.0138147603
  O         1.9089342005        7.0569001415        4.5028515785
  O         4.4741199945        7.0566324305        3.4051420384
  O         5.2016520835       10.5852990598        6.8957064444
  O         1.1810337202       10.5853141556        1.0137321275
  O         5.1009661438       10.5853524784        4.5028727149
  O         1.2818928926       10.5853096042        3.4051050000
 Ca         8.5970107585        0.0000331245        2.2347296967
 Ca        10.5556298841       -0.0000059485        5.6738364394
 Ca        11.7891577261        3.5284256324        2.2347280942
 Ca         7.3635373488        3.5284242458        5.6737977198
  S         7.4482699415       -0.0000104606        5.7582324500
  S        11.7037380907        0.0000087655        2.1504303477
  S        10.6403984137        3.5284268993        5.7581986033
  S         8.5117162489        3.5284634158        2.1504118285
  O         6.5381285664        5.8575810385        5.7710040332
  O        12.6140642090        5.8577283271        2.1379405861
  O        12.6141065878        1.1990941113        2.1378750015
  O         6.5380736433        1.1992574186        5.7709277070
  O         9.7301449389        2.3291912701        5.7710794673
  O         9.4219138653        2.3292513579        2.1380033197
  O         9.4220027612        4.7275816206        2.1377598263
  O         9.7301838106        4.7276870859        5.7709432593
  O         8.3937342266        0.0000006210        6.8957629800
  O        10.7572551994        0.0000116062        1.0138783735
  O         8.2931088721        0.0000314791        4.5028988151
  O        10.8583461206       -0.0000408638        3.4051300521
  O        11.5858671207        3.5284992449        6.8957243567
  O         7.5651736409        3.5282889960        1.0139046059
  O        11.4851909556        3.5284042202        4.5028305232
  O         7.6662093837        3.5285228835        3.4050450278
 Ca         8.5970563613        7.0568856590        2.2347497512
 Ca        10.5556015008        7.0568614490        5.6738079415
 Ca        11.7891338708       10.5852948072        2.2347315853
 Ca         7.3635343276       10.5852910055        5.6738180434
  S         7.4482610630        7.0568902152        5.7581790689
  S        11.7037653413        7.0568681427        2.1504097973
  S        10.6403018559       10.5853100366        5.7582103097
  S         8.5116246933       10.5853202118        2.1504070649
  O         6.5380236947       12.9144841949        5.7709303634
  O        12.6140747140       12.9146426083        2.1378472476
  O        12.6140552324        8.2560033546        2.1379620115
  O         6.5379954386        8.2561062856        5.7710305728
  O         9.7302118873        9.3859643333        5.7709133940
  O         9.4220109393        9.3862425121        2.1380501456
  O         9.4219260241       11.7844470919        2.1380099171
  O         9.7301544001       11.7846225270        5.7708737112
  O         8.3937793521        7.0568926630        6.8956679471
  O        10.7572729911        7.0569606752        1.0138682013
  O         8.2930546100        7.0569059912        4.5027945768
  O        10.8582792605        7.0568925470        3.4050610710
  O        11.5858380722       10.5853436157        6.8956867989
  O         7.5652796059       10.5852612731        1.0137389786
  O        11.4852258284       10.5852866882        4.5029212830
  O         7.6660627631       10.5853163160        3.4050061769
      96
 i =        4, E =     -1774.5968747597
 Ca         2.2163120172        0.0000188920        2.2393669627
 Ca         4.1686811345       -0.0000106854        5.6700812170
 Ca         5.4084633686        3.5284612727        2.2393761267
 Ca         0.9765622537        3.5284234758        5.6700634177
  S         1.0658056425       -0.0000254311        5.7627064429
  S         5.3165268807        0.0000178842        2.1454968119
  S         4.2579301196        3.5284498454        5.7627539119
  S         2.1244062081        3.5283900965        2.1455031782
  O         0.1548330770        5.8567818876        5.7725566577
  O         6.2280658058        5.8572508425        2.1357441040
  O         6.2280362768        1.1997152658        2.1358706881
  O         0.1548322830        1.2000569181        5.7726819652
  O         3.3469336183        2.3283805598        5.7726969493
  O         3.0359336059        2.3287189413        2.1358350838
  O         3.0359310176        4.7280631649        2.1357843463
  O         3.3469135307        4.7285093661        5.7726453740
  O         2.0090123517        0.0000177450        6.9017715608
  O         4.3726971524       -0.0000315412        1.0067554329
  O         1.9113461247        0.0000859275        4.5082229194
  O         4.4709601651       -0.0000340979        3.3999197770
  O         5.2012010163        3.5284662181        6.9017728644
  O         1.1805768641        3.5284541645        1.0067567776
  O         5.1033647853        3.5283711777        4.5082101144
  O         1.2788841113        3.5284436448        3.3999693490
 Ca         2.2164034811        7.0568613095        2.2393910448
 Ca         4.1686927596        7.0568768383        5.6700505364
 Ca         5.4084558193       10.5852705393        2.2393812870
 Ca         0.9765842697       10.5853155901        5.6700766832
  S         1.0658108388        7.0568673019        5.7627265384
  S         5.3164988826        7.0568958152        2.1454444872
  S         4.2579293135       10.5853027388        5.7627816847
  S         2.1243865256       10.5852699066        2.1454692393
  O         0.1548221715       12.9136294904        5.7725840732
  O         6.2280022140       12.9140397829        2.1358991854
  O         6.2280235744        8.2565692511        2.1360050535
  O         0.1547976587        8.2569261109        5.7725762339
  O         3.3469280226        9.3852308840        5.7725454902
  O         3.0359605423        9.3856241472        2.1359181845
  O         3.0359115216       11.7849544309        2.1359573664
  O         3.3469411051       11.7853825757        5.7725676595
  O         2.0090403767        7.0568663651        6.9017779619
  O         4.3726056507        7.0569821908        1.0067495367
  O         1.9113310122        7.0568892034        4.5082320019
  O         4.4710331990        7.0567429155        3.3999404000
  O         5.2011710393       10.5852724498        6.9018235611
  O         1.1805658995       10.5852859117        1.0067196620
  O         5.1033468509       10.5853762544        4.5082248207
  O         1.2788305566       10.5853421222        3.3999073268
 Ca         8.6005665984        0.0000113762        2.2394099715
 Ca        10.5528822713       -0.0000008865        5.6700887108
 Ca        11.7926939330        3.5284188881        2.2394094640
 Ca         7.3608082507        3.5284349065        5.6700440228
  S         7.4500439477       -0.0000159020        5.7627869526
  S        11.7007243756        0.0000050858        2.1454835219
  S        10.6421605858        3.5284205565        5.7627416247
  S         8.5086858081        3.5284443895        2.1454947671
  O         6.5390565011        5.8568026377        5.7726642214
  O        12.6122393163        5.8571557450        2.1358702146
  O        12.6122467971        1.1996894135        2.1358502389
  O         6.5390759074        1.2000789746        5.7725669054
  O         9.7311143473        2.3283815382        5.7726951380
  O         9.4201121789        2.3286898785        2.1359456575
  O         9.4201394628        4.7281669149        2.1357072170
  O         9.7311584952        4.7284903449        5.7725979936
  O         8.3932539030        0.0000138249        6.9018521693
  O        10.7567997903        0.0000071058        1.0068182406
  O         8.2954705884        0.0000212857        4.5082388853
  O        10.8552256054       -0.0000115931        3.3999471560
  O        11.5853795912        3.5284834647        6.9017986603
  O         7.5647573302        3.5283129885        1.0068301992
  O        11.4876131685        3.5284043700        4.5082124037
  O         7.6630833046        3.5284504779        3.3999004899
 Ca         8.6005667468        7.0568812763        2.2393754014
 Ca        10.5528856983        7.0568717665        5.6700488542
 Ca        11.7926713686       10.5853121112        2.2393855073
 Ca         7.3607566750       10.5852966324        5.6700449020
  S         7.4500343385        7.0568801100        5.7627042629
  S        11.7007561127        7.0568689490        2.1454483636
  S        10.6421039080       10.5853046206        5.7627779282
  S         8.5086284891       10.5853242055        2.1454467640
  O         6.5390362846       12.9136540053        5.7725478092
  O        12.6122202871       12.9140419577        2.1358139911
  O        12.6122385110        8.2565764654        2.1359574072
  O         6.5389774026        8.2569026271        5.7726934947
  O         9.7311656704        9.3851892883        5.7725493602
  O         9.4201578116        9.3856409312        2.1360033807
  O         9.4201038766       11.7850393841        2.1359683089
  O         9.7311412266       11.7854068839        5.7725052123
  O         8.3932447782        7.0568665461        6.9017736691
  O        10.7568036645        7.0569186458        1.0068076977
  O         8.2955281031        7.0568798364        4.5081911489
  O        10.8551992792        7.0569035990        3.3998837363
  O        11.5853596136       10.5853060679        6.9018064328
  O         7.5647902790       10.5852674591        1.0067082735
  O        11.4875976946       10.5852989822        4.5082718696
  O         7.6630334393       10.5853246272        3.3998583675
      96
 i =        5, E =     -1774.5969964524
 Ca         2.2174028651       -0.0000096206        2.2416902017
 Ca         4.1674277518       -0.0000003558        5.6677482364
 Ca         5.4095239468        3.5284440267        2.2417049894
 Ca         0.9753388957        3.5284176688        5.6677596756
  S         1.0666755612        0.0000025662        5.7660004031
  S         5.3153934368       -0.0000100103        2.1419916482
  S         4.2587875158        3.5284319883        5.7660190457
  S         2.1232965358        3.5284165311        2.1419710875
  O         0.1550595080        5.8571297683        5.7745114696
  O         6.2271160689        5.8572231884        2.1337052265
  O         6.2270953087        1.1996783626        2.1338123229
  O         0.1550402727        1.1997267157        5.7746001525
  O         3.3471566071        2.3287045316        5.7746163870
  O         3.0349918136        2.3287302135        2.1337939738
  O         3.0350150027        4.7280899529        2.1337515663
  O         3.3471743995        4.7281731708        5.7745758068
  O         2.0091699776       -0.0000240304        6.9042309997
  O         4.3738869837       -0.0000089682        1.0023780314
  O         1.9132353571        0.0000475368        4.5127747429
  O         4.4693552407       -0.0000076794        3.3959936119
  O         5.2013001483        3.5284569995        6.9042359036
  O         1.1817547247        3.5284284683        1.0023841246
  O         5.1053131340        3.5283882018        4.5127757361
  O         1.2772872683        3.5284178436        3.3959959621
 Ca         2.2174186358        7.0568631339        2.2417265905
 Ca         4.1674525780        7.0568721729        5.6677486307
 Ca         5.4095039188       10.5853042361        2.2417241474
 Ca         0.9753207456       10.5853043402        5.6677375025
  S         1.0666763390        7.0568636862        5.7659840283
  S         5.3154018751        7.0568992960        2.1419741967
  S         4.2587749847       10.5853153202        5.7659883463
  S         2.1232960949       10.5853010049        2.1419974000
  O         0.1550678447       12.9139984383        5.7745117853
  O         6.2271171833       12.9140549946        2.1338206834
  O         6.2271149236        8.2565732488        2.1338592038
  O         0.1550471516        8.2565883850        5.7745349377
  O         3.3471659270        9.3855717521        5.7745348866
  O         3.0350047161        9.3856205094        2.1338362896
  O         3.0350237083       11.7849713592        2.1338390187
  O         3.3471567606       11.7850514325        5.7745542233
  O         2.0091567541        7.0568623790        6.9042254530
  O         4.3738495397        7.0569655476        1.0023955915
  O         1.9132529258        7.0568822928        4.5127711734
  O         4.4693764220        7.0568211183        3.3959840423
  O         5.2012656009       10.5852875064        6.9042202226
  O         1.1817873170       10.5852794485        1.0023887979
  O         5.1053318919       10.5853586510        4.5127636106
  O         1.2772293197       10.5853207013        3.3959803128
 Ca         8.6016089773        0.0000028869        2.2417430840
 Ca        10.5516385633       -0.0000050667        5.6677696669
 Ca        11.7937335139        3.5284243466        2.2417250234
 Ca         7.3595481067        3.5284337222        5.6677548997
  S         7.4508922045        0.0000012785        5.7659957759
  S        11.6995853092        0.0000000765        2.1419855809
  S        10.6429984294        3.5284335342        5.7660086701
  S         8.5075020404        3.5284146218        2.1419709917
  O         6.5392643979        5.8571274192        5.7745652024
  O        12.6113158976        5.8572018579        2.1337649647
  O        12.6113177918        1.1996667426        2.1337862815
  O         6.5392733297        1.1997385135        5.7745592640
  O         9.7313705955        2.3287041909        5.7746068998
  O         9.4192479934        2.3287595992        2.1338662433
  O         9.4191998083        4.7281025153        2.1336973176
  O         9.7313798402        4.7281708131        5.7745429321
  O         8.3933714102       -0.0000048780        6.9042360942
  O        10.7580188925        0.0000092163        1.0024204791
  O         8.2974476058        0.0000078768        4.5127665639
  O        10.8535932229        0.0000028511        3.3960111219
  O        11.5855068593        3.5284476805        6.9042266098
  O         7.5659620105        3.5283658307        1.0023803990
  O        11.4895337616        3.5283900850        4.5127693079
  O         7.6614854152        3.5284631095        3.3959892333
 Ca         8.6016177326        7.0568889904        2.2416919828
 Ca        10.5516479914        7.0568814189        5.6677370373
 Ca        11.7937187511       10.5853086382        2.2417286053
 Ca         7.3595067888       10.5853019043        5.6677027879
  S         7.4508831238        7.0568598243        5.7660075410
  S        11.6996041874        7.0568794986        2.1419853535
  S        10.6429904950       10.5853006740        5.7659876834
  S         8.5075081904       10.5853197638        2.1419943120
  O         6.5392822791       12.9139991312        5.7745363595
  O        12.6113060234       12.9140652373        2.1337557844
  O        12.6113393017        8.2565375754        2.1338401617
  O         6.5392554239        8.2565874569        5.7745880797
  O         9.7313652726        9.3855699317        5.7745390169
  O         9.4192383737        9.3856524386        2.1338686834
  O         9.4192112925       11.7850040287        2.1338388441
  O         9.7313701315       11.7850369014        5.7745145210
  O         8.3933965430        7.0568622823        6.9042259761
  O        10.7580615551        7.0568908460        1.0023991401
  O         8.2974207676        7.0568733878        4.5127684855
  O        10.8535599152        7.0568667698        3.3959837834
  O        11.5854561042       10.5852998805        6.9042405834
  O         7.5660165696       10.5852870417        1.0023698361
  O        11.4895734180       10.5853025971        4.5127799681
  O         7.6614217929       10.5853209316        3.3959665158
      96
 i =        6, E =     -1774.5970535387
 Ca         2.2164133016       -0.0000113296        2.2419798893
 Ca         4.1676036415        0.0000049127        5.6666135912
 Ca         5.4085235862        3.5284357198        2.2419939755
 Ca         0.9755241823        3.5284200001        5.6666271766
  S         1.0672787137        0.0000001402        5.7687661662
  S         5.3156886433       -0.0000060092        2.1390525142
  S         4.2593850613        3.5284282068        5.7687803721
  S         2.1235903981        3.5284222381        2.1390315322
  O         0.1550786815        5.8577695185        5.7765154908
  O         6.2275132173        5.8574846294        2.1318578930
  O         6.2275195140        1.1993930953        2.1319266890
  O         0.1550669041        1.1990911571        5.7765828196
  O         3.3471711435        2.3293391653        5.7765924425
  O         3.0354145831        2.3290203891        2.1319009353
  O         3.0354221803        4.7278226947        2.1318874398
  O         3.3471952107        4.7275336395        5.7765558936
  O         2.0090273520       -0.0000257327        6.9063316043
  O         4.3752395719       -0.0000053208        0.9997568071
  O         1.9145152125        0.0000373080        4.5161018924
  O         4.4687082561       -0.0000072830        3.3926696652
  O         5.2011365667        3.5284359793        6.9063412497
  O         1.1831182002        3.5284174135        0.9997533246
  O         5.1066251633        3.5283983334        4.5161198381
  O         1.2766256706        3.5284248219        3.3926576722
 Ca         2.2164087907        7.0568641001        2.2419924153
 Ca         4.1676294482        7.0568693822        5.6666338998
 Ca         5.4085174247       10.5853166179        2.2419879197
 Ca         0.9754974804       10.5853018216        5.6666133603
  S         1.0672775386        7.0568640806        5.7687495137
  S         5.3156913497        7.0568908071        2.1390393524
  S         4.2593770612       10.5853191449        5.7687484878
  S         2.1235940773       10.5853040673        2.1390609035
  O         0.1550743948       12.9146470165        5.7765161495
  O         6.2275309763       12.9143393437        2.1319238813
  O         6.2275288240        8.2562839691        2.1319266531
  O         0.1550750885        8.2559574317        5.7765364223
  O         3.3471818455        9.3862191762        5.7765305492
  O         3.0354124275        9.3858984981        2.1319502722
  O         3.0354319609       11.7846990958        2.1319221549
  O         3.3471657184       11.7844060886        5.7765555685
  O         2.0090123779        7.0568612265        6.9063228243
  O         4.3752384185        7.0569172752        0.9997438372
  O         1.9145333929        7.0568760723        4.5160987567
  O         4.4687199942        7.0568686645        3.3926594306
  O         5.2011215730       10.5853087128        6.9063137289
  O         1.1831524599       10.5853010495        0.9997612250
  O         5.1066272960       10.5853400453        4.5160911689
  O         1.2766070924       10.5853186745        3.3926698020
 Ca         8.6006182163        0.0000002981        2.2420070889
 Ca        10.5518298277       -0.0000006513        5.6666364639
 Ca        11.7927217317        3.5284316222        2.2419908479
 Ca         7.3597258629        3.5284303396        5.6666257124
  S         7.4514838975       -0.0000003023        5.7687555538
  S        11.6998839605       -0.0000008345        2.1390470987
  S        10.6435887788        3.5284283725        5.7687686497
  S         8.5077908805        3.5284305347        2.1390378057
  O         6.5392764130        5.8577672773        5.7765488227
  O        12.6117308732        5.8574764590        2.1318812322
  O        12.6117233115        1.1993937501        2.1318989191
  O         6.5392804170        1.1990950643        5.7765611620
  O         9.7313862066        2.3293342200        5.7765828406
  O         9.4196438216        2.3290486549        2.1319479531
  O         9.4196210854        4.7278350759        2.1318544547
  O         9.7314005964        4.7275342620        5.7765414043
  O         8.3932394218       -0.0000065204        6.9063115346
  O        10.7594231460        0.0000064366        0.9997589417
  O         8.2987410789        0.0000102655        4.5160986622
  O        10.8529350485        0.0000006357        3.3926803781
  O        11.5853478464        3.5284364568        6.9063243849
  O         7.5673432760        3.5283988232        0.9997395449
  O        11.4908333781        3.5283922457        4.5161062407
  O         7.6608230818        3.5284591370        3.3926637605
 Ca         8.6006266533        7.0568747676        2.2419723313
 Ca        10.5518257148        7.0568790772        5.6666144185
 Ca        11.7927344447       10.5853097022        2.2420018821
 Ca         7.3596996021       10.5853042931        5.6665919104
  S         7.4514823882        7.0568599491        5.7687696970
  S        11.6998948091        7.0568699436        2.1390485406
  S        10.6435912813       10.5853040887        5.7687494922
  S         8.5077993652       10.5853141769        2.1390596482
  O         6.5392891344       12.9146417134        5.7765412031
  O        12.6117166421       12.9143385033        2.1318847953
  O        12.6117319099        8.2562621964        2.1319316291
  O         6.5392873860        8.2559618266        5.7765614879
  O         9.7313787524        9.3862157529        5.7765325679
  O         9.4196396049        9.3859224228        2.1319469870
  O         9.4196350283       11.7847087020        2.1319271660
  O         9.7313904847       11.7844005764        5.7765315938
  O         8.3932379136        7.0568555264        6.9063297578
  O        10.7594586887        7.0568849282        0.9997384484
  O         8.2987174226        7.0568648857        4.5161051351
  O        10.8529191223        7.0568486589        3.3926669756
  O        11.5853279891       10.5852995808        6.9063204828
  O         7.5673704020       10.5853064414        0.9997508464
  O        11.4908517653       10.5852970092        4.5160997471
  O         7.6608060296       10.5853206334        3.3926669938
      96
 i =        7, E =     -1774.5970682412
 Ca         2.2155313568       -0.0000133766        2.2417307474
 Ca         4.1685413467        0.0000067125        5.6665539466
 Ca         5.4076392919        3.5284364678        2.2417420249
 Ca         0.9764516151        3.5284238071        5.6665594641
  S         1.0672622717        0.0000056185        5.7696011829
  S         5.3161588093       -0.0000071226        2.1380217264
  S         4.2593714345        3.5284268194        5.7696132179
  S         2.1240603435        3.5284291573        2.1380013088
  O         0.1552200905        5.8578410958        5.7774604194
  O         6.2281498458        5.8577780296        2.1308223232
  O         6.2281492943        1.1990858246        2.1308723011
  O         0.1552045018        1.1990244538        5.7775131354
  O         3.3473105068        2.3294105070        5.7775199871
  O         3.0360460612        2.3293323849        2.1308461674
  O         3.0360539312        4.7275233188        2.1308426731
  O         3.3473348777        4.7274595219        5.7774858032
  O         2.0092103210       -0.0000210942        6.9066120612
  O         4.3756104197       -0.0000011245        0.9992905354
  O         1.9143765908        0.0000315748        4.5165516964
  O         4.4688016912       -0.0000018677        3.3916584849
  O         5.2013164783        3.5284333474        6.9066243994
  O         1.1834941038        3.5284209315        0.9992845597
  O         5.1064933813        3.5284044189        4.5165685122
  O         1.2767122000        3.5284269693        3.3916419873
 Ca         2.2155249083        7.0568627515        2.2417342080
 Ca         4.1685539963        7.0568720568        5.6665614325
 Ca         5.4076345627       10.5853199227        2.2417308616
 Ca         0.9764351586       10.5852969563        5.6665539497
  S         1.0672649482        7.0568651509        5.7695843670
  S         5.3161679686        7.0568797491        2.1380098823
  S         4.2593591221       10.5853171219        5.7695820937
  S         2.1240668035       10.5853088511        2.1380308374
  O         0.1552184446       12.9147195382        5.7774601868
  O         6.2281631254       12.9146469399        2.1308622697
  O         6.2281560350        8.2559760793        2.1308561976
  O         0.1552157927        8.2558876353        5.7774772462
  O         3.3473217719        9.3862861436        5.7774707964
  O         3.0360407835        9.3862054550        2.1308885115
  O         3.0360610840       11.7844004949        2.1308552736
  O         3.3473070936       11.7843362970        5.7774958255
  O         2.0091992786        7.0568643988        6.9066047489
  O         4.3756080772        7.0568898803        0.9992876911
  O         1.9143971115        7.0568737021        4.5165467534
  O         4.4688107240        7.0568750428        3.3916434709
  O         5.2013021603       10.5853118897        6.9065950019
  O         1.1835201098       10.5853016225        0.9992996410
  O         5.1064962416       10.5853302575        4.5165449975
  O         1.2767025059       10.5853155343        3.3916597873
 Ca         8.5997338079        0.0000005081        2.2417422589
 Ca        10.5527625793        0.0000023401        5.6665656662
 Ca        11.7918434564        3.5284325102        2.2417325004
 Ca         7.3606556338        3.5284276293        5.6665635235
  S         7.4514702205        0.0000020069        5.7695914582
  S        11.7003639805       -0.0000017573        2.1380143983
  S        10.6435761669        3.5284298695        5.7696040407
  S         8.5082547332        3.5284330345        2.1380082000
  O         6.5394178324        5.8578380293        5.7774823264
  O        12.6123635256        5.8577819713        2.1308352393
  O        12.6123590841        1.1990894870        2.1308477890
  O         6.5394176183        1.1990224653        5.7774993137
  O         9.7315274033        2.3294077839        5.7775100339
  O         9.4202704647        2.3293592986        2.1308785354
  O         9.4202559057        4.7275232221        2.1308270377
  O         9.7315374739        4.7274605425        5.7774750204
  O         8.3934162694       -0.0000083395        6.9066026100
  O        10.7598055913        0.0000049771        0.9992904678
  O         8.2986074869        0.0000105595        4.5165517325
  O        10.8530261990       -0.0000002384        3.3916612454
  O        11.5855272848        3.5284340127        6.9066122353
  O         7.5677095092        3.5284197287        0.9992751051
  O        11.4907002746        3.5283942170        4.5165572683
  O         7.6609157361        3.5284706255        3.3916571841
 Ca         8.5997388034        7.0568738949        2.2417277844
 Ca        10.5527574803        7.0568736936        5.6665503123
 Ca        11.7918488395       10.5853079963        2.2417392044
 Ca         7.3606420662       10.5853053684        5.6665423099
  S         7.4514680388        7.0568615211        5.7696016469
  S        11.7003683783        7.0568712032        2.1380182443
  S        10.6435802212       10.5853039214        5.7695817817
  S         8.5082718710       10.5853112838        2.1380300470
  O         6.5394279294       12.9147172493        5.7774829763
  O        12.6123594278       12.9146454813        2.1308410047
  O        12.6123666713        8.2559585789        2.1308671120
  O         6.5394296170        8.2558943305        5.7774884341
  O         9.7315185154        9.3862900970        5.7774765633
  O         9.4202625793        9.3862183564        2.1308757931
  O         9.4202670328       11.7844009472        2.1308626980
  O         9.7315313531       11.7843257242        5.7774799637
  O         8.3934202933        7.0568617568        6.9066085471
  O        10.7598262586        7.0568804334        0.9992804540
  O         8.2985868377        7.0568643204        4.5165559724
  O        10.8530135538        7.0568377234        3.3916546866
  O        11.5855097505       10.5853032893        6.9066061725
  O         7.5677338385       10.5853087381        0.9992934449
  O        11.4907147518       10.5852971192        4.5165436597
  O         7.6609073385       10.5853190982        3.3916606703
      96
 i =        8, E =     -1774.5970745553
 Ca         2.2150784960       -0.0000042884        2.2414621036
 Ca         4.1693439207        0.0000046774        5.6663551712
 Ca         5.4071838041        3.5284379488        2.2414721044
 Ca         0.9772431323        3.5284286359        5.6663479128
  S         1.0673658432        0.0000019103        5.7700179500
  S         5.3165369066        0.0000017223        2.1371701668
  S         4.2594759064        3.5284307458        5.7700297215
  S         2.1244314253        3.5284287963        2.1371559970
  O         0.1553986500        5.8578648754        5.7782218394
  O         6.2284766883        5.8578137966        2.1299313054
  O         6.2284765845        1.1990623572        2.1299604862
  O         0.1553885066        1.1990002734        5.7782630027
  O         3.3474928194        2.3294359430        5.7782658042
  O         3.0363734359        2.3293691470        2.1299345928
  O         3.0363728604        4.7274903191        2.1299382740
  O         3.3475067867        4.7274347633        5.7782368737
  O         2.0095795645       -0.0000077974        6.9067438474
  O         4.3756495122       -0.0000018307        0.9989203722
  O         1.9141025411        0.0000320202        4.5162957314
  O         4.4692697297       -0.0000056538        3.3911515046
  O         5.2016882488        3.5284332291        6.9067551976
  O         1.1835408932        3.5284320444        0.9989089821
  O         5.1062158216        3.5284060978        4.5163090313
  O         1.2771691775        3.5284324212        3.3911393203
 Ca         2.2150838224        7.0568647952        2.2414558697
 Ca         4.1693470269        7.0568736408        5.6663491043
 Ca         5.4071920565       10.5853108975        2.2414561468
 Ca         0.9772394662       10.5852995144        5.6663569760
  S         1.0673709799        7.0568655687        5.7700076783
  S         5.3165338746        7.0568737928        2.1371563511
  S         4.2594703899       10.5853126073        5.7700111427
  S         2.1244327480       10.5853035244        2.1371742261
  O         0.1553943843       12.9147400862        5.7782246382
  O         6.2284755179       12.9146792680        2.1299511043
  O         6.2284769003        8.2559333496        2.1299381446
  O         0.1553930966        8.2558638712        5.7782314884
  O         3.3474980929        9.3863114921        5.7782226795
  O         3.0363716633        9.3862441109        2.1299715657
  O         3.0363749529       11.7843630473        2.1299456537
  O         3.3474910617       11.7843074671        5.7782410490
  O         2.0095782972        7.0568674617        6.9067390968
  O         4.3756429010        7.0568716279        0.9989091639
  O         1.9141151507        7.0568727175        4.5162904335
  O         4.4692776288        7.0568720042        3.3911427974
  O         5.2016809487       10.5853089743        6.9067402446
  O         1.1835488052       10.5853034964        0.9989207823
  O         5.1062103391       10.5853255655        4.5162894328
  O         1.2771715526       10.5853214986        3.3911581157
 Ca         8.5992916385        0.0000003002        2.2414643781
 Ca        10.5535603062        0.0000039275        5.6663546447
 Ca        11.7913946203        3.5284351726        2.2414608319
 Ca         7.3614559562        3.5284283597        5.6663531506
  S         7.4515782413       -0.0000003126        5.7700202568
  S        11.7007470009        0.0000005428        2.1371633006
  S        10.6436858063        3.5284274719        5.7700209121
  S         8.5086440236        3.5284446546        2.1371643080
  O         6.5396008205        5.8578689600        5.7782388802
  O        12.6126909466        5.8578054462        2.1299330286
  O        12.6126864650        1.1990615936        2.1299406855
  O         6.5396011627        1.1989973845        5.7782467922
  O         9.7317018505        2.3294350791        5.7782602606
  O         9.4205710850        2.3293755252        2.1299594531
  O         9.4205835093        4.7275086900        2.1299300051
  O         9.7317163224        4.7274307866        5.7782284383
  O         8.3937909190       -0.0000038517        6.9067476069
  O        10.7598525963        0.0000007509        0.9989187326
  O         8.2983194735        0.0000134436        4.5162986833
  O        10.8534888521       -0.0000031039        3.3911498722
  O        11.5858965329        3.5284383010        6.9067497879
  O         7.5677466362        3.5284284666        0.9989251914
  O        11.4904265565        3.5284012008        4.5162994089
  O         7.6613782018        3.5284667767        3.3911472001
 Ca         8.5992932988        7.0568680983        2.2414605409
 Ca        10.5535529937        7.0568684186        5.6663452695
 Ca        11.7914037770       10.5853076978        2.2414605693
 Ca         7.3614490807       10.5853059989        5.6663547515
  S         7.4515793196        7.0568669406        5.7700154893
  S        11.7007479812        7.0568641145        2.1371631078
  S        10.6436794481       10.5853055680        5.7700109146
  S         8.5086448286       10.5853082933        2.1371722170
  O         6.5396028207       12.9147426169        5.7782331884
  O        12.6126850882       12.9146765244        2.1299393129
  O        12.6126795604        8.2559315010        2.1299591894
  O         6.5396022806        8.2558666117        5.7782389859
  O         9.7317049857        9.3863053917        5.7782291853
  O         9.4205792374        9.3862437592        2.1299610035
  O         9.4205857539       11.7843680158        2.1299523153
  O         9.7317117406       11.7843092358        5.7782310980
  O         8.3937884605        7.0568657172        6.9067448962
  O        10.7598553330        7.0568787638        0.9989177372
  O         8.2983161740        7.0568637439        4.5162939522
  O        10.8534850316        7.0568423533        3.3911461155
  O        11.5858935381       10.5853033826        6.9067368674
  O         7.5677580509       10.5853081700        0.9989226413
  O        11.4904230769       10.5852971536        4.5162923866
  O         7.6613819160       10.5853175411        3.3911556284
      96
 i =        9, E =     -1774.5970745351
 Ca         2.2150784960       -0.0000042884        2.2414621036
 Ca         4.1693439207        0.0000046774        5.6663551712
 Ca         5.4071838041        3.5284379488        2.2414721044
 Ca         0.9772431323        3.5284286359        5.6663479128
  S         1.0673658432        0.0000019103        5.7700179500
  S         5.3165369066        0.0000017223        2.1371701668
  S         4.2594759064        3.5284307458        5.7700297215
  S         2.1244314253        3.5284287963        2.1371559970
  O         0.1553986500        5.8578648754        5.7782218394
  O         6.2284766883        5.8578137966        2.1299313054
  O         6.2284765845        1.1990623572        2.1299604862
  O         0.1553885066        1.1990002734        5.7782630027
  O         3.3474928194        2.3294359430        5.7782658042
  O         3.0363734359        2.3293691470        2.1299345928
  O         3.0363728604        4.7274903191        2.1299382740
  O         3.3475067867        4.7274347633        5.7782368737
  O         2.0095795645       -0.0000077974        6.9067438474
  O         4.3756495122       -0.0000018307        0.9989203722
  O         1.9141025411        0.0000320202        4.5162957314
  O         4.4692697297       -0.0000056538        3.3911515046
  O         5.2016882488        3.5284332291        6.9067551976
  O         1.1835408932        3.5284320444        0.9989089821
  O         5.1062158216        3.5284060978        4.5163090313
  O         1.2771691775        3.5284324212        3.3911393203
 Ca         2.2150838224        7.0568647952        2.2414558697
 Ca         4.1693470269        7.0568736408        5.6663491043
 Ca         5.4071920565       10.5853108975        2.2414561468
 Ca         0.9772394662       10.5852995144        5.6663569760
  S         1.0673709799        7.0568655687        5.7700076783
  S         5.3165338746        7.0568737928        2.1371563511
  S         4.2594703899       10.5853126073        5.7700111427
  S         2.1244327480       10.5853035244        2.1371742261
  O         0.1553943843       12.9147400862        5.7782246382
  O         6.2284755179       12.9146792680        2.1299511043
  O         6.2284769003        8.2559333496        2.1299381446
  O         0.1553930966        8.2558638712        5.7782314884
  O         3.3474980929        9.3863114921        5.7782226795
  O         3.0363716633        9.3862441109        2.1299715657
  O         3.0363749529       11.7843630473        2.1299456537
  O         3.3474910617       11.7843074671        5.7782410490
  O         2.0095782972        7.0568674617        6.9067390968
  O         4.3756429010        7.0568716279        0.9989091639
  O         1.9141151507        7.0568727175        4.5162904335
  O         4.4692776288        7.0568720042        3.3911427974
  O         5.2016809487       10.5853089743        6.9067402446
  O         1.1835488052       10.5853034964        0.9989207823
  O         5.1062103391       10.5853255655        4.5162894328
  O         1.2771715526       10.5853214986        3.3911581157
 Ca         8.5992916385        0.0000003002        2.2414643781
 Ca        10.5535603062        0.0000039275        5.6663546447
 Ca        11.7913946203        3.5284351726        2.2414608319
 Ca         7.3614559562        3.5284283597        5.6663531506
  S         7.4515782413       -0.0000003126        5.7700202568
  S        11.7007470009        0.0000005428        2.1371633006
  S        10.6436858063        3.5284274719        5.7700209121
  S         8.5086440236        3.5284446546        2.1371643080
  O         6.5396008205        5.8578689600        5.7782388802
  O        12.6126909466        5.8578054462        2.1299330286
  O        12.6126864650        1.1990615936        2.1299406855
  O         6.5396011627        1.1989973845        5.7782467922
  O         9.7317018505        2.3294350791        5.7782602606
  O         9.4205710850        2.3293755252        2.1299594531
  O         9.4205835093        4.7275086900        2.1299300051
  O         9.7317163224        4.7274307866        5.7782284383
  O         8.3937909190       -0.0000038517        6.9067476069
  O        10.7598525963        0.0000007509        0.9989187326
  O         8.2983194735        0.0000134436        4.5162986833
  O        10.8534888521       -0.0000031039        3.3911498722
  O        11.5858965329        3.5284383010        6.9067497879
  O         7.5677466362        3.5284284666        0.9989251914
  O        11.4904265565        3.5284012008        4.5162994089
  O         7.6613782018        3.5284667767        3.3911472001
 Ca         8.5992932988        7.0568680983        2.2414605409
 Ca        10.5535529937        7.0568684186        5.6663452695
 Ca        11.7914037770       10.5853076978        2.2414605693
 Ca         7.3614490807       10.5853059989        5.6663547515
  S         7.4515793196        7.0568669406        5.7700154893
  S        11.7007479812        7.0568641145        2.1371631078
  S        10.6436794481       10.5853055680        5.7700109146
  S         8.5086448286       10.5853082933        2.1371722170
  O         6.5396028207       12.9147426169        5.7782331884
  O        12.6126850882       12.9146765244        2.1299393129
  O        12.6126795604        8.2559315010        2.1299591894
  O         6.5396022806        8.2558666117        5.7782389859
  O         9.7317049857        9.3863053917        5.7782291853
  O         9.4205792374        9.3862437592        2.1299610035
  O         9.4205857539       11.7843680158        2.1299523153
  O         9.7317117406       11.7843092358        5.7782310980
  O         8.3937884605        7.0568657172        6.9067448962
  O        10.7598553330        7.0568787638        0.9989177372
  O         8.2983161740        7.0568637439        4.5162939522
  O        10.8534850316        7.0568423533        3.3911461155
  O        11.5858935381       10.5853033826        6.9067368674
  O         7.5677580509       10.5853081700        0.9989226413
  O        11.4904230769       10.5852971536        4.5162923866
  O         7.6613819160       10.5853175411        3.3911556284
