384
Lattice="25.501 0.0 0.0 0.0 23.969 0.0 0.0 0.0 21.9014832" Properties=species:S:1:pos:R:3 pbc="T T F"
S          3.1111220000      11.9725155000       1.0485044000
S          9.4863720000       5.9802655000       4.5131044000
S          9.6393780000       0.0119845000       1.0485044000
S          3.2641280000       6.0042345000       4.5131044000
S          5.1639525000       8.6048710000       2.1294596000
S         11.5392025000       2.6126210000       5.5940596000
S          7.5865475000       3.3796290000       2.1294596000
S          1.2112975000       9.3718790000       5.5940596000
S          1.1602955000       3.3077220000       2.1225304000
S          7.5355455000       9.2999720000       5.5871304000
S         11.5902045000       8.6767780000       2.1225304000
S          5.2149545000       2.6845280000       5.5871304000
Ca         6.3752500000       0.0000000000       1.0000000000
Ca         0.0000000000       5.9922500000       4.4646000000
Ca         1.7978205000       8.6647935000       1.9631588000
Ca         8.1730705000       2.6725435000       5.4277588000
Ca        10.9526795000       3.3197065000       1.9631588000
Ca         4.5774295000       9.3119565000       5.4277588000
Ca         4.3479205000       3.1039855000       2.3096188000
Ca        10.7231705000       9.0962355000       5.7742188000
Ca         8.4025795000       8.8805145000       2.3096188000
Ca         2.0273295000       2.8882645000       5.7742188000
Ca         0.0000000000       0.0000000000       1.0000000000
Ca         6.3752500000       5.9922500000       4.4646000000
O          3.8379005000       1.0426515000       1.7552828000
O         10.2131505000       7.0349015000       5.2198828000
O          8.9125995000      10.9418485000       1.7552828000
O          2.5373495000       4.9495985000       5.2198828000
O          2.2568385000       1.0666205000       7.3194304000
O          8.6320885000       7.0588705000       3.8548304000
O         10.4936615000      10.9178795000       7.3194304000
O          4.1184115000       4.9256295000       3.8548304000
O          1.9890780000      11.3972595000       1.7622120000
O          8.3643280000       5.4050095000       5.2268120000
O         10.7614220000       0.5872405000       1.7622120000
O          4.3861720000       6.5794905000       5.2268120000
O          4.0036570000      11.1935230000       6.9660412000
O         10.3789070000       5.2012730000       3.5014412000
O          8.7468430000       0.7909770000       6.9660412000
O          2.3715930000       6.7832270000       3.5014412000
O          4.0674095000       8.7726540000       3.1341936000
O         10.4426595000       2.7804040000       6.5987936000
O          8.6830905000       3.2118460000       3.1341936000
O          2.3078405000       9.2040960000       6.5987936000
O          6.0437370000       7.4423745000       2.4828488000
O         12.4189870000       1.4501245000       5.9474488000
O          6.7067630000       4.5421255000       2.4828488000
O          0.3315130000      10.5343755000       5.9474488000
O          6.2477450000       9.6355380000       2.0185924000
O         12.6229950000       3.6432880000       5.4831924000
O          6.5027550000       2.3489620000       2.0185924000
O          0.1275050000       8.3412120000       5.4831924000
O          4.5901800000       8.3531965000       7.6866780000
O         10.9654300000       2.3609465000       4.2220780000
O          8.1603200000       3.6313035000       7.6866780000
O          1.7850700000       9.6235535000       4.2220780000
O          2.0528305000       2.7804040000       3.2173440000
O          8.4280805000       8.7726540000       6.6819440000
O         10.6976695000       9.2040960000       3.2173440000
O          4.3224195000       3.2118460000       6.6819440000
O          0.3187625000       4.5061720000       2.3789108000
O          6.6940125000      10.4984220000       5.8435108000
O         12.4317375000       7.4783280000       2.3789108000
O          6.0564875000       1.4860780000       5.8435108000
O          0.1530060000       2.2291170000       1.8315040000
O          6.5282560000       8.2213670000       5.2961040000
O         12.5974940000       9.7553830000       1.8315040000
O          6.2222440000       3.7631330000       5.2961040000
O          2.0783315000       3.5354275000       7.8737664000
O          8.4535815000       9.5276775000       4.4091664000
O         10.6721685000       8.4490725000       7.8737664000
O          4.2969185000       2.4568225000       4.4091664000
O          4.1949145000       5.4529475000       1.1663008000
O         10.5701645000      11.4451975000       4.6309008000
O          8.5555855000       6.5315525000       1.1663008000
O          2.1803355000       0.5393025000       4.6309008000
O          2.1293335000       6.6633820000       7.9014832000
O          8.5045835000       0.6711320000       4.4368832000
O         10.6211665000       5.3211180000       7.9014832000
O          4.2459165000      11.3133680000       4.4368832000
H          4.8706910000       6.1720175000       1.2148052000
H         11.2459410000       0.1797675000       4.6794052000
H          7.8798090000       5.8124825000       1.2148052000
H          1.5045590000      11.8047325000       4.6794052000
H          3.6721440000       5.6207305000       7.2709260000
H         10.0473940000      11.6129805000       3.8063260000
H          9.0783560000       6.3637695000       7.2709260000
H          2.7031060000       0.3715195000       3.8063260000
H          2.4353455000       5.9922500000       1.6028404000
H          8.8105955000       0.0000000000       5.0674404000
H         10.3151545000       5.9922500000       1.6028404000
H          3.9399045000       0.0000000000       5.0674404000
H          2.7031060000       6.5675060000       7.1254128000
H          9.0783560000       0.5752560000       3.6608128000
H         10.0473940000       5.4169940000       7.1254128000
H          3.6721440000      11.4092440000       3.6608128000
S          3.1111220000      23.9570155000       1.0485044000
S          9.4863720000      17.9647655000       4.5131044000
S          9.6393780000      11.9964845000       1.0485044000
S          3.2641280000      17.9887345000       4.5131044000
S          5.1639525000      20.5893710000       2.1294596000
S         11.5392025000      14.5971210000       5.5940596000
S          7.5865475000      15.3641290000       2.1294596000
S          1.2112975000      21.3563790000       5.5940596000
S          1.1602955000      15.2922220000       2.1225304000
S          7.5355455000      21.2844720000       5.5871304000
S         11.5902045000      20.6612780000       2.1225304000
S          5.2149545000      14.6690280000       5.5871304000
Ca         6.3752500000      11.9845000000       1.0000000000
Ca         0.0000000000      17.9767500000       4.4646000000
Ca         1.7978205000      20.6492935000       1.9631588000
Ca         8.1730705000      14.6570435000       5.4277588000
Ca        10.9526795000      15.3042065000       1.9631588000
Ca         4.5774295000      21.2964565000       5.4277588000
Ca         4.3479205000      15.0884855000       2.3096188000
Ca        10.7231705000      21.0807355000       5.7742188000
Ca         8.4025795000      20.8650145000       2.3096188000
Ca         2.0273295000      14.8727645000       5.7742188000
Ca         0.0000000000      11.9845000000       1.0000000000
Ca         6.3752500000      17.9767500000       4.4646000000
O          3.8379005000      13.0271515000       1.7552828000
O         10.2131505000      19.0194015000       5.2198828000
O          8.9125995000      22.9263485000       1.7552828000
O          2.5373495000      16.9340985000       5.2198828000
O          2.2568385000      13.0511205000       7.3194304000
O          8.6320885000      19.0433705000       3.8548304000
O         10.4936615000      22.9023795000       7.3194304000
O          4.1184115000      16.9101295000       3.8548304000
O          1.9890780000      23.3817595000       1.7622120000
O          8.3643280000      17.3895095000       5.2268120000
O         10.7614220000      12.5717405000       1.7622120000
O          4.3861720000      18.5639905000       5.2268120000
O          4.0036570000      23.1780230000       6.9660412000
O         10.3789070000      17.1857730000       3.5014412000
O          8.7468430000      12.7754770000       6.9660412000
O          2.3715930000      18.7677270000       3.5014412000
O          4.0674095000      20.7571540000       3.1341936000
O         10.4426595000      14.7649040000       6.5987936000
O          8.6830905000      15.1963460000       3.1341936000
O          2.3078405000      21.1885960000       6.5987936000
O          6.0437370000      19.4268745000       2.4828488000
O         12.4189870000      13.4346245000       5.9474488000
O          6.7067630000      16.5266255000       2.4828488000
O          0.3315130000      22.5188755000       5.9474488000
O          6.2477450000      21.6200380000       2.0185924000
O         12.6229950000      15.6277880000       5.4831924000
O          6.5027550000      14.3334620000       2.0185924000
O          0.1275050000      20.3257120000       5.4831924000
O          4.5901800000      20.3376965000       7.6866780000
O         10.9654300000      14.3454465000       4.2220780000
O          8.1603200000      15.6158035000       7.6866780000
O          1.7850700000      21.6080535000       4.2220780000
O          2.0528305000      14.7649040000       3.2173440000
O          8.4280805000      20.7571540000       6.6819440000
O         10.6976695000      21.1885960000       3.2173440000
O          4.3224195000      15.1963460000       6.6819440000
O          0.3187625000      16.4906720000       2.3789108000
O          6.6940125000      22.4829220000       5.8435108000
O         12.4317375000      19.4628280000       2.3789108000
O          6.0564875000      13.4705780000       5.8435108000
O          0.1530060000      14.2136170000       1.8315040000
O          6.5282560000      20.2058670000       5.2961040000
O         12.5974940000      21.7398830000       1.8315040000
O          6.2222440000      15.7476330000       5.2961040000
O          2.0783315000      15.5199275000       7.8737664000
O          8.4535815000      21.5121775000       4.4091664000
O         10.6721685000      20.4335725000       7.8737664000
O          4.2969185000      14.4413225000       4.4091664000
O          4.1949145000      17.4374475000       1.1663008000
O         10.5701645000      23.4296975000       4.6309008000
O          8.5555855000      18.5160525000       1.1663008000
O          2.1803355000      12.5238025000       4.6309008000
O          2.1293335000      18.6478820000       7.9014832000
O          8.5045835000      12.6556320000       4.4368832000
O         10.6211665000      17.3056180000       7.9014832000
O          4.2459165000      23.2978680000       4.4368832000
H          4.8706910000      18.1565175000       1.2148052000
H         11.2459410000      12.1642675000       4.6794052000
H          7.8798090000      17.7969825000       1.2148052000
H          1.5045590000      23.7892325000       4.6794052000
H          3.6721440000      17.6052305000       7.2709260000
H         10.0473940000      23.5974805000       3.8063260000
H          9.0783560000      18.3482695000       7.2709260000
H          2.7031060000      12.3560195000       3.8063260000
H          2.4353455000      17.9767500000       1.6028404000
H          8.8105955000      11.9845000000       5.0674404000
H         10.3151545000      17.9767500000       1.6028404000
H          3.9399045000      11.9845000000       5.0674404000
H          2.7031060000      18.5520060000       7.1254128000
H          9.0783560000      12.5597560000       3.6608128000
H         10.0473940000      17.4014940000       7.1254128000
H          3.6721440000      23.3937440000       3.6608128000
S         15.8616220000      11.9725155000       1.0485044000
S         22.2368720000       5.9802655000       4.5131044000
S         22.3898780000       0.0119845000       1.0485044000
S         16.0146280000       6.0042345000       4.5131044000
S         17.9144525000       8.6048710000       2.1294596000
S         24.2897025000       2.6126210000       5.5940596000
S         20.3370475000       3.3796290000       2.1294596000
S         13.9617975000       9.3718790000       5.5940596000
S         13.9107955000       3.3077220000       2.1225304000
S         20.2860455000       9.2999720000       5.5871304000
S         24.3407045000       8.6767780000       2.1225304000
S         17.9654545000       2.6845280000       5.5871304000
Ca        19.1257500000       0.0000000000       1.0000000000
Ca        12.7505000000       5.9922500000       4.4646000000
Ca        14.5483205000       8.6647935000       1.9631588000
Ca        20.9235705000       2.6725435000       5.4277588000
Ca        23.7031795000       3.3197065000       1.9631588000
Ca        17.3279295000       9.3119565000       5.4277588000
Ca        17.0984205000       3.1039855000       2.3096188000
Ca        23.4736705000       9.0962355000       5.7742188000
Ca        21.1530795000       8.8805145000       2.3096188000
Ca        14.7778295000       2.8882645000       5.7742188000
Ca        12.7505000000       0.0000000000       1.0000000000
Ca        19.1257500000       5.9922500000       4.4646000000
O         16.5884005000       1.0426515000       1.7552828000
O         22.9636505000       7.0349015000       5.2198828000
O         21.6630995000      10.9418485000       1.7552828000
O         15.2878495000       4.9495985000       5.2198828000
O         15.0073385000       1.0666205000       7.3194304000
O         21.3825885000       7.0588705000       3.8548304000
O         23.2441615000      10.9178795000       7.3194304000
O         16.8689115000       4.9256295000       3.8548304000
O         14.7395780000      11.3972595000       1.7622120000
O         21.1148280000       5.4050095000       5.2268120000
O         23.5119220000       0.5872405000       1.7622120000
O         17.1366720000       6.5794905000       5.2268120000
O         16.7541570000      11.1935230000       6.9660412000
O         23.1294070000       5.2012730000       3.5014412000
O         21.4973430000       0.7909770000       6.9660412000
O         15.1220930000       6.7832270000       3.5014412000
O         16.8179095000       8.7726540000       3.1341936000
O         23.1931595000       2.7804040000       6.5987936000
O         21.4335905000       3.2118460000       3.1341936000
O         15.0583405000       9.2040960000       6.5987936000
O         18.7942370000       7.4423745000       2.4828488000
O         25.1694870000       1.4501245000       5.9474488000
O         19.4572630000       4.5421255000       2.4828488000
O         13.0820130000      10.5343755000       5.9474488000
O         18.9982450000       9.6355380000       2.0185924000
O         25.3734950000       3.6432880000       5.4831924000
O         19.2532550000       2.3489620000       2.0185924000
O         12.8780050000       8.3412120000       5.4831924000
O         17.3406800000       8.3531965000       7.6866780000
O         23.7159300000       2.3609465000       4.2220780000
O         20.9108200000       3.6313035000       7.6866780000
O         14.5355700000       9.6235535000       4.2220780000
O         14.8033305000       2.7804040000       3.2173440000
O         21.1785805000       8.7726540000       6.6819440000
O         23.4481695000       9.2040960000       3.2173440000
O         17.0729195000       3.2118460000       6.6819440000
O         13.0692625000       4.5061720000       2.3789108000
O         19.4445125000      10.4984220000       5.8435108000
O         25.1822375000       7.4783280000       2.3789108000
O         18.8069875000       1.4860780000       5.8435108000
O         12.9035060000       2.2291170000       1.8315040000
O         19.2787560000       8.2213670000       5.2961040000
O         25.3479940000       9.7553830000       1.8315040000
O         18.9727440000       3.7631330000       5.2961040000
O         14.8288315000       3.5354275000       7.8737664000
O         21.2040815000       9.5276775000       4.4091664000
O         23.4226685000       8.4490725000       7.8737664000
O         17.0474185000       2.4568225000       4.4091664000
O         16.9454145000       5.4529475000       1.1663008000
O         23.3206645000      11.4451975000       4.6309008000
O         21.3060855000       6.5315525000       1.1663008000
O         14.9308355000       0.5393025000       4.6309008000
O         14.8798335000       6.6633820000       7.9014832000
O         21.2550835000       0.6711320000       4.4368832000
O         23.3716665000       5.3211180000       7.9014832000
O         16.9964165000      11.3133680000       4.4368832000
H         17.6211910000       6.1720175000       1.2148052000
H         23.9964410000       0.1797675000       4.6794052000
H         20.6303090000       5.8124825000       1.2148052000
H         14.2550590000      11.8047325000       4.6794052000
H         16.4226440000       5.6207305000       7.2709260000
H         22.7978940000      11.6129805000       3.8063260000
H         21.8288560000       6.3637695000       7.2709260000
H         15.4536060000       0.3715195000       3.8063260000
H         15.1858455000       5.9922500000       1.6028404000
H         21.5610955000       0.0000000000       5.0674404000
H         23.0656545000       5.9922500000       1.6028404000
H         16.6904045000       0.0000000000       5.0674404000
H         15.4536060000       6.5675060000       7.1254128000
H         21.8288560000       0.5752560000       3.6608128000
H         22.7978940000       5.4169940000       7.1254128000
H         16.4226440000      11.4092440000       3.6608128000
S         15.8616220000      23.9570155000       1.0485044000
S         22.2368720000      17.9647655000       4.5131044000
S         22.3898780000      11.9964845000       1.0485044000
S         16.0146280000      17.9887345000       4.5131044000
S         17.9144525000      20.5893710000       2.1294596000
S         24.2897025000      14.5971210000       5.5940596000
S         20.3370475000      15.3641290000       2.1294596000
S         13.9617975000      21.3563790000       5.5940596000
S         13.9107955000      15.2922220000       2.1225304000
S         20.2860455000      21.2844720000       5.5871304000
S         24.3407045000      20.6612780000       2.1225304000
S         17.9654545000      14.6690280000       5.5871304000
Ca        19.1257500000      11.9845000000       1.0000000000
Ca        12.7505000000      17.9767500000       4.4646000000
Ca        14.5483205000      20.6492935000       1.9631588000
Ca        20.9235705000      14.6570435000       5.4277588000
Ca        23.7031795000      15.3042065000       1.9631588000
Ca        17.3279295000      21.2964565000       5.4277588000
Ca        17.0984205000      15.0884855000       2.3096188000
Ca        23.4736705000      21.0807355000       5.7742188000
Ca        21.1530795000      20.8650145000       2.3096188000
Ca        14.7778295000      14.8727645000       5.7742188000
Ca        12.7505000000      11.9845000000       1.0000000000
Ca        19.1257500000      17.9767500000       4.4646000000
O         16.5884005000      13.0271515000       1.7552828000
O         22.9636505000      19.0194015000       5.2198828000
O         21.6630995000      22.9263485000       1.7552828000
O         15.2878495000      16.9340985000       5.2198828000
O         15.0073385000      13.0511205000       7.3194304000
O         21.3825885000      19.0433705000       3.8548304000
O         23.2441615000      22.9023795000       7.3194304000
O         16.8689115000      16.9101295000       3.8548304000
O         14.7395780000      23.3817595000       1.7622120000
O         21.1148280000      17.3895095000       5.2268120000
O         23.5119220000      12.5717405000       1.7622120000
O         17.1366720000      18.5639905000       5.2268120000
O         16.7541570000      23.1780230000       6.9660412000
O         23.1294070000      17.1857730000       3.5014412000
O         21.4973430000      12.7754770000       6.9660412000
O         15.1220930000      18.7677270000       3.5014412000
O         16.8179095000      20.7571540000       3.1341936000
O         23.1931595000      14.7649040000       6.5987936000
O         21.4335905000      15.1963460000       3.1341936000
O         15.0583405000      21.1885960000       6.5987936000
O         18.7942370000      19.4268745000       2.4828488000
O         25.1694870000      13.4346245000       5.9474488000
O         19.4572630000      16.5266255000       2.4828488000
O         13.0820130000      22.5188755000       5.9474488000
O         18.9982450000      21.6200380000       2.0185924000
O         25.3734950000      15.6277880000       5.4831924000
O         19.2532550000      14.3334620000       2.0185924000
O         12.8780050000      20.3257120000       5.4831924000
O         17.3406800000      20.3376965000       7.6866780000
O         23.7159300000      14.3454465000       4.2220780000
O         20.9108200000      15.6158035000       7.6866780000
O         14.5355700000      21.6080535000       4.2220780000
O         14.8033305000      14.7649040000       3.2173440000
O         21.1785805000      20.7571540000       6.6819440000
O         23.4481695000      21.1885960000       3.2173440000
O         17.0729195000      15.1963460000       6.6819440000
O         13.0692625000      16.4906720000       2.3789108000
O         19.4445125000      22.4829220000       5.8435108000
O         25.1822375000      19.4628280000       2.3789108000
O         18.8069875000      13.4705780000       5.8435108000
O         12.9035060000      14.2136170000       1.8315040000
O         19.2787560000      20.2058670000       5.2961040000
O         25.3479940000      21.7398830000       1.8315040000
O         18.9727440000      15.7476330000       5.2961040000
O         14.8288315000      15.5199275000       7.8737664000
O         21.2040815000      21.5121775000       4.4091664000
O         23.4226685000      20.4335725000       7.8737664000
O         17.0474185000      14.4413225000       4.4091664000
O         16.9454145000      17.4374475000       1.1663008000
O         23.3206645000      23.4296975000       4.6309008000
O         21.3060855000      18.5160525000       1.1663008000
O         14.9308355000      12.5238025000       4.6309008000
O         14.8798335000      18.6478820000       7.9014832000
O         21.2550835000      12.6556320000       4.4368832000
O         23.3716665000      17.3056180000       7.9014832000
O         16.9964165000      23.2978680000       4.4368832000
H         17.6211910000      18.1565175000       1.2148052000
H         23.9964410000      12.1642675000       4.6794052000
H         20.6303090000      17.7969825000       1.2148052000
H         14.2550590000      23.7892325000       4.6794052000
H         16.4226440000      17.6052305000       7.2709260000
H         22.7978940000      23.5974805000       3.8063260000
H         21.8288560000      18.3482695000       7.2709260000
H         15.4536060000      12.3560195000       3.8063260000
H         15.1858455000      17.9767500000       1.6028404000
H         21.5610955000      11.9845000000       5.0674404000
H         23.0656545000      17.9767500000       1.6028404000
H         16.6904045000      11.9845000000       5.0674404000
H         15.4536060000      18.5520060000       7.1254128000
H         21.8288560000      12.5597560000       3.6608128000
H         22.7978940000      17.4014940000       7.1254128000
H         16.4226440000      23.3937440000       3.6608128000
