 DBCSR| CPU Multiplication driver                                           XSMM (U)
 DBCSR| Multrec recursion limit                                              512 (U)
 DBCSR| Multiplication stack size                                           1000 (D)
 DBCSR| Maximum elements for images                                    UNLIMITED (U)
 DBCSR| Multiplicative factor virtual images                                   1 (U)
 DBCSR| Use multiplication densification                                       T (D)
 DBCSR| Multiplication size stacks                                             3 (U)
 DBCSR| Use memory pool for CPU allocation                                     F (U)
 DBCSR| Number of 3D layers                                               SINGLE (U)
 DBCSR| Use MPI memory allocation                                              F (U)
 DBCSR| Use RMA algorithm                                                      F (U)
 DBCSR| Use Communication thread                                               T (U)
 DBCSR| Communication thread load                                             87 (D)
 DBCSR| MPI: My process id                                                     0
 DBCSR| MPI: Number of processes                                             192
 DBCSR| OMP: Current number of threads                                         1
 DBCSR| OMP: Max number of threads                                             1
 DBCSR| Split modifier for TAS multiplication algorithm                  1.0E+00 (U)


  **** **** ******  **  PROGRAM STARTED AT               2026-08-23 23:00:35.082
 ***** ** ***  *** **   PROGRAM STARTED ON                                 n0552
 **    ****   ******    PROGRAM STARTED BY                              tangsiqi
 ***** **    ** ** **   PROGRAM PROCESS ID                                668226
  **** **  *******  **  PROGRAM STARTED IN /scratch/tangsiqi/liyi_folder/AI_phos
                                           phogypsum/2.CP2K_GeoOpt/2.1.2CSO-0.58
                                           3H2O

 CP2K| version string:                                       CP2K version 2026.2
 CP2K| source code revision number:                                  git:c92cc08
 CP2K| cp2kflags: omp libint fftw3 libxc elpa parallel scalapack mpi_f08 cosma l
 CP2K|            ibxs libxsmm plumed2 spglib libdftd4 dftd4_v4_2 s_dftd3 mctc-l
 CP2K|            lib tblite libvori libbqb mimic hdf5 trexio libsmeagol greenx
 CP2K| is freely available from                            https://www.cp2k.org/
 CP2K| Program compiled at                                   2026-08-15 22:43:53
 CP2K| Program compiled on                                                 n0529
 CP2K| Program compiled for                                               x86_64
 CP2K| Data directory path          /scratch/tangsiqi/CP2K_pkg/cp2k-v202602/data
 CP2K| Input file name                                               geo_opt.inp

 GLOBAL| Force Environment number                                              1
 GLOBAL| Basis set file name                                    BASIS_MOLOPT_UZH
 GLOBAL| Potential file name                                       POTENTIAL_UZH
 GLOBAL| MM Potential file name                                     MM_POTENTIAL
 GLOBAL| Coordinate file name                              2.1.2CSO-0.583H2O.xyz
 GLOBAL| Method name                                                        CP2K
 GLOBAL| Project name                                         gypsum_slab_geoopt
 GLOBAL| Run type                                                        GEO_OPT
 GLOBAL| FFT library                                                       FFTW3
 GLOBAL| Diagonalization library                                            ELPA
 GLOBAL| Cholesky decomposition library                                ScaLAPACK
 GLOBAL| DGEMM library                                                      BLAS
 GLOBAL| Minimum number of eigenvectors for ELPA usage                        64
 GLOBAL| Orthonormality check for eigenvectors                          DISABLED
 GLOBAL| Matrix multiplication library                                     COSMA
 GLOBAL| All-to-all communication in single precision                          F
 GLOBAL| FFTs using library dependent lengths                                  T
 GLOBAL| Grid backend                                                       AUTO
 GLOBAL| Global print level                                                  LOW
 GLOBAL| MPI I/O enabled                                                       T
 GLOBAL| Total number of message passing processes                           192
 GLOBAL| Number of distributed systems (nodes)                                 1
 GLOBAL| Number of threads for this process                                    1
 GLOBAL| This output is from process                                           0
 GLOBAL| OpenMP stack size per thread (OMP_STACKSIZE)                       128M
 GLOBAL| CPU model name                          AMD EPYC 9A14 96-Core Processor
 GLOBAL| CPUID                                                              1003

 MEMORY| system memory details [Kb]
 MEMORY|                        rank 0           min           max       average
 MEMORY| MemTotal            791724168     791724168     791724168     791724168
 MEMORY| MemFree             696785024     696770776     696785024     696784035
 MEMORY| Buffers                 98264         98264         98264         98264
 MEMORY| Cached               56756956      56756956      56756956      56756956
 MEMORY| Slab                  1596660       1596648       1596660       1596658
 MEMORY| SReclaimable           447760        447760        447760        447760
 MEMORY| MemLikelyFree       754088004     754073756     754088004     754087015


 GENERATE|  Preliminary Number of Bonds generated:                             0
 GENERATE|  Achieved consistency in connectivity generation.

 *******************************************************************************
 *******************************************************************************
 **                                                                           **
 **     #####                         ##              ##                      **
 **    ##   ##            ##          ##              ##                      **
 **   ##     ##                       ##            ######                    **
 **   ##     ##  ##   ##  ##   #####  ##  ##   ####   ##    #####    #####    **
 **   ##     ##  ##   ##  ##  ##      ## ##   ##      ##   ##   ##  ##   ##   **
 **   ##  ## ##  ##   ##  ##  ##      ####     ###    ##   ######   ######    **
 **    ##  ###   ##   ##  ##  ##      ## ##      ##   ##   ##       ##        **
 **     #######   #####   ##   #####  ##  ##  ####    ##    #####   ##        **
 **           ##                                                    ##        **
 **                                                                           **
 **                                                ... make the atoms dance   **
 **                                                                           **
 **            Copyright (C) by CP2K developers group (2000-2026)             **
 **                      J. Chem. Phys. 152, 194103 (2020)                    **
 **                                                                           **
 *******************************************************************************


 TOTAL NUMBERS AND MAXIMUM NUMBERS

  Total number of            - Atomic kinds:                                   4
                             - Atoms:                                        384
                             - Shell sets:                                   384
                             - Shells:                                      2032
                             - Primitive Cartesian functions:               1920
                             - Cartesian basis functions:                   5488
                             - Spherical basis functions:                   5104

  Maximum angular momentum of- Orbital basis functions:                        2
                             - Local part of the GTH pseudopotential:          2
                             - Non-local part of the GTH pseudopotential:      3


 SCF PARAMETERS         Density guess:                                    ATOMIC
                        --------------------------------------------------------
                        max_scf:                                             200
                        max_scf_history:                                       0
                        max_diis:                                              4
                        --------------------------------------------------------
                        eps_scf:                                        1.50E-06
                        eps_scf_history:                                0.00E+00
                        eps_diis:                                       0.00E+00
                        eps_eigval:                                     1.00E-05
                        --------------------------------------------------------
                        level_shift [a.u.]:                             0.000000
                        --------------------------------------------------------
                        Outer loop SCF in use 
                        No variables optimised in outer loop
                        eps_scf                                         1.50E-06
                        max_scf                                               30
                        No outer loop optimization
                        step_size                                       5.00E-01

 BFGS| Use rational function optimization for step estimation:                NO
 BFGS| Use model Hessian for initial guess:                                  YES
 BFGS| Restart Hessian:                                                       NO
 BFGS| Trust radius:                                                       0.378

 *******************************************************************************
 ***                     STARTING GEOMETRY OPTIMIZATION                      ***
 ***                                   BFGS                                  ***
 *******************************************************************************

 Extrapolation method: initial_guess

 Number of electrons:                                                       2176
 Number of occupied orbitals:                                               1088
 Number of molecular orbitals:                                              1088

 Number of orbital functions:                                               5104
 Number of independent orbital functions:                                   5104


 SCF WAVEFUNCTION OPTIMIZATION

  ----------------------------------- OT ---------------------------------------
  Minimizer      : CG                  : conjugate gradient
  Preconditioner : FULL_ALL            : diagonalization, state selective
  Precond_solver : DEFAULT
  Line search    : 2PNT                : 2 energies, one gradient
  stepsize       :    0.15000000                  energy_gap     :    0.00100000
  eps_taylor     :   0.10000E-15                  max_taylor     :             4
  ----------------------------------- OT ---------------------------------------

  Step     Update method      Time    Convergence         Total energy    Change
  ------------------------------------------------------------------------------
     1 OT CG       0.15E+00   13.0     0.02911030     -5669.2112184139 -5.67E+03
     - OT LS       0.60E-01    1.0                    -5499.0182174171
     2 OT CG       0.60E-01    2.1     0.10461136     -5502.6485452701  1.67E+02
     - OT LS       0.30E-01    0.9                    -5482.0839096415
     3 OT CG       0.30E-01    1.9     0.07867023     -5638.5233957038 -1.36E+02
     - OT LS       0.14E-01    0.9                    -5615.3842748446
     4 OT CG       0.14E-01    1.6     0.04938507     -5673.5064621067 -3.50E+01
     - OT LS       0.11E-01    0.9                    -5746.8941409449
     5 OT CG       0.11E-01    1.6     0.01656159     -5748.0169390885 -7.45E+01
     - OT LS       0.45E-01    0.9                    -5764.1174921921
     6 OT CG       0.45E-01    1.6     0.01284030     -5793.3328006778 -4.53E+01
     - OT LS       0.51E-01    0.8                    -5821.0864477401
     7 OT CG       0.51E-01    1.5     0.01260109     -5822.3559393631 -2.90E+01
     - OT LS       0.21E-01    0.8                    -5810.7414407178
     8 OT CG       0.21E-01    1.5     0.00771235     -5835.0179151532 -1.27E+01
     - OT LS       0.82E-01    0.8                    -5841.5553098611
     9 OT CG       0.82E-01    1.5     0.00596591     -5849.4840064607 -1.45E+01
     - OT LS       0.59E-01    0.8                    -5854.3223680405
    10 OT CG       0.59E-01    1.5     0.00575303     -5854.7906809960 -5.31E+00
     - OT LS       0.38E-01    0.8                    -5857.3233685760
    11 OT CG       0.38E-01    1.6     0.00401804     -5858.5541746843 -3.76E+00
     - OT LS       0.62E-01    0.8                    -5860.9158256475
    12 OT CG       0.62E-01    1.5     0.00303021     -5861.4090458220 -2.85E+00
     - OT LS       0.66E-01    0.8                    -5863.1726439769
    13 OT CG       0.66E-01    1.5     0.00276179     -5863.1818882407 -1.77E+00
     - OT LS       0.66E-01    0.8                    -5864.6002505938
    14 OT CG       0.66E-01    1.4     0.00228207     -5864.6000645140 -1.42E+00
     - OT LS       0.73E-01    0.8                    -5865.6288311478
    15 OT CG       0.73E-01    1.4     0.00189491     -5865.6418884291 -1.04E+00
     - OT LS       0.73E-01    0.8                    -5866.3867897646
    16 OT CG       0.73E-01    1.4     0.00177310     -5866.3867639227 -7.45E-01
     - OT LS       0.72E-01    0.8                    -5866.9926653689
    17 OT CG       0.72E-01    1.4     0.00143845     -5866.9922402716 -6.05E-01
     - OT LS       0.80E-01    0.8                    -5867.4570106244
    18 OT CG       0.80E-01    1.4     0.00134404     -5867.4618925641 -4.70E-01
     - OT LS       0.85E-01    0.8                    -5867.8841273610
    19 OT CG       0.85E-01    1.5     0.00115164     -5867.8851129963 -4.23E-01
     - OT LS       0.90E-01    0.8                    -5868.2111468752
    20 OT CG       0.90E-01    1.4     0.00106149     -5868.2128433282 -3.28E-01
     - OT LS       0.80E-01    0.8                    -5868.4677006175
    21 OT CG       0.80E-01    1.5     0.00094010     -5868.4724103187 -2.60E-01
     - OT LS       0.10E+00    0.8                    -5868.7109984599
    22 OT CG       0.10E+00    1.4     0.00086215     -5868.7255036597 -2.53E-01
     - OT LS       0.95E-01    0.8                    -5868.9212220509
    23 OT CG       0.95E-01    1.4     0.00078944     -5868.9226433878 -1.97E-01
     - OT LS       0.98E-01    0.8                    -5869.0940565638
    24 OT CG       0.98E-01    1.4     0.00075253     -5869.0940604474 -1.71E-01
     - OT LS       0.10E+00    0.8                    -5869.2509264248
    25 OT CG       0.10E+00    1.4     0.00068454     -5869.2512741417 -1.57E-01
     - OT LS       0.96E-01    0.8                    -5869.3775680221
    26 OT CG       0.96E-01    1.4     0.00062560     -5869.3779871540 -1.27E-01
     - OT LS       0.10E+00    0.8                    -5869.4905198550
    27 OT CG       0.10E+00    1.4     0.00061025     -5869.4910691235 -1.13E-01
     - OT LS       0.10E+00    0.8                    -5869.5932172215
    28 OT CG       0.10E+00    1.4     0.00054483     -5869.5933270685 -1.02E-01
     - OT LS       0.11E+00    0.8                    -5869.6807901750
    29 OT CG       0.11E+00    1.4     0.00052127     -5869.6810035093 -8.77E-02
     - OT LS       0.10E+00    0.8                    -5869.7593074451
    30 OT CG       0.10E+00    1.4     0.00051215     -5869.7593204659 -7.83E-02
     - OT LS       0.96E-01    0.8                    -5869.8286455039
    31 OT CG       0.96E-01    1.4     0.00046678     -5869.8290904947 -6.98E-02
     - OT LS       0.10E+00    0.8                    -5869.8901798762
    32 OT CG       0.10E+00    1.4     0.00045327     -5869.8902994522 -6.12E-02
     - OT LS       0.96E-01    0.8                    -5869.9449208855
    33 OT CG       0.96E-01    1.4     0.00043433     -5869.9450431555 -5.47E-02
     - OT LS       0.96E-01    0.8                    -5869.9954720015
    34 OT CG       0.96E-01    1.4     0.00039620     -5869.9954727326 -5.04E-02
     - OT LS       0.10E+00    0.8                    -5870.0405767368
    35 OT CG       0.10E+00    1.4     0.00038343     -5870.0407852761 -4.53E-02
     - OT LS       0.10E+00    0.8                    -5870.0831595403
    36 OT CG       0.10E+00    1.4     0.00036646     -5870.0831606622 -4.24E-02
     - OT LS       0.10E+00    0.8                    -5870.1213300510
    37 OT CG       0.10E+00    1.4     0.00034642     -5870.1213374397 -3.82E-02
     - OT LS       0.10E+00    0.8                    -5870.1556766404
    38 OT CG       0.10E+00    1.4     0.00033586     -5870.1556768134 -3.43E-02
     - OT LS       0.99E-01    0.8                    -5870.1865763443
    39 OT CG       0.99E-01    1.4     0.00032294     -5870.1866179767 -3.09E-02
     - OT LS       0.96E-01    0.8                    -5870.2145704498
    40 OT CG       0.96E-01    1.4     0.00030235     -5870.2145863766 -2.80E-02
     - OT LS       0.10E+00    0.8                    -5870.2405420431
    41 OT CG       0.10E+00    1.4     0.00029134     -5870.2406207838 -2.60E-02
     - OT LS       0.10E+00    0.8                    -5870.2647261575
    42 OT CG       0.10E+00    1.4     0.00028029     -5870.2647264427 -2.41E-02
     - OT LS       0.10E+00    0.8                    -5870.2867367984
    43 OT CG       0.10E+00    1.4     0.00026512     -5870.2867412320 -2.20E-02
     - OT LS       0.10E+00    0.8                    -5870.3071260594
    44 OT CG       0.10E+00    1.4     0.00025695     -5870.3071455310 -2.04E-02
     - OT LS       0.10E+00    0.8                    -5870.3256186255
    45 OT CG       0.10E+00    1.4     0.00025067     -5870.3256355809 -1.85E-02
     - OT LS       0.97E-01    0.8                    -5870.3425660751
    46 OT CG       0.97E-01    1.4     0.00023694     -5870.3425909632 -1.70E-02
     - OT LS       0.10E+00    0.8                    -5870.3586694696
    47 OT CG       0.10E+00    1.4     0.00023048     -5870.3587231239 -1.61E-02
     - OT LS       0.10E+00    0.8                    -5870.3737544219
    48 OT CG       0.10E+00    1.4     0.00022465     -5870.3737559514 -1.50E-02
     - OT LS       0.10E+00    0.8                    -5870.3878378812
    49 OT CG       0.10E+00    1.4     0.00021402     -5870.3878403585 -1.41E-02
     - OT LS       0.10E+00    0.8                    -5870.4011422677
    50 OT CG       0.10E+00    1.4     0.00020826     -5870.4011604228 -1.33E-02
     - OT LS       0.10E+00    0.8                    -5870.4136240912
    51 OT CG       0.10E+00    1.4     0.00020283     -5870.4136248472 -1.25E-02
     - OT LS       0.10E+00    0.8                    -5870.4251975957
    52 OT CG       0.10E+00    1.4     0.00019417     -5870.4252020561 -1.16E-02
     - OT LS       0.10E+00    0.8                    -5870.4360977479
    53 OT CG       0.10E+00    1.4     0.00018858     -5870.4361042836 -1.09E-02
     - OT LS       0.10E+00    0.8                    -5870.4463488674
    54 OT CG       0.10E+00    1.4     0.00018441     -5870.4463488647 -1.02E-02
     - OT LS       0.10E+00    0.8                    -5870.4558725668
    55 OT CG       0.10E+00    1.4     0.00017826     -5870.4558791522 -9.53E-03
     - OT LS       0.10E+00    0.8                    -5870.4649226116
    56 OT CG       0.10E+00    1.4     0.00017317     -5870.4649243785 -9.05E-03
     - OT LS       0.10E+00    0.8                    -5870.4734981545
    57 OT CG       0.10E+00    1.4     0.00016897     -5870.4734985448 -8.57E-03
     - OT LS       0.10E+00    0.8                    -5870.4816040013
    58 OT CG       0.10E+00    1.4     0.00016359     -5870.4816041701 -8.11E-03
     - OT LS       0.10E+00    0.8                    -5870.4893404809
    59 OT CG       0.10E+00    1.4     0.00015966     -5870.4893428852 -7.74E-03
     - OT LS       0.10E+00    0.8                    -5870.4966790550
    60 OT CG       0.10E+00    1.4     0.00015698     -5870.4966790992 -7.34E-03
     - OT LS       0.10E+00    0.8                    -5870.5036050359
    61 OT CG       0.10E+00    1.4     0.00015307     -5870.5036082228 -6.93E-03
     - OT LS       0.10E+00    0.8                    -5870.5102679004
    62 OT CG       0.10E+00    1.4     0.00014903     -5870.5102686052 -6.66E-03
     - OT LS       0.10E+00    0.8                    -5870.5166432691
    63 OT CG       0.10E+00    1.4     0.00014574     -5870.5166441349 -6.38E-03
     - OT LS       0.10E+00    0.8                    -5870.5227159900
    64 OT CG       0.10E+00    1.4     0.00014117     -5870.5227159959 -6.07E-03
     - OT LS       0.10E+00    0.8                    -5870.5285380400
    65 OT CG       0.10E+00    1.4     0.00013816     -5870.5285407181 -5.82E-03
     - OT LS       0.10E+00    0.8                    -5870.5340283821
    66 OT CG       0.10E+00    1.4     0.00013556     -5870.5340295477 -5.49E-03
     - OT LS       0.10E+00    0.8                    -5870.5392241525
    67 OT CG       0.10E+00    1.4     0.00013212     -5870.5392252768 -5.20E-03
     - OT LS       0.10E+00    0.8                    -5870.5441898783
    68 OT CG       0.10E+00    1.4     0.00012886     -5870.5441900107 -4.96E-03
     - OT LS       0.10E+00    0.8                    -5870.5489276629
    69 OT CG       0.10E+00    1.4     0.00012619     -5870.5489277627 -4.74E-03
     - OT LS       0.10E+00    0.8                    -5870.5534697124
    70 OT CG       0.10E+00    1.4     0.00012305     -5870.5534697226 -4.54E-03
     - OT LS       0.10E+00    0.8                    -5870.5578363548
    71 OT CG       0.10E+00    1.4     0.00012052     -5870.5578368455 -4.37E-03
     - OT LS       0.10E+00    0.8                    -5870.5620297160
    72 OT CG       0.10E+00    1.4     0.00011820     -5870.5620297307 -4.19E-03
     - OT LS       0.10E+00    0.8                    -5870.5660622740
    73 OT CG       0.10E+00    1.4     0.00011570     -5870.5660622871 -4.03E-03
     - OT LS       0.10E+00    0.8                    -5870.5699427286
    74 OT CG       0.10E+00    1.4     0.00011312     -5870.5699427881 -3.88E-03
     - OT LS       0.10E+00    0.8                    -5870.5736662201
    75 OT CG       0.10E+00    1.4     0.00011136     -5870.5736663009 -3.72E-03
     - OT LS       0.10E+00    0.8                    -5870.5772319595
    76 OT CG       0.10E+00    1.4     0.00010954     -5870.5772322990 -3.57E-03
     - OT LS       0.10E+00    0.8                    -5870.5806444224
    77 OT CG       0.10E+00    1.4     0.00010709     -5870.5806448115 -3.41E-03
     - OT LS       0.10E+00    0.8                    -5870.5839381468
    78 OT CG       0.10E+00    1.4     0.00010521     -5870.5839384797 -3.29E-03
     - OT LS       0.10E+00    0.8                    -5870.5871207008
    79 OT CG       0.10E+00    1.4     0.00010295     -5870.5871207242 -3.18E-03
     - OT LS       0.10E+00    0.8                    -5870.5901925495
    80 OT CG       0.10E+00    1.4     0.00010083     -5870.5901927978 -3.07E-03
     - OT LS       0.10E+00    0.8                    -5870.5931409388
    81 OT CG       0.10E+00    1.4     0.00009935     -5870.5931409386 -2.95E-03
     - OT LS       0.10E+00    0.8                    -5870.5959676873
    82 OT CG       0.10E+00    1.4     0.00009782     -5870.5959680070 -2.83E-03
     - OT LS       0.10E+00    0.8                    -5870.5986821677
    83 OT CG       0.10E+00    1.4     0.00009579     -5870.5986823609 -2.71E-03
     - OT LS       0.10E+00    0.8                    -5870.6013140269
    84 OT CG       0.10E+00    1.4     0.00009403     -5870.6013143657 -2.63E-03
     - OT LS       0.10E+00    0.8                    -5870.6038771844
    85 OT CG       0.10E+00    1.4     0.00009231     -5870.6038775283 -2.56E-03
     - OT LS       0.10E+00    0.8                    -5870.6063609711
    86 OT CG       0.10E+00    1.4     0.00009071     -5870.6063610877 -2.48E-03
     - OT LS       0.10E+00    0.8                    -5870.6087569313
    87 OT CG       0.10E+00    1.4     0.00008955     -5870.6087569285 -2.40E-03
     - OT LS       0.10E+00    0.8                    -5870.6110690028
    88 OT CG       0.10E+00    1.4     0.00008850     -5870.6110691883 -2.31E-03
     - OT LS       0.10E+00    0.7                    -5870.6133084638
    89 OT CG       0.10E+00    1.4     0.00008694     -5870.6133085690 -2.24E-03
     - OT LS       0.10E+00    0.8                    -5870.6154841213
    90 OT CG       0.10E+00    1.4     0.00008574     -5870.6154842392 -2.18E-03
     - OT LS       0.10E+00    0.8                    -5870.6176131859
    91 OT CG       0.10E+00    1.4     0.00008454     -5870.6176132668 -2.13E-03
     - OT LS       0.10E+00    0.8                    -5870.6196846150
    92 OT CG       0.10E+00    1.4     0.00008346     -5870.6196846257 -2.07E-03
     - OT LS       0.10E+00    0.8                    -5870.6216979551
    93 OT CG       0.10E+00    1.3     0.00008231     -5870.6216979575 -2.01E-03
     - OT LS       0.10E+00    0.8                    -5870.6236566074
    94 OT CG       0.10E+00    1.4     0.00008109     -5870.6236566064 -1.96E-03
     - OT LS       0.10E+00    0.8                    -5870.6255628314
    95 OT CG       0.10E+00    1.4     0.00008016     -5870.6255628593 -1.91E-03
     - OT LS       0.10E+00    0.8                    -5870.6274180122
    96 OT CG       0.10E+00    1.3     0.00007896     -5870.6274180246 -1.86E-03
     - OT LS       0.10E+00    0.8                    -5870.6292194767
    97 OT CG       0.10E+00    1.4     0.00007785     -5870.6292194762 -1.80E-03
     - OT LS       0.10E+00    0.8                    -5870.6309753008
    98 OT CG       0.10E+00    1.4     0.00007696     -5870.6309753229 -1.76E-03
     - OT LS       0.10E+00    0.8                    -5870.6326828483
    99 OT CG       0.10E+00    1.4     0.00007589     -5870.6326828696 -1.71E-03
     - OT LS       0.10E+00    0.8                    -5870.6343520664
   100 OT CG       0.10E+00    1.4     0.00007486     -5870.6343521118 -1.67E-03
     - OT LS       0.10E+00    0.7                    -5870.6359864603
   101 OT CG       0.10E+00    1.4     0.00007404     -5870.6359865420 -1.63E-03
     - OT LS       0.10E+00    0.8                    -5870.6375842736
   102 OT CG       0.10E+00    1.4     0.00007333     -5870.6375842722 -1.60E-03
     - OT LS       0.10E+00    0.8                    -5870.6391478165
   103 OT CG       0.10E+00    1.3     0.00007276     -5870.6391478267 -1.56E-03
     - OT LS       0.10E+00    0.8                    -5870.6406822893
   104 OT CG       0.10E+00    1.4     0.00007230     -5870.6406822972 -1.53E-03
     - OT LS       0.10E+00    0.8                    -5870.6421890049
   105 OT CG       0.10E+00    1.4     0.00007164     -5870.6421890253 -1.51E-03
     - OT LS       0.10E+00    0.7                    -5870.6436676682
   106 OT CG       0.10E+00    1.4     0.00007090     -5870.6436676686 -1.48E-03
     - OT LS       0.10E+00    0.7                    -5870.6451246303
   107 OT CG       0.10E+00    1.4     0.00007033     -5870.6451246877 -1.46E-03
     - OT LS       0.10E+00    0.8                    -5870.6465537012
   108 OT CG       0.10E+00    1.4     0.00006942     -5870.6465537046 -1.43E-03
     - OT LS       0.10E+00    0.8                    -5870.6479442752
   109 OT CG       0.10E+00    1.4     0.00006847     -5870.6479442758 -1.39E-03
     - OT LS       0.10E+00    0.8                    -5870.6493031006
   110 OT CG       0.10E+00    1.4     0.00006752     -5870.6493031311 -1.36E-03
     - OT LS       0.10E+00    0.8                    -5870.6506255248
   111 OT CG       0.10E+00    1.4     0.00006663     -5870.6506255299 -1.32E-03
     - OT LS       0.10E+00    0.8                    -5870.6519123197
   112 OT CG       0.10E+00    1.4     0.00006574     -5870.6519123176 -1.29E-03
     - OT LS       0.10E+00    0.8                    -5870.6531682067
   113 OT CG       0.10E+00    1.3     0.00006506     -5870.6531682201 -1.26E-03
     - OT LS       0.10E+00    0.8                    -5870.6543920406
   114 OT CG       0.10E+00    1.3     0.00006425     -5870.6543920474 -1.22E-03
     - OT LS       0.10E+00    0.8                    -5870.6555848629
   115 OT CG       0.10E+00    1.4     0.00006336     -5870.6555848603 -1.19E-03
     - OT LS       0.10E+00    0.8                    -5870.6567516286
   116 OT CG       0.10E+00    1.3     0.00006259     -5870.6567516733 -1.17E-03
     - OT LS       0.10E+00    0.8                    -5870.6578932454
   117 OT CG       0.10E+00    1.3     0.00006184     -5870.6578932722 -1.14E-03
     - OT LS       0.10E+00    0.8                    -5870.6590022124
   118 OT CG       0.10E+00    1.4     0.00006108     -5870.6590022258 -1.11E-03
     - OT LS       0.10E+00    0.7                    -5870.6600879549
   119 OT CG       0.10E+00    1.3     0.00006066     -5870.6600879707 -1.09E-03
     - OT LS       0.10E+00    0.8                    -5870.6611534849
   120 OT CG       0.10E+00    1.4     0.00006012     -5870.6611534915 -1.07E-03
     - OT LS       0.10E+00    0.8                    -5870.6621981927
   121 OT CG       0.10E+00    1.4     0.00005950     -5870.6621981905 -1.04E-03
     - OT LS       0.10E+00    0.8                    -5870.6632272042
   122 OT CG       0.10E+00    1.3     0.00005898     -5870.6632272443 -1.03E-03
     - OT LS       0.10E+00    0.8                    -5870.6642416932
   123 OT CG       0.10E+00    1.3     0.00005853     -5870.6642417223 -1.01E-03
     - OT LS       0.10E+00    0.8                    -5870.6652333106
   124 OT CG       0.10E+00    1.4     0.00005780     -5870.6652333479 -9.92E-04
     - OT LS       0.10E+00    0.7                    -5870.6662053598
   125 OT CG       0.10E+00    1.4     0.00005731     -5870.6662053868 -9.72E-04
     - OT LS       0.10E+00    0.8                    -5870.6671569703
   126 OT CG       0.10E+00    1.3     0.00005676     -5870.6671569748 -9.52E-04
     - OT LS       0.10E+00    0.8                    -5870.6680895887
   127 OT CG       0.10E+00    1.3     0.00005616     -5870.6680895876 -9.33E-04
     - OT LS       0.10E+00    0.8                    -5870.6690067726
   128 OT CG       0.10E+00    1.3     0.00005559     -5870.6690067950 -9.17E-04
     - OT LS       0.10E+00    0.8                    -5870.6699089044
   129 OT CG       0.10E+00    1.4     0.00005524     -5870.6699089296 -9.02E-04
     - OT LS       0.10E+00    0.8                    -5870.6707921247
   130 OT CG       0.10E+00    1.3     0.00005466     -5870.6707921716 -8.83E-04
     - OT LS       0.10E+00    0.8                    -5870.6716582649
   131 OT CG       0.10E+00    1.4     0.00005422     -5870.6716582663 -8.66E-04
     - OT LS       0.10E+00    0.8                    -5870.6725087301
   132 OT CG       0.10E+00    1.3     0.00005363     -5870.6725087283 -8.50E-04
     - OT LS       0.10E+00    0.8                    -5870.6733424641
   133 OT CG       0.10E+00    1.4     0.00005297     -5870.6733424715 -8.34E-04
     - OT LS       0.10E+00    0.7                    -5870.6741604430
   134 OT CG       0.10E+00    1.4     0.00005241     -5870.6741604755 -8.18E-04
     - OT LS       0.10E+00    0.8                    -5870.6749622511
   135 OT CG       0.10E+00    1.4     0.00005184     -5870.6749622601 -8.02E-04
     - OT LS       0.10E+00    0.8                    -5870.6757453554
   136 OT CG       0.10E+00    1.4     0.00005116     -5870.6757453524 -7.83E-04
     - OT LS       0.10E+00    0.8                    -5870.6765079999
   137 OT CG       0.10E+00    1.4     0.00005063     -5870.6765079990 -7.63E-04
     - OT LS       0.10E+00    0.8                    -5870.6772541176
   138 OT CG       0.10E+00    1.4     0.00005006     -5870.6772541165 -7.46E-04
     - OT LS       0.10E+00    0.8                    -5870.6779798284
   139 OT CG       0.10E+00    1.4     0.00004948     -5870.6779798317 -7.26E-04
     - OT LS       0.10E+00    0.8                    -5870.6786872683
   140 OT CG       0.10E+00    1.4     0.00004900     -5870.6786872652 -7.07E-04
     - OT LS       0.10E+00    0.8                    -5870.6793826415
   141 OT CG       0.10E+00    1.4     0.00004862     -5870.6793826500 -6.95E-04
     - OT LS       0.10E+00    0.8                    -5870.6800654860
   142 OT CG       0.10E+00    1.4     0.00004815     -5870.6800654845 -6.83E-04
     - OT LS       0.10E+00    0.8                    -5870.6807359835
   143 OT CG       0.10E+00    1.4     0.00004756     -5870.6807359885 -6.71E-04
     - OT LS       0.11E+00    0.8                    -5870.6813974256
   144 OT CG       0.11E+00    1.3     0.00004708     -5870.6813975206 -6.62E-04
     - OT LS       0.11E+00    0.7                    -5870.6820479165
   145 OT CG       0.11E+00    1.3     0.00004669     -5870.6820479343 -6.50E-04
     - OT LS       0.10E+00    0.8                    -5870.6826826810
   146 OT CG       0.10E+00    1.4     0.00004617     -5870.6826827063 -6.35E-04
     - OT LS       0.10E+00    0.7                    -5870.6833029437
   147 OT CG       0.10E+00    1.4     0.00004581     -5870.6833029428 -6.20E-04
     - OT LS       0.10E+00    0.8                    -5870.6839110000
   148 OT CG       0.10E+00    1.3     0.00004542     -5870.6839110043 -6.08E-04
     - OT LS       0.10E+00    0.8                    -5870.6845073112
   149 OT CG       0.10E+00    1.4     0.00004496     -5870.6845073098 -5.96E-04
     - OT LS       0.10E+00    0.8                    -5870.6850931408
   150 OT CG       0.10E+00    1.4     0.00004447     -5870.6850931461 -5.86E-04
     - OT LS       0.10E+00    0.7                    -5870.6856688283
   151 OT CG       0.10E+00    1.3     0.00004408     -5870.6856688484 -5.76E-04
     - OT LS       0.10E+00    0.8                    -5870.6862321592
   152 OT CG       0.10E+00    1.4     0.00004357     -5870.6862321608 -5.63E-04
     - OT LS       0.10E+00    0.8                    -5870.6867832423
   153 OT CG       0.10E+00    1.3     0.00004308     -5870.6867832440 -5.51E-04
     - OT LS       0.10E+00    0.8                    -5870.6873221808
   154 OT CG       0.10E+00    1.3     0.00004264     -5870.6873221810 -5.39E-04
     - OT LS       0.10E+00    0.8                    -5870.6878493268
   155 OT CG       0.10E+00    1.4     0.00004209     -5870.6878493259 -5.27E-04
     - OT LS       0.10E+00    0.7                    -5870.6883642338
   156 OT CG       0.10E+00    1.4     0.00004152     -5870.6883642387 -5.15E-04
     - OT LS       0.10E+00    0.8                    -5870.6888670586
   157 OT CG       0.10E+00    1.3     0.00004109     -5870.6888670689 -5.03E-04
     - OT LS       0.10E+00    0.8                    -5870.6893592449
   158 OT CG       0.10E+00    1.4     0.00004069     -5870.6893592436 -4.92E-04
     - OT LS       0.10E+00    0.8                    -5870.6898408265
   159 OT CG       0.10E+00    1.3     0.00004021     -5870.6898408246 -4.82E-04
     - OT LS       0.10E+00    0.8                    -5870.6903122103
   160 OT CG       0.10E+00    1.3     0.00003995     -5870.6903122166 -4.71E-04
