     384
Lattice="25.5010000000        0.0000000000        0.0000000000        0.0000000000       23.9690000000        0.0000000000        0.0000000000        0.0000000000       21.9014832000" Properties=species:S:1:pos:R:3 pbc="T T F" Converged=F
  S         3.0559628238       12.0013634853        1.0126629203
  S         9.6212994246        5.9763873702        4.3325115933
  S         9.6654004239       -0.1048469443        0.9424409547
  S         3.2066957818        6.0156664629        4.3471229660
  S         5.1736192956        8.6315638821        1.8616283368
  S        11.5979817252        2.7731022329        5.7251505282
  S         7.5564425657        3.3689770691        1.8000688529
  S         1.0688383148        9.2726780791        5.7296963110
  S         1.0918727502        3.3151632709        1.8311781011
  S         7.4716464550        9.3049743577        5.5929231845
  S        11.6620030861        8.6172058135        1.7935383561
  S         5.3487251251        2.7083714596        5.5947935543
 Ca         6.3634263305        0.0423226806        2.6421234704
 Ca         0.0226060360        5.9832518174        4.1727898357
 Ca         1.9117893539        8.8414306172        2.4663148751
 Ca         8.4074865057        2.6782028502        5.5407368496
 Ca        10.8067446170        3.1153338428        2.3881703246
 Ca         4.4007950906        9.3281829787        5.5480961562
 Ca         4.4239682334        3.2555642412        2.3075891589
 Ca        10.6488474969        9.0859538461        5.5600231435
 Ca         8.3112702874        8.7757200427        2.3101841075
 Ca         2.2072256786        2.9220692443        5.6541987454
 Ca        -0.0225827009       -0.0254528729        2.8116867905
 Ca         6.4210779281        6.0059619136        4.2541097298
  O         4.2549908568        0.8503739775        1.6199074502
  O        10.6424695679        6.7386677761        5.1080657665
  O         8.4615718010       11.1756812743        1.6193720417
  O         2.2183912770        5.2087644467        5.1137931372
  O         2.3257600849        1.5591768044        7.6945411329
  O         8.6149824734        6.9056074744        3.7274495861
  O        10.5363357732       10.3863434727        7.6195419294
  O         4.2451338177        5.1264429577        3.7293420243
  O         2.3040651577       11.2625898557        2.1845266378
  O         8.8421744185        5.0351414161        5.1699090224
  O        10.4684376929        0.6881208945        2.0471679423
  O         3.9440167293        6.9900030730        5.1725354346
  O         4.2266504199       10.5433428682        7.6212922294
  O        10.4012838362        5.2857246801        3.2404237186
  O         8.5690407742        1.4651472976        7.6235852182
  O         2.3859052877        6.6649906171        3.2481755893
  O         4.1939198844        8.9233244101        3.0222082720
  O        10.5657767191        3.2060135188        6.6685439192
  O         8.5325375825        3.0150482413        2.9427807700
  O         2.2086917219        8.8807397263        6.5659793399
  O         6.0990103663        7.4522113564        2.2856560735
  O        12.4396023616        1.6479228702        6.1731806965
  O         6.6802759745        4.5646977746        2.2726945082
  O         0.1913420874       10.2945007451        6.3444379908
  O         6.1899080439        9.8217485737        1.8792023979
  O        12.5192143362        3.8929852554        5.3286637633
  O         6.5157592215        2.1997449271        1.8003462007
  O         0.1980334492        8.1067758865        5.3480962757
  O         4.6685629899        9.3782271191        7.8701001678
  O        10.8114570497        2.2826758414        4.4785656794
  O         8.0469623593        2.5741757256        7.9350444895
  O         1.6645458108        9.8915572147        4.4548927011
  O         2.1445905989        3.0284912643        2.9208396706
  O         8.4652375139        8.8054597231        6.5545229651
  O        10.6455178557        8.9157239491        2.9180540592
  O         4.4050171261        3.1412074892        6.6306056131
  O         0.1174482420        4.3852466559        2.4185840609
  O         6.6111639240       10.4248882576        6.0067250685
  O        12.6641641605        7.5561166049        2.3486236979
  O         6.2136910467        1.5586072187        5.9153248287
  O         0.1297522437        2.0607585984        1.7996200751
  O         6.5302073883        8.1920341022        5.1737449486
  O        12.6119933246        9.8762589330        1.7265965582
  O         6.2791979798        3.8341465958        5.1879664781
  O         1.9476789507        2.7250338225        8.0199103810
  O         8.2990495231        9.8016565953        4.3822649622
  O        10.9157223123        9.2225289850        7.9381267992
  O         4.4727903030        2.2807352091        4.3965224552
  O         4.0493473208        5.2663473415        0.9793419260
  O        11.2908464752       11.4222444546        4.5432152615
  O         8.7345073891        6.7639896565        0.9792833359
  O         1.4094402873        0.6870346533        4.7143274289
  O         2.3458597385        6.2945595112        7.9482311060
  O         8.2838517394        0.5084305184        4.1968931669
  O        10.0346280173        5.8148978854        8.0216388818
  O         4.4269486202       11.4372918190        4.2008089516
  H         4.8530892986        5.7685836541        1.2108402334
  H        11.7582632891       -0.3948159465        5.4363752756
  H         7.9435995638        6.2384918298        1.2025898004
  H         0.5927530256       12.8780398464        5.4499010337
  H         2.2384728834        6.2972125589        8.9068498605
  H        10.8972515671       12.3113940798        4.6754594182
  H         9.2907966887        6.0708485936        7.4659967501
  H         1.7553457343       -0.2199462833        4.8620153036
  H         3.3614120521        5.7068945615        1.5086588753
  H         8.3470189079       -0.4005718872        4.5698515939
  H         9.4337517867        6.3370578367        1.5029531942
  H         4.4191422228        0.3927969372        4.5880337241
  H         2.2637524388        7.2234446695        7.6927833982
  H         8.9835221555        0.5382149735        3.5140050977
  H        10.3246566912        4.9725610137        7.6456582685
  H         3.6825380138       11.3663076737        3.5641547744
  S         3.0580644976       24.0924585750        0.9568542394
  S         9.5852007844       17.9572959245        4.3471482512
  S         9.6291314293       11.9135905422        0.9007184603
  S         3.2036492571       17.9898083982        4.3485835859
  S         5.1739933660       20.6546619375        1.8831926084
  S        11.5973439765       14.6790607425        5.6969919586
  S         7.5504538652       15.3396897623        1.7877506667
  S         1.1015218618       21.2704039704        5.7066523980
  S         1.0875753818       15.2693084270        1.8405019130
  S         7.5200097582       21.2522813312        5.6125833295
  S        11.6865327079       20.6583836058        1.8062356139
  S         5.2966636398       14.6706457033        5.5577556148
 Ca         6.3433605977       11.9874310072        2.6435631099
 Ca         0.0077549251       17.9782422714        4.1426172789
 Ca         1.9051999500       20.8656400456        2.4806675983
 Ca         8.3794555032       14.6500976056        5.5434464679
 Ca        10.8169988869       15.1185376039        2.4030882708
 Ca         4.4615353488       21.2972884080        5.5915758372
 Ca         4.4111840911       15.1703993335        2.2852771115
 Ca        10.6530491261       21.1162714487        5.5546932428
 Ca         8.3203744912       20.7549071948        2.2920628859
 Ca         2.1598682287       14.8820110899        5.5605898495
 Ca        -0.0203417967       11.9197956973        2.7862180960
 Ca         6.3648160064       17.9762579739        4.1989324912
  O         4.2528708035       12.7941610398        1.6179634034
  O        10.5681170836       18.7371159622        5.1597551362
  O         8.4648598285       23.1284135473        1.6189809720
  O         2.2237895640       17.2314608617        5.1833225553
  O         2.2404066127       13.5070554546        7.5400239904
  O         8.5582496862       18.8487113954        3.7226107363
  O        10.5476843695       22.5099651722        7.5368548911
  O         4.1657000676       17.0724491435        3.6587196773
  O         2.2951238501       23.2733619119        2.0444249960
  O         8.8409298311       16.9807727359        5.1705148769
  O        10.4729667858       12.7102754624        1.9618142668
  O         4.0308712745       18.9103705981        5.1656927619
  O         4.3024187937       22.4070452554        7.7054286727
  O        10.4057923334       17.3088520279        3.2509307405
  O         8.4949645511       13.5008018546        7.6294118100
  O         2.3728832555       18.6975284353        3.3119204784
  O         4.2277835257       20.9467581611        3.0695236192
  O        10.5655206905       15.1053729393        6.6424466170
  O         8.5438932370       15.0520029018        2.9337271600
  O         2.2585753954       20.8229476258        6.4750520025
  O         6.1059139209       19.4725465457        2.2848233778
  O        12.4429431438       13.5729518153        6.1930706617
  O         6.6823966699       16.5666831421        2.2022418651
  O         0.2562332043       22.2614491182        6.4135495779
  O         6.1927764234       21.8399792800        1.8754262637
  O        12.5131987768       15.7876942810        5.2605696366
  O         6.5168376763       14.1632316600        1.8695000057
  O         0.2058625038       20.1381148199        5.2736103629
  O         4.7536380187       21.2464934013        7.9430243577
  O        10.8132255645       14.1596361846        4.4653042683
  O         8.1101704153       14.6700048918        7.9340453016
  O         1.6530212313       21.9730091874        4.4415690823
  O         2.1334421834       14.9861353693        2.9409778287
  O         8.4843794644       20.8294769806        6.6341316987
  O        10.6493936254       20.9387828071        2.9170381870
  O         4.3387302829       15.1641304086        6.5576079589
  O         0.1176162520       16.3401278512        2.4256944234
  O         6.6621220848       22.4099775586        5.9271349863
  O        12.6651140922       19.5728964393        2.3496037913
  O         6.1788560567       13.5531814488        5.9323208012
  O         0.1281889891       14.0172699201        1.8068474489
  O         6.5802342946       20.1209278094        5.2535977494
  O        12.6595870721       21.9050940708        1.8007657973
  O         6.2123335185       15.7846754050        5.0959188927
  O         1.8743492850       14.6659418723        7.9314320733
  O         8.3779101822       21.6694666852        4.3926434934
  O        10.9917643660       21.3919442856        7.9346418627
  O         4.4151983481       14.1700927261        4.3856274445
  O         4.0515044473       17.1921382066        0.8988677397
  O        11.2114689174       23.5260315066        4.6274305499
  O         8.8169763945       18.7152294051        0.9803804660
  O         1.2685744702       12.6907399000        4.7270326078
  O         2.8402219254       18.6332565590        8.1246468010
  O         8.2400273180       12.5393223575        4.1566870848
  O        10.2795352972       17.5936545560        8.1034896601
  O         4.4908161759       23.4514033282        4.2191026971
  H         4.8714402440       17.6712231036        1.1178676733
  H        11.9294813314       11.3210026456        5.2914470429
  H         8.0272185733       18.1804956988        1.1862913808
  H         0.7376282070       24.7908194472        5.4402833943
  H         3.2792023460       17.8911261305        8.5583617398
  H        10.7701629114       24.4033610244        4.6218383335
  H         9.7687723426       17.8977498054        7.3448783108
  H         1.6629152916       11.8319098292        4.9739097283
  H         3.3802815957       17.6542882371        1.4266299433
  H         8.3326484889       11.6180628658        4.5041159143
  H         9.4995823761       18.3121186022        1.5449618406
  H         4.3627384004       12.3582220317        4.5477184124
  H         3.0308856735       18.5093529427        7.1867130668
  H         8.9547124686       12.6146596231        3.4947157246
  H        10.5386665320       16.6990812964        7.8458767048
  H         3.7468907967       23.3878893063        3.5869986212
  S        15.8855982881       12.0378376799        0.9045207023
  S        22.3044546597        5.9823736257        4.3519772152
  S        22.4386704097       -0.0852263308        0.9874169333
  S        15.9495442210        5.9988498690        4.3714091254
  S        17.9385147334        8.6504826926        1.8576205849
  S        24.3983720200        2.7229581121        5.7283311520
  S        20.3586227881        3.3308435731        1.8839323402
  S        13.8781648579        9.2838242148        5.6994949437
  S        13.8424022110        3.3275039409        1.7940760804
  S        20.2276552188        9.2898768980        5.5989956845
  S        24.4013671064        8.6602064033        1.8462345851
  S        17.9847574070        2.7177950195        5.6125134822
 Ca        19.1501314638       -0.0401732621        2.6412871518
 Ca        12.7848097225        5.9730426128        4.1250885688
 Ca        14.6806252569        8.8432322777        2.4607413824
 Ca        21.0821597202        2.6954004490        5.5566897187
 Ca        23.5996802401        3.1075203245        2.4830812965
 Ca        17.1332894401        9.3239612525        5.5497890620
 Ca        17.1967867243        3.2089255427        2.3019108111
 Ca        23.3586210028        9.0926253319        5.6981277195
 Ca        21.1053088480        8.8024306760        2.2976493409
 Ca        14.8516557035        2.8023570818        5.5639908812
 Ca        12.7444548289        0.0241496254        2.7184209367
 Ca        19.1471432041        6.0064833542        4.2539249685
  O        17.0375259447        0.8400888346        1.6223828513
  O        23.2776196795        6.7452184586        5.1875143869
  O        21.2440881850       11.1716841839        1.6198199935
  O        14.9907555006        5.1983995250        5.1841625334
  O        14.8776247294        1.4750157195        7.6133928128
  O        21.3387518242        6.8934552560        3.6572479265
  O        23.2423729847       10.4678941666        7.7033919178
  O        16.9643798366        5.1192425478        3.7171866024
  O        15.0304479524       11.2556240403        1.9635428103
  O        21.4713862636        5.0622203755        5.1664260220
  O        23.1984532420        0.6896846386        2.1163762305
  O        16.7146798126        6.9756820309        5.1801797768
  O        16.9770395983       10.4108847707        7.6349027242
  O        23.1443130067        5.2672264731        3.3269320343
  O        21.1945087848        1.5501717178        7.6315772849
  O        15.0976983796        6.6646173215        3.3124881205
  O        16.9626014152        8.9413774257        3.0235732625
  O        23.2809602960        3.2055123326        6.5515738703
  O        21.3100723170        3.0226687158        3.0650358413
  O        14.9371042545        8.9337935738        6.6408761051
  O        18.8283454137        7.4486825989        2.2767657804
  O        25.2382749605        1.7058112285        6.3969862921
  O        19.4666407986        4.5417423558        2.2861950849
  O        12.9220115076       10.3056328120        6.1834970415
  O        18.9724963658        9.8260610401        1.8876130742
  O        25.3042252477        3.8350356172        5.2720279566
  O        19.3222487797        2.1538866227        1.8876188293
  O        13.0624124997        8.1030320601        5.2567231031
  O        17.4644878697        9.2873390017        7.9352973129
  O        23.7547323717        2.0753434384        4.4855843144
  O        20.8170666782        2.7230008463        7.9361777381
  O        14.6077888628        9.8827888163        4.4679144785
  O        14.8552494522        3.0280288613        2.9214435806
  O        21.1639342070        8.8108867385        6.6281214731
  O        23.4191396608        9.0146863022        2.9799919446
  O        17.0191339426        3.1390726789        6.6367558396
  O        12.8402921446        4.3867722182        2.3485271298
  O        19.3790894408       10.4505146456        5.9257253930
  O        25.3881222710        7.6025570945        2.4238210790
  O        18.8394176721        1.5579082195        5.9259325002
  O        12.8897667409        2.0693909286        1.7268973788
  O        19.2884545623        8.1812293127        5.1776329922
  O        25.3819174161        9.8902549259        1.7134357672
  O        18.9254094995        3.8469075937        5.2542310562
  O        14.5168976690        2.6505621910        7.9366571883
  O        21.1148985462        9.7227481585        4.4079293918
  O        23.5547324720        9.3009712318        8.0934408866
  O        17.1239988958        2.3056893919        4.3957368986
  O        16.7663775593        5.2536627243        0.9799132670
  O        24.0611834099       11.4233250041        4.7223981139
  O        21.4480519927        6.7815370748        0.8994286000
  O        14.2250161855        0.4575341866        4.6456731076
  O        15.7900604399        6.5339342273        8.1131057072
  O        21.0197003918        0.5163998003        4.2283507319
  O        22.7466962790        5.4094834145        8.1889514633
  O        17.2031789103       11.4968362732        4.2136339164
  H        17.5574189079        5.7772422041        1.2079982450
  H        24.7993029260       -0.8842998895        5.4474755070
  H        20.6661920234        6.2736246590        1.1855474582
  H        13.4741225097       12.7234259780        5.2790379576
  H        16.2648535621        5.7009509140        7.9918301377
  H        23.6754482698       12.3151984594        4.8578027655
  H        22.3836781964        5.7591191332        7.3661607475
  H        14.6614201926       -0.4259082270        4.6442211288
  H        16.0737688662        5.6648392616        1.5245632913
  H        21.0899583910       -0.3881271689        4.6114708460
  H        22.1731776306        6.3494108737        1.3780273700
  H        17.2808708291        0.3429630887        4.6788153644
  H        15.5529657459        6.8101077535        7.2189882274
  H        21.7770596634        0.5726320437        3.6106692779
  H        23.1643917914        4.5866878505        7.9033856853
  H        16.4842296040       11.4266697379        3.5565340800
  S        15.8425612870       24.0308268260        0.9868893265
  S        22.3128404299       17.9406766620        4.3171589180
  S        22.4258781902       11.9773864458        1.0059931762
  S        15.9133784511       17.9740693406        4.3493702213
  S        17.9327698898       20.5986481353        1.8285029361
  S        24.3233604070       14.7561731751        5.8006333816
  S        20.3212614399       15.3237925311        1.8793375559
  S        13.8864151056       21.2373611547        5.7208819109
  S        13.8459159277       15.3226802465        1.7882508079
  S        20.1521560387       21.2690320032        5.5838473467
  S        24.4157551795       20.6301663411        1.8136395201
  S        18.0489352580       14.6793740757        5.6043301614
 Ca        19.1502782391       11.9840495631        2.7175024195
 Ca        12.7493144645       17.9585410706        4.1072848712
 Ca        14.6993576859       20.8465332540        2.4645619427
 Ca        21.1456564396       14.6425773772        5.5562823431
 Ca        23.5792227456       15.0668619539        2.4828059880
 Ca        17.0968520470       21.2868739407        5.5691739880
 Ca        17.1951066239       15.2011141963        2.3061742662
 Ca        23.3609638690       20.9363726816        5.9648678284
 Ca        21.0854619500       20.7268158355        2.3007904845
 Ca        14.9173717426       14.8432610662        5.5583973603
 Ca        12.7486135990       11.9747069956        2.6257331803
 Ca        19.1418924207       17.9637619354        4.2474600701
  O        17.0390532844       12.7925650213        1.6216070404
  O        23.3425587760       18.6881821463        5.0962962012
  O        21.2457803737       23.1200270900        1.6188364202
  O        14.9237906872       17.2107505412        5.1727817221
  O        14.9562561259       13.5060314003        7.5445965573
  O        21.3267407961       18.8563831440        3.6661157716
  O        23.0772673684       22.8394249452        7.4596321173
  O        16.9375462257       17.0688462345        3.7406450074
  O        15.0375964341       23.2944217369        2.1245036648
  O        21.4965251209       17.0457457208        5.1722708106
  O        23.1962776147       12.6995184537        2.1819890127
  O        16.6573903316       18.9487155191        5.1708248206
  O        17.0153416591       22.4838105885        7.6991734267
  O        23.1110281483       17.2284493003        3.2497977363
  O        21.2272499524       13.4223259113        7.6255856693
  O        15.0963036654       18.6130616888        3.2483481389
  O        16.9711680749       20.9399526807        2.9920327432
  O        23.2704109874       15.3210042816        6.6413736501
  O        21.2677436690       15.0312325834        3.0616653995
  O        14.8655202439       20.8319298777        6.7260385306
  O        18.8239477975       19.4037382130        2.2741914071
  O        25.0822212824       13.6442063060        6.4136724277
  O        19.3952063120       16.5103168901        2.2792655891
  O        12.9807076398       22.3354701666        6.1058112123
  O        18.9718151208       21.7704281280        1.8058679141
  O        25.3134474817       15.7928806072        5.3340523596
  O        19.3027510641       14.1358735526        1.8828128482
  O        13.0079501239       20.1113309872        5.2493433676
  O        17.4547720969       21.3217464858        7.9407128087
  O        23.6008849044       14.1678785609        4.5571846795
  O        20.8232512604       14.5870473084        7.9352250943
  O        14.7493949537       21.7484022422        4.5324375220
  O        14.8601871917       15.0497243136        2.9180280090
  O        21.0809098097       20.8322724018        6.6355408058
  O        23.3550752391       20.9004614227        2.8854464033
  O        17.1101634050       15.1577474056        6.6277614498
  O        12.8321938008       16.3689306969        2.3431483510
  O        19.2813130070       22.4120575880        5.9166423528
  O        25.4003847013       19.5699762009        2.4153732531
  O        18.9026338168       13.5194417762        5.9216161983
  O        12.8969798679       14.0658405727        1.7231755904
  O        19.2247987578       20.1336864314        5.1875798057
  O        25.3738358102       21.8939703688        1.7990311653
  O        18.9919953129       15.7848546251        5.1810405316
  O        14.5834583805       14.6611204868        7.9288024729
  O        21.0199537490       21.6884131860        4.3935289811
  O        23.6283742085       21.8883902483        8.1016066903
  O        17.1505327706       14.2428736999        4.4104290385
  O        16.7711639456       17.2141915868        0.9844165874
  O        24.1463145038       23.2871792164        4.7170485849
  O        21.5943471828       18.7120302305        0.9633868777
  O        14.1420420938       12.5611775396        4.5579557714
  O        15.4622808361       18.3989088521        8.1829591359
  O        21.0866587068       12.4713964954        4.2174555351
  O        23.0725380154       19.2731633083        7.7047301462
  O        17.2816572841       23.4463132804        4.2164613558
  H        17.5652703846       17.7372449185        1.2044279325
  H        24.6965454564       11.3032713662        5.4728991877
  H        20.8001802315       18.1800347377        1.1524320725
  H        13.6601821204       24.3831039348        5.4437502864
  H        15.6905515156       18.0896132330        7.2984999552
  H        23.7583417788       24.1456338891        4.9709423100
  H        22.5973112343       19.5201750124        8.5091428204
  H        14.4986269340       11.6624298863        4.7367821197
  H        16.0748227934       17.6463456550        1.5084345587
  H        21.1613212158       11.5553871412        4.5729262436
  H        22.2705475873       18.2975032947        1.5260492944
  H        17.1261388091       12.4190980911        4.5567347532
