360
Lattice="24.0688 0.0 0.0 -24.185854652055536 25.348880266190136 0.0 0.0 0.0 21.72538446" Properties=species:S:1:pos:R:3:spacegroup_kinds:I:1:tags:I:1 pbc="T T F"
Ca       2.82412792       4.24467000       3.03992704        0        1
Ca      -3.22233574      10.58189007       6.50447704        0        1
Ca      -2.88265524       8.42977013       3.03992704        0        1
Ca       3.16380842       2.09255007       6.50447704        0        1
Ca      -9.44900454      10.59709940       3.35312236        1        1
Ca      -3.40254087       4.25987933       6.81767236        1        1
Ca       9.39047721       2.07734074       3.35312236        1        1
Ca       3.34401355       8.41456080       6.81767236        1        1
Ca       6.01720000       0.00000000       4.48949476        2        1
Ca      -0.02926366       6.33722007       1.02494476        2        1
Ca       0.00000000       0.00000000       1.00000000        3        1
Ca      -6.04646366       6.33722007       4.46455000        3        1
S        2.68825366       1.09253674       3.15217846        4        1
S       -3.35821000       7.42975681       6.61672846        4        1
S       -2.74678099      11.58190339       3.15217846        4        1
S        3.29968267       5.24468333       6.61672846        4        1
S       -0.03017706       3.14706349       1.01039365        5        1
S       -6.07664072       9.48428355       4.47494365        5        1
S       -0.02835027       9.52737665       1.01039365        5        1
S        6.01811339       3.19015658       4.47494365        5        1
S        2.66661448       7.34230317       3.30323284        6        1
S        8.71307814       1.00508310       6.76778284        6        1
S       -2.72514181       5.33213696       3.30323284        6        1
S       -8.77160547      11.66935703       6.76778284        6        1
O        3.67211461       0.16983750       3.67671133        7        1
O       -2.37434905       6.50705756       7.14126133        7        1
O       -3.73064194      12.50460264       3.67671133        7        1
O        2.31582172       6.16738257       7.14126133        7        1
O        1.50150462       0.34474477       2.79394399        8        1
O       -4.54495905       6.68196484       6.25849399        8        1
O       -1.56003194      12.32969536       2.79394399        8        1
O        4.48643172       5.99247529       6.25849399        8        1
O        3.22265629       1.85807292       2.01234151        9        1
O       -2.82380737       8.19529299       5.47689151        9        1
O       -3.28118362      10.81636721       2.01234151        9        1
O        2.76528004       4.47914714       5.47689151        9        1
O        2.33699832       2.10268962       4.19085055       10        1
O       -3.70946535       8.43990968       7.65540055       10        1
O       -2.39552564      10.57175052       4.19085055       10        1
O        3.65093802       4.23453045       7.65540055       10        1
O       -0.78508206       2.18000370       1.82872036       11        1
O       -6.83154572       8.51722377       5.29327036       11        1
O        0.72655473      10.49443643       1.82872036       11        1
O        6.77301840       4.15721636       5.29327036       11        1
O        6.93554518       2.31942254       3.66423895       12        1
O        0.88908152       8.65664261       7.12878895       12        1
O       -6.99407251      10.35501759       3.66423895       12        1
O       -0.94760884       4.01779752       7.12878895       12        1
O        0.76475752       4.04568129       1.87306660       13        1
O       -5.28170615      10.38290136       5.33761660       13        1
O       -0.82328484       8.62875884       1.87306660       13        1
O        5.22317882       2.29153878       5.33761660       13        1
O        2.83127788       8.42977013       2.30959990       14        1
O        8.87774154       2.09255007       5.77414990       14        1
O       -2.88980520       4.24467000       2.30959990       14        1
O       -8.93626886      10.58189007       5.77414990       14        1
O        2.43986583       7.97222284       4.58442343       15        1
O        8.48632949       1.63500278       1.11987343       15        1
O       -2.49839316       4.70221729       4.58442343       15        1
O       -8.54485682      11.03943736       1.11987343       15        1
O        3.86195897       6.48931335       3.29976829       16        1
O        9.90842263       0.15209328       6.76431829       16        1
O       -3.92048630       6.18512678       3.29976829       16        1
O       -9.96694996      12.52234685       6.76431829       16        1
O        1.52968054       6.49184824       2.97756514       17        1
O        7.57614421       0.15462817       6.44211514       17        1
O       -1.58820787       6.18259190       2.97756514       17        1
O       -7.63467153      12.51981196       6.44211514       17        1
O        5.11050226       4.01906497       3.58940467       18        1
O       -0.93596140      10.35628503       7.05395467       18        1
O       -5.16902959       8.65537517       3.58940467       18        1
O        0.87743407       2.31815510       7.05395467       18        1
O        6.01720000       0.00000000       2.09826235       19        1
O       -0.02926366       6.33722007       5.56281235       19        1
O        0.56270546      10.53372719       4.51928989       20        1
O        6.60916912       4.19650713       1.05473989       20        1
O       -0.62123279       2.14071294       4.51928989       20        1
O       -6.66769645       8.47793301       1.05473989       20        1
H        0.36146983      10.32966871       5.16854656       21        1
H        6.40793349       3.99244864       1.70399656       21        1
H       -0.41999716       2.34477142       5.16854656       21        1
H       -6.46646082       8.68199149       1.70399656       21        1
H       -0.05897332      10.16490099       4.26083446       22        1
H        5.98749035       3.82768092       7.72538446       22        1
H        0.00044599       2.50953915       4.26083446       22        1
H       -6.04601767       8.84675921       7.72538446       22        1
H        6.41334024       0.21546548       1.68320926       23        1
H        0.36687657       6.55268555       5.14775926       23        1
H       -6.47186756      12.45897465       1.68320926       23        1
H       -0.42540390       6.12175458       5.14775926       23        1
Ca      -9.26879941      16.91911013       3.03992704        0        1
Ca     -15.31526307      23.25633020       6.50447704        0        1
Ca     -14.97558257      21.10421027       3.03992704        0        1
Ca      -8.92911891      14.76699020       6.50447704        0        1
Ca     -21.54193186      23.27153953       3.35312236        1        1
Ca     -15.49546820      16.93431946       6.81767236        1        1
Ca      -2.70245011      14.75178087       3.35312236        1        1
Ca      -8.74891378      21.08900094       6.81767236        1        1
Ca      -6.07572733      12.67444013       4.48949476        2        1
Ca     -12.12219099      19.01166020       1.02494476        2        1
Ca     -12.09292733      12.67444013       1.00000000        3        1
Ca     -18.13939099      19.01166020       4.46455000        3        1
S       -9.40467366      13.76697687       3.15217846        4        1
S      -15.45113732      20.10419694       6.61672846        4        1
S      -14.83970832      24.25634353       3.15217846        4        1
S       -8.79324465      17.91912346       6.61672846        4        1
S      -12.12310438      15.82150362       1.01039365        5        1
S      -18.16956804      22.15872368       4.47494365        5        1
S      -12.12127760      22.20181678       1.01039365        5        1
S       -6.07481393      15.86459671       4.47494365        5        1
S       -9.42631285      20.01674330       3.30323284        6        1
S       -3.37984918      13.67952324       6.76778284        6        1
S      -14.81806913      18.00657710       3.30323284        6        1
S      -20.86453280      24.34379716       6.76778284        6        1
O       -8.42081271      12.84427763       3.67671133        7        1
O      -14.46727638      19.18149770       7.14126133        7        1
O      -15.82356927      25.17904277       3.67671133        7        1
O       -9.77710560      18.84182270       7.14126133        7        1
O      -10.59142271      13.01918490       2.79394399        8        1
O      -16.63788637      19.35640497       6.25849399        8        1
O      -13.65295927      25.00413549       2.79394399        8        1
O       -7.60649561      18.66691543       6.25849399        8        1
O       -8.87027103      14.53251306       2.01234151        9        1
O      -14.91673470      20.86973312       5.47689151        9        1
O      -15.37411095      23.49080734       2.01234151        9        1
O       -9.32764728      17.15358728       5.47689151        9        1
O       -9.75592901      14.77712975       4.19085055       10        1
O      -15.80239267      21.11434982       7.65540055       10        1
O      -14.48845297      23.24619065       4.19085055       10        1
O       -8.44198931      16.90897058       7.65540055       10        1
O      -12.87800939      14.85444384       1.82872036       11        1
O      -18.92447305      21.19166390       5.29327036       11        1
O      -11.36637259      23.16887656       1.82872036       11        1
O       -5.31990893      16.83165650       5.29327036       11        1
O       -5.15738215      14.99386268       3.66423895       12        1
O      -11.20384581      21.33108274       7.12878895       12        1
O      -19.08699983      23.02945772       3.66423895       12        1
O      -13.04053617      16.69223766       7.12878895       12        1
O      -11.32816981      16.72012142       1.87306660       13        1
O      -17.37463347      23.05734149       5.33761660       13        1
O      -12.91621217      21.30319898       1.87306660       13        1
O       -6.86974851      14.96597891       5.33761660       13        1
O       -9.26164945      21.10421027       2.30959990       14        1
O       -3.21518579      14.76699020       5.77414990       14        1
O      -14.98273253      16.91911013       2.30959990       14        1
O      -21.02919619      23.25633020       5.77414990       14        1
O       -9.65306149      20.64666298       4.58442343       15        1
O       -3.60659783      14.30944291       1.11987343       15        1
O      -14.59132048      17.37665742       4.58442343       15        1
O      -20.63778415      23.71387749       1.11987343       15        1
O       -8.23096836      19.16375348       3.29976829       16        1
O       -2.18450469      12.82653341       6.76431829       16        1
O      -16.01341362      18.85956692       3.29976829       16        1
O      -22.05987728      25.19678698       6.76431829       16        1
O      -10.56324678      19.16628837       2.97756514       17        1
O       -4.51678312      12.82906830       6.44211514       17        1
O      -13.68113520      18.85703203       2.97756514       17        1
O      -19.72759886      25.19425210       6.44211514       17        1
O       -6.98242506      16.69350510       3.58940467       18        1
O      -13.02888872      23.03072517       7.05395467       18        1
O      -17.26195692      21.32981530       3.58940467       18        1
O      -11.21549325      14.99259523       7.05395467       18        1
O       -6.07572733      12.67444013       2.09826235       19        1
O      -12.12219099      19.01166020       5.56281235       19        1
O      -11.53022187      23.20816733       4.51928989       20        1
O       -5.48375820      16.87094726       1.05473989       20        1
O      -12.71416011      14.81515307       4.51928989       20        1
O      -18.76062377      21.15237314       1.05473989       20        1
H      -11.73145750      23.00410884       5.16854656       21        1
H       -5.68499383      16.66688878       1.70399656       21        1
H      -12.51292448      15.01921156       5.16854656       21        1
H      -18.55938814      21.35643162       1.70399656       21        1
H      -12.15190064      22.83934112       4.26083446       22        1
H       -6.10543698      16.50212105       7.72538446       22        1
H      -12.09248134      15.18397928       4.26083446       22        1
H      -18.13894500      21.52119935       7.72538446       22        1
H       -5.67958709      12.88990562       1.68320926       23        1
H      -11.72605075      19.22712568       5.14775926       23        1
H      -18.56479489      25.13341478       1.68320926       23        1
H      -12.51833122      18.79619472       5.14775926       23        1
Ca      14.85852792       4.24467000       3.03992704        0        1
Ca       8.81206426      10.58189007       6.50447704        0        1
Ca       9.15174476       8.42977013       3.03992704        0        1
Ca      15.19820842       2.09255007       6.50447704        0        1
Ca       2.58539546      10.59709940       3.35312236        1        1
Ca       8.63185913       4.25987933       6.81767236        1        1
Ca      21.42487721       2.07734074       3.35312236        1        1
Ca      15.37841355       8.41456080       6.81767236        1        1
Ca      18.05160000       0.00000000       4.48949476        2        1
Ca      12.00513634       6.33722007       1.02494476        2        1
Ca      12.03440000       0.00000000       1.00000000        3        1
Ca       5.98793634       6.33722007       4.46455000        3        1
S       14.72265366       1.09253674       3.15217846        4        1
S        8.67619000       7.42975681       6.61672846        4        1
S        9.28761901      11.58190339       3.15217846        4        1
S       15.33408267       5.24468333       6.61672846        4        1
S       12.00422294       3.14706349       1.01039365        5        1
S        5.95775928       9.48428355       4.47494365        5        1
S       12.00604973       9.52737665       1.01039365        5        1
S       18.05251339       3.19015658       4.47494365        5        1
S       14.70101448       7.34230317       3.30323284        6        1
S       20.74747814       1.00508310       6.76778284        6        1
S        9.30925819       5.33213696       3.30323284        6        1
S        3.26279453      11.66935703       6.76778284        6        1
O       15.70651461       0.16983750       3.67671133        7        1
O        9.66005095       6.50705756       7.14126133        7        1
O        8.30375806      12.50460264       3.67671133        7        1
O       14.35022172       6.16738257       7.14126133        7        1
O       13.53590462       0.34474477       2.79394399        8        1
O        7.48944095       6.68196484       6.25849399        8        1
O       10.47436806      12.32969536       2.79394399        8        1
O       16.52083172       5.99247529       6.25849399        8        1
O       15.25705629       1.85807292       2.01234151        9        1
O        9.21059263       8.19529299       5.47689151        9        1
O        8.75321638      10.81636721       2.01234151        9        1
O       14.79968004       4.47914714       5.47689151        9        1
O       14.37139832       2.10268962       4.19085055       10        1
O        8.32493465       8.43990968       7.65540055       10        1
O        9.63887436      10.57175052       4.19085055       10        1
O       15.68533802       4.23453045       7.65540055       10        1
O       11.24931794       2.18000370       1.82872036       11        1
O        5.20285428       8.51722377       5.29327036       11        1
O       12.76095473      10.49443643       1.82872036       11        1
O       18.80741840       4.15721636       5.29327036       11        1
O       18.96994518       2.31942254       3.66423895       12        1
O       12.92348152       8.65664261       7.12878895       12        1
O        5.04032749      10.35501759       3.66423895       12        1
O       11.08679116       4.01779752       7.12878895       12        1
O       12.79915752       4.04568129       1.87306660       13        1
O        6.75269385      10.38290136       5.33761660       13        1
O       11.21111516       8.62875884       1.87306660       13        1
O       17.25757882       2.29153878       5.33761660       13        1
O       14.86567788       8.42977013       2.30959990       14        1
O       20.91214154       2.09255007       5.77414990       14        1
O        9.14459480       4.24467000       2.30959990       14        1
O        3.09813114      10.58189007       5.77414990       14        1
O       14.47426583       7.97222284       4.58442343       15        1
O       20.52072949       1.63500278       1.11987343       15        1
O        9.53600684       4.70221729       4.58442343       15        1
O        3.48954318      11.03943736       1.11987343       15        1
O       15.89635897       6.48931335       3.29976829       16        1
O       21.94282263       0.15209328       6.76431829       16        1
O        8.11391370       6.18512678       3.29976829       16        1
O        2.06745004      12.52234685       6.76431829       16        1
O       13.56408054       6.49184824       2.97756514       17        1
O       19.61054421       0.15462817       6.44211514       17        1
O       10.44619213       6.18259190       2.97756514       17        1
O        4.39972847      12.51981196       6.44211514       17        1
O       17.14490226       4.01906497       3.58940467       18        1
O       11.09843860      10.35628503       7.05395467       18        1
O        6.86537041       8.65537517       3.58940467       18        1
O       12.91183407       2.31815510       7.05395467       18        1
O       18.05160000       0.00000000       2.09826235       19        1
O       12.00513634       6.33722007       5.56281235       19        1
O       12.59710546      10.53372719       4.51928989       20        1
O       18.64356912       4.19650713       1.05473989       20        1
O       11.41316721       2.14071294       4.51928989       20        1
O        5.36670355       8.47793301       1.05473989       20        1
H       12.39586983      10.32966871       5.16854656       21        1
H       18.44233349       3.99244864       1.70399656       21        1
H       11.61440284       2.34477142       5.16854656       21        1
H        5.56793918       8.68199149       1.70399656       21        1
H       11.97542668      10.16490099       4.26083446       22        1
H       18.02189035       3.82768092       7.72538446       22        1
H       12.03484599       2.50953915       4.26083446       22        1
H        5.98838233       8.84675921       7.72538446       22        1
H       18.44774024       0.21546548       1.68320926       23        1
H       12.40127657       6.55268555       5.14775926       23        1
H        5.56253244      12.45897465       1.68320926       23        1
H       11.60899610       6.12175458       5.14775926       23        1
Ca       2.76560059      16.91911013       3.03992704        0        1
Ca      -3.28086307      23.25633020       6.50447704        0        1
Ca      -2.94118257      21.10421027       3.03992704        0        1
Ca       3.10528109      14.76699020       6.50447704        0        1
Ca      -9.50753186      23.27153953       3.35312236        1        1
Ca      -3.46106820      16.93431946       6.81767236        1        1
Ca       9.33194989      14.75178087       3.35312236        1        1
Ca       3.28548622      21.08900094       6.81767236        1        1
Ca       5.95867267      12.67444013       4.48949476        2        1
Ca      -0.08779099      19.01166020       1.02494476        2        1
Ca      -0.05852733      12.67444013       1.00000000        3        1
Ca      -6.10499099      19.01166020       4.46455000        3        1
S        2.62972634      13.76697687       3.15217846        4        1
S       -3.41673732      20.10419694       6.61672846        4        1
S       -2.80530832      24.25634353       3.15217846        4        1
S        3.24115535      17.91912346       6.61672846        4        1
S       -0.08870438      15.82150362       1.01039365        5        1
S       -6.13516804      22.15872368       4.47494365        5        1
S       -0.08687760      22.20181678       1.01039365        5        1
S        5.95958607      15.86459671       4.47494365        5        1
S        2.60808715      20.01674330       3.30323284        6        1
S        8.65455082      13.67952324       6.76778284        6        1
S       -2.78366913      18.00657710       3.30323284        6        1
S       -8.83013280      24.34379716       6.76778284        6        1
O        3.61358729      12.84427763       3.67671133        7        1
O       -2.43287638      19.18149770       7.14126133        7        1
O       -3.78916927      25.17904277       3.67671133        7        1
O        2.25729440      18.84182270       7.14126133        7        1
O        1.44297729      13.01918490       2.79394399        8        1
O       -4.60348637      19.35640497       6.25849399        8        1
O       -1.61855927      25.00413549       2.79394399        8        1
O        4.42790439      18.66691543       6.25849399        8        1
O        3.16412897      14.53251306       2.01234151        9        1
O       -2.88233470      20.86973312       5.47689151        9        1
O       -3.33971095      23.49080734       2.01234151        9        1
O        2.70675272      17.15358728       5.47689151        9        1
O        2.27847099      14.77712975       4.19085055       10        1
O       -3.76799267      21.11434982       7.65540055       10        1
O       -2.45405297      23.24619065       4.19085055       10        1
O        3.59241069      16.90897058       7.65540055       10        1
O       -0.84360939      14.85444384       1.82872036       11        1
O       -6.89007305      21.19166390       5.29327036       11        1
O        0.66802741      23.16887656       1.82872036       11        1
O        6.71449107      16.83165650       5.29327036       11        1
O        6.87701785      14.99386268       3.66423895       12        1
O        0.83055419      21.33108274       7.12878895       12        1
O       -7.05259983      23.02945772       3.66423895       12        1
O       -1.00613617      16.69223766       7.12878895       12        1
O        0.70623019      16.72012142       1.87306660       13        1
O       -5.34023347      23.05734149       5.33761660       13        1
O       -0.88181217      21.30319898       1.87306660       13        1
O        5.16465149      14.96597891       5.33761660       13        1
O        2.77275055      21.10421027       2.30959990       14        1
O        8.81921421      14.76699020       5.77414990       14        1
O       -2.94833253      16.91911013       2.30959990       14        1
O       -8.99479619      23.25633020       5.77414990       14        1
O        2.38133851      20.64666298       4.58442343       15        1
O        8.42780217      14.30944291       1.11987343       15        1
O       -2.55692048      17.37665742       4.58442343       15        1
O       -8.60338415      23.71387749       1.11987343       15        1
O        3.80343164      19.16375348       3.29976829       16        1
O        9.84989531      12.82653341       6.76431829       16        1
O       -3.97901362      18.85956692       3.29976829       16        1
O      -10.02547728      25.19678698       6.76431829       16        1
O        1.47115322      19.16628837       2.97756514       17        1
O        7.51761688      12.82906830       6.44211514       17        1
O       -1.64673520      18.85703203       2.97756514       17        1
O       -7.69319886      25.19425210       6.44211514       17        1
O        5.05197494      16.69350510       3.58940467       18        1
O       -0.99448872      23.03072517       7.05395467       18        1
O       -5.22755692      21.32981530       3.58940467       18        1
O        0.81890675      14.99259523       7.05395467       18        1
O        5.95867267      12.67444013       2.09826235       19        1
O       -0.08779099      19.01166020       5.56281235       19        1
O        0.50417813      23.20816733       4.51928989       20        1
O        6.55064180      16.87094726       1.05473989       20        1
O       -0.67976011      14.81515307       4.51928989       20        1
O       -6.72622377      21.15237314       1.05473989       20        1
H        0.30294250      23.00410884       5.16854656       21        1
H        6.34940617      16.66688878       1.70399656       21        1
H       -0.47852448      15.01921156       5.16854656       21        1
H       -6.52498814      21.35643162       1.70399656       21        1
H       -0.11750064      22.83934112       4.26083446       22        1
H        5.92896302      16.50212105       7.72538446       22        1
H       -0.05808134      15.18397928       4.26083446       22        1
H       -6.10454500      21.52119935       7.72538446       22        1
H        6.35481291      12.88990562       1.68320926       23        1
H        0.30834925      19.22712568       5.14775926       23        1
H       -6.53039489      25.13341478       1.68320926       23        1
H       -0.48393122      18.79619472       5.14775926       23        1
