 # Version information for this restart file 
 # current date 2026-01-22 06:25:53.096
 # current working dir /mnt/cp2k
 # Program compiled at                                       2026-01-16 05:48:39
 # Program compiled on                                                          
 # Program compiled for                                                   x86_64
 # Source code revision number                                        4e96ea1a00
 &GLOBAL
   PRINT_LEVEL LOW
   PROJECT_NAME "gypsum_slab_geoopt"
   RUN_TYPE GEO_OPT
 &END GLOBAL
 &MOTION
   &GEO_OPT
     TYPE MINIMIZATION
     OPTIMIZER BFGS
     MAX_ITER 200
     MAX_DR  3.0000000000000001E-003
     MAX_FORCE  4.4999999999999999E-004
     RMS_DR  1.5000000000000000E-003
     RMS_FORCE  2.9999999999999997E-004
     STEP_START_VAL 10
     &BFGS
       TRUST_RADIUS  2.5000000000000000E-001
     &END BFGS
   &END GEO_OPT
   &PRINT
     &TRAJECTORY SILENT
       FORMAT XMOL
       &EACH
         GEO_OPT 1
       &END EACH
     &END TRAJECTORY
     &RESTART SILENT
       BACKUP_COPIES 1
       &EACH
         GEO_OPT 5
       &END EACH
     &END RESTART
     &RESTART_HISTORY OFF
     &END RESTART_HISTORY
   &END PRINT
 &END MOTION
 &FORCE_EVAL
   METHOD QS
   &DFT
     BASIS_SET_FILE_NAME BASIS_MOLOPT_UZH
     POTENTIAL_FILE_NAME POTENTIAL_UZH
     UKS T
     MULTIPLICITY 1
     CHARGE 0
     &SCF
       MAX_SCF 120
       EPS_SCF  9.9999999999999995E-007
       SCF_GUESS ATOMIC
       &OT T
         MINIMIZER DIIS
         STEPSIZE  1.0000000000000001E-001
         PRECONDITIONER FULL_SINGLE_INVERSE
         PRECOND_SOLVER INVERSE_UPDATE
         ENERGY_GAP  1.0000000000000001E-001
       &END OT
       &OUTER_SCF T
         EPS_SCF  9.9999999999999995E-007
         MAX_SCF 20
       &END OUTER_SCF
       &PRINT
         &RESTART SILENT
           BACKUP_COPIES 1
           &EACH
             GEO_OPT 1
           &END EACH
         &END RESTART
       &END PRINT
     &END SCF
     &QS
       EPS_DEFAULT  9.9999999999999998E-013
       EPS_PGF_ORB  1.0000000000000000E-014
       EXTRAPOLATION ASPC
       EXTRAPOLATION_ORDER 5
       METHOD GPW
     &END QS
     &MGRID
       NGRIDS 5
       CUTOFF  4.2000000000000000E+002
       REL_CUTOFF  6.0000000000000000E+001
     &END MGRID
     &XC
       DENSITY_CUTOFF  1.0000000000000000E-010
       GRADIENT_CUTOFF  1.0000000000000000E-010
       TAU_CUTOFF  1.0000000000000000E-010
       &XC_GRID
         XC_SMOOTH_RHO SPLINE3
         XC_DERIV SPLINE3_SMOOTH
       &END XC_GRID
       &XC_FUNCTIONAL NO_SHORTCUT
         &PBE T
           PARAMETRIZATION REVPBE
           SCALE_X  1.0000000000000000E+000
           SCALE_C  1.0000000000000000E+000
         &END PBE
       &END XC_FUNCTIONAL
       &VDW_POTENTIAL
         POTENTIAL_TYPE PAIR_POTENTIAL
         &PAIR_POTENTIAL
           R_CUTOFF  1.5000000000000002E+001
           D4_CUTOFF  3.0000000000000004E+001
           TYPE DFTD4
           REFERENCE_FUNCTIONAL "revPBE"
         &END PAIR_POTENTIAL
       &END VDW_POTENTIAL
     &END XC
     &POISSON
       POISSON_SOLVER MT
       PERIODIC XY
     &END POISSON
     &PRINT
       &E_DENSITY_CUBE OFF
       &END E_DENSITY_CUBE
     &END PRINT
   &END DFT
   &SUBSYS
     &CELL
       A  1.2768420000000003E+001  0.0000000000000000E+000  0.0000000000000000E+000
       B  0.0000000000000000E+000  1.4113740000000000E+001  0.0000000000000000E+000
       C  0.0000000000000000E+000  0.0000000000000000E+000  2.0908450800000001E+001
       PERIODIC XY
       MULTIPLE_UNIT_CELL 1 1 1
     &END CELL
     &COORD
       Ca  2.1978188531460159E+000 -3.1859828209871784E-006  2.2389514323886512E+000
       Ca  4.1856774024613621E+000  3.9721938075375025E-006  5.6697626292930527E+000
       Ca  5.3899072255293410E+000  3.5284265853083738E+000  2.2389443087874747E+000
       Ca  9.9357154118605562E-001  3.5284311984808037E+000  5.6697622748541496E+000
       S  1.0509943823560619E+000  1.1862086405768800E-006  5.7803202313483224E+000
       S  5.3324173610371997E+000 -6.6528281515954940E-006  2.1280548272267512E+000
       S  4.2431013900035381E+000  3.5284340474896045E+000  5.7803100466515502E+000
       S  2.1403256629119602E+000  3.5284326625574423E+000  2.1280429265786140E+000
       O  1.3153355965459509E-001  5.8518761942087574E+000  5.7792182745617637E+000
       O  6.2519121243877578E+000  5.8519083735581736E+000  2.1285770062583311E+000
       O  6.2519184418800515E+000  1.2049415004140187E+000  2.1285936302185480E+000
       O  1.3152499649678728E-001  1.2049868837380930E+000  5.7792075265793761E+000
       O  3.3236336621632074E+000  2.3234482872057334E+000  5.7791861304632368E+000
       O  3.0598075322370386E+000  2.3234708613636825E+000  2.1285982704242850E+000
       O  3.0598152900344928E+000  4.7333881418452295E+000  2.1285826953618363E+000
       O  3.3236393908855120E+000  4.7334227011613850E+000  5.7792025201813848E+000
       O  1.9858497409716269E+000  3.0669208758795029E-006  6.9352872370817185E+000
       O  4.3969150341669003E+000 -2.1100826053436758E-005  9.7359465895382435E-001
       O  1.9067716209617596E+000  8.1817301368431197E-006  4.5251695057177592E+000
       O  4.4772724710908109E+000  1.2640600932974918E-005  3.3837164618153950E+000
       O  5.1779531744031084E+000  3.5284209280614691E+000  6.9352799819962057E+000
       O  1.2047959539598070E+000  3.5284275896252950E+000  9.7360370624428294E-001
       O  5.0988845512486431E+000  3.5284408701800727E+000  4.5251621524124790E+000
       O  1.2851746563973001E+000  3.5284448948699030E+000  3.3836994781975713E+000
       Ca  2.1978107656576777E+000  7.0568651006176557E+000  2.2389498364762073E+000
       Ca  4.1856783335848142E+000  7.0568719567576688E+000  5.6697551631474710E+000
       Ca  5.3899151211465020E+000  1.0585299030199966E+001  2.2389501098569560E+000
       Ca  9.9356581178611159E-001  1.0585300902060776E+001  5.6697642753119704E+000
       S  1.0509953931277882E+000  7.0568657330121232E+000  5.7803186279252108E+000
       S  5.3324239003654510E+000  7.0568653892610786E+000  2.1280432184596028E+000
       S  4.2430977626242097E+000  1.0585307277587486E+001  5.7803087738793719E+000
       S  2.1403201603507163E+000  1.0585306805534621E+001  2.1280571939348212E+000
       O  1.3153316771413470E-001  1.2908751091896395E+001  5.7792032957997010E+000
       O  6.2519146074197787E+000  1.2908782875786022E+001  2.1286233428113412E+000
       O  6.2519165627583408E+000  8.2618182999605949E+000  2.1286131161710058E+000
       O  1.3152912045146994E-001  8.2618527667149149E+000  5.7791919998730119E+000
       O  3.3236258666080092E+000  9.3803240127659748E+000  5.7791718968293653E+000
       O  3.0598088372561185E+000  9.3803499399452654E+000  2.1286220554373512E+000
       O  3.0598129632272495E+000  1.1790259394950503E+001  2.1286016612681640E+000
       O  3.3236355482375011E+000  1.1790296899550107E+001  5.7792044337576325E+000
       O  1.9858527427655108E+000  7.0568820902733425E+000  6.9352841774161673E+000
       O  4.3969062999124962E+000  7.0568861923123567E+000  9.7359422616260494E-001
       O  1.9067748652607115E+000  7.0568530861732421E+000  4.5251682527964814E+000
       O  4.4772716818494152E+000  7.0568469999479255E+000  3.3836999578561668E+000
       O  5.1779417784584565E+000  1.0585285563050030E+001  6.9352847336769159E+000
       O  1.2048075637996796E+000  1.0585298209380786E+001  9.7360341780442916E-001
       O  5.0988834843554685E+000  1.0585323331638927E+001  4.5251627020721008E+000
       O  1.2851659477859352E+000  1.0585323361964482E+001  3.3837112894965187E+000
       Ca  8.5820299626879262E+000 -1.0673142264873577E-005  2.2389553484645379E+000
       Ca  1.0569886527020959E+001  4.3831036758954912E-006  5.6697620139692937E+000
       Ca  1.1774114749867973E+001  3.5284433608089421E+000  2.2389549630388363E+000
       Ca  7.3777798575396352E+000  3.5284382369286571E+000  5.6697577722831634E+000
       S  7.4352062037776161E+000 -1.0345188137703862E-006  5.7803216689247083E+000
       S  1.1716620222406457E+001  2.0031036151426239E-006  2.1280513378637989E+000
       S  1.0627306635493582E+001  3.5284379787261044E+000  5.7803146652476221E+000
       S  8.5245371468368365E+000  3.5284279294497023E+000  2.1280484098624335E+000
       O  6.5157378162870270E+000  5.8518834060501694E+000  5.7792231801223144E+000
       O  1.2636134121897777E+001  5.8519210104742552E+000  2.1285890648938492E+000
       O  1.2636115719917161E+001  1.2049533452349432E+000  2.1286174518404888E+000
       O  6.5157419792916720E+000  1.2049873871186310E+000  5.7791819506639097E+000
       O  9.7078384817661760E+000  2.3234521921899480E+000  5.7791757892309237E+000
       O  9.4440197751997736E+000  2.3234685924658236E+000  2.1286313085031208E+000
       O  9.4440278465845839E+000  4.7333841014639431E+000  2.1285791310322022E+000
       O  9.7078455270383941E+000  4.7334282491118334E+000  5.7792072097229550E+000
       O  8.3700607002786818E+000  2.0822037554307942E-005  6.9352892882154169E+000
       O  1.0781114902658693E+001  1.3193432291297067E-005  9.7359338566640541E-001
       O  8.2909873433980597E+000 -2.7485582788668529E-005  4.5251723048881471E+000
       O  1.0861484530220185E+001 -2.3608986654989310E-005  3.3837199402538287E+000
       O  1.1562151184552194E+001  3.5284194728864433E+000  6.9352894637298803E+000
       O  7.5890202509529630E+000  3.5284064419692336E+000  9.7359847606505712E-001
       O  1.1483099514260529E+001  3.5284509773344115E+000  4.5251727949747833E+000
       O  7.6693754261576670E+000  3.5284608982268058E+000  3.3836976702529258E+000
       Ca  8.5820193353763248E+000  7.0568577736882556E+000  2.2389468133014310E+000
       Ca  1.0569886284883683E+001  7.0568728748562144E+000  5.6697626536422128E+000
       Ca  1.1774122883376801E+001  1.0585307701557175E+001  2.2389490823935105E+000
       Ca  7.3777759260818874E+000  1.0585307222251922E+001  5.6697608692199415E+000
       S  7.4352009950839246E+000  7.0568720216184211E+000  5.7803097262127654E+000
       S  1.1716637370323751E+001  7.0568719800724011E+000  2.1280517959805025E+000
       S  1.0627309432365561E+001  1.0585307652134105E+001  5.7803103155113522E+000
       S  8.5245287778065570E+000  1.0585295060378334E+001  2.1280506523974192E+000
       O  6.5157406871659331E+000  1.2908751485756497E+001  5.7792282884787278E+000
       O  1.2636126494649087E+001  1.2908797686483156E+001  2.1285829512000491E+000
       O  1.2636125339729315E+001  8.2618285060589454E+000  2.1286186802512521E+000
       O  6.5157381685786566E+000  8.2618614809063899E+000  5.7791621165250326E+000
       O  9.7078417009433302E+000  9.3803216767302331E+000  5.7791789575947297E+000
       O  9.4440174519416100E+000  9.3803393281332195E+000  2.1286132837361094E+000
       O  9.4440221666612878E+000  1.1790248954728934E+001  2.1285926462739098E+000
       O  9.7078465345209910E+000  1.1790296263070541E+001  5.7792041971358437E+000
       O  8.3700549943390374E+000  7.0569035945967631E+000  6.9352784223059505E+000
       O  1.0781124122243970E+001  7.0568830121146870E+000  9.7359930564638020E-001
       O  8.2909873152438234E+000  7.0568368810640019E+000  4.5251650946314488E+000
       O  1.0861487339562300E+001  7.0568498498147862E+000  3.3837092217751725E+000
       O  1.1562157385394114E+001  1.0585294055188548E+001  6.9352828788262713E+000
       O  7.5890129994407038E+000  1.0585288546763877E+001  9.7359977341827075E-001
       O  1.1483095565703797E+001  1.0585318662545546E+001  4.5251645652447783E+000
       O  7.6693777962935172E+000  1.0585308781947942E+001  3.3837071513101491E+000
     &END COORD
     &KIND "Ca"
       BASIS_SET "ORB" "DZVP-MOLOPT-PBE-GTH-q10"
       POTENTIAL "GTH-PBE-q10"
       &POTENTIAL
         4 6 0 0
           3.6524646201469002E-001 2 -4.1804006669854701E+000 -1.6887849202464000E+000
         3
           2.8988798370645003E-001 2  2.0501148195450281E+001 -7.1297848893034903E+000
                                                               9.1432814216561002E+000
           3.2689189928945001E-001 2  5.8028930581248899E+000 -4.2875330696042002E-001
                                                               4.8639233785097002E-001
           6.7993690959315001E-001 1  5.8464597670689997E-002
         # Potential name: GTH-PBE-Q10 for element symbol: CA
         # Potential read from the potential filename: POTENTIAL_UZH
       &END POTENTIAL
     &END KIND
     &KIND "O"
       BASIS_SET "ORB" "DZVP-MOLOPT-PBE-GTH-q6"
       POTENTIAL "GTH-PBE-q6"
       &POTENTIAL
         2 4 0 0
           2.4446328480160001E-001 2 -1.6675482223638369E+001  2.4890859824178002E+000
         1
           2.2097110943470999E-001 1  1.8334468664062850E+001
         # Potential name: GTH-PBE-Q6 for element symbol: O
         # Potential read from the potential filename: POTENTIAL_UZH
       &END POTENTIAL
     &END KIND
     &KIND "S"
       BASIS_SET "ORB" "DZVP-MOLOPT-PBE-GTH-q6"
       POTENTIAL "GTH-PBE-q6"
       &POTENTIAL
         2 4 0 0
           4.2011499303897998E-001 1 -5.9747803862195896E+000
         2
           3.6482480920276000E-001 2  1.3144660447404330E+001 -4.2418299542725197E+000
                                                               5.4761779684641398E+000
           4.0947908948436001E-001 1  3.7008698706060401E+000
         # Potential name: GTH-PBE-Q6 for element symbol: S
         # Potential read from the potential filename: POTENTIAL_UZH
       &END POTENTIAL
     &END KIND
     &KIND "H"
       BASIS_SET "ORB" "TZV2P-MOLOPT-PBE-GTH-q1"
       POTENTIAL "GTH-PBE-q1"
     &END KIND
     &TOPOLOGY
       COORD_FILE_NAME conventional_cell_slab_020_L1_2x2.xyz
       COORD_FILE_FORMAT XYZ
       NUMBER_OF_ATOMS 96
       MULTIPLE_UNIT_CELL 1 1 1
     &END TOPOLOGY
   &END SUBSYS
 &END FORCE_EVAL
