464
Lattice="24.0688 0.0 0.0 -24.185854652055536 25.348880266190136 0.0 0.0 0.0 36.8296146567733" Properties=species:S:1:pos:R:3:spacegroup_kinds:I:1:tags:I:1:forces:R:3 energy=-3451.2344195140968 pbc="T T T"
 Ca         1.7137927487        5.2068572457        6.4446599573
 Ca        -3.4750227026       11.6520062284        9.2547157019
 Ca        -4.1936926268        9.4543954896        6.4612783994
 Ca         0.8784968437        2.6858868047        9.1085685281
 Ca        -9.4358058036       12.7143445489        6.8305826019
 Ca        -3.9716603218        4.5182672861        8.6230540707
 Ca         7.4151000679        2.4609702458        6.8357009221
 Ca         1.2817558283        9.3020088929        8.4158446697
 Ca         4.2557332808        0.7338300776        8.0557726489
 Ca        -1.1154438570        7.4626461170        4.8140613961
 Ca        22.9236746345        1.0828701158        5.6651365480
 Ca        16.8316810643        7.3792856220        6.7798902493
  S         1.6491562814        2.1508070843        5.7400762659
  S        -4.4323977736        7.9885382151        9.2696702997
  S        -3.8843256847       12.4052879024        5.9743934810
  S         1.6869160556        6.3005988705        9.3692766819
  S        -0.6915349453        4.1964238798        3.9192942689
  S        -6.7741990373       10.4772635732        7.7800171781
  S        -2.4821705368       10.0956401552        3.3451399711
  S         4.2134812898        4.0802622000        7.8874074643
  S         1.6718892752        8.1756743811        5.4604895640
  S         6.8356761232        1.9365506859       10.3948493044
  S        -3.8549416247        6.5295251020        5.4876068024
  S        -9.5109820032       13.4395702046        9.9813647351
  O         2.5474236032        1.2072030811        6.4550682211
  O        -3.9295537120        6.7122962552        9.7765986186
  O        -4.6882297834       13.3862861035        6.7515686864
  O         0.9881750715        7.4057715355       10.0100651346
  O         0.9457168404        1.3526935835        4.6731313509
  O        -5.2674995122        7.8329832408        8.0463149588
  O        -3.0207167347       13.2096911380        5.0358601189
  O         2.5649094700        6.7732128722        8.2525258546
  O         2.3300398364        3.3222469046        5.1760666440
  O        -3.3716308524        8.9886811670        9.0099897176
  O        -4.7013447242       11.4270395696        5.2247665009
  O         0.7378610904        5.2867199919        8.7899481647
  O         0.5388730232        2.6269430216        6.6994935523
  O        -5.4043562570        8.5656572607       10.3897747389
  O        -2.9978909621       11.6062082089        6.9206409145
  O         2.5972608191        5.5802375536       10.4030013100
  O        -1.7548976332        3.3008898375        4.5681653362
  O        -7.5322003593        9.7017139998        8.8185640128
  O        -1.6137042836       11.3098639463        3.0725975738
  O         4.6582893920        4.7889476180        9.1197259305
  O         5.0636943757        2.9090986687        7.5678659646
  O        -0.6502257647        9.9155911869        9.6019031267
  O        -7.4133245440       11.7857171617        7.5227499001
  O        -2.3044375190        3.8067210601       10.1859213944
  O        -0.2083776219        5.2938326480        4.9322723192
  O        -5.3665127985       10.7031034386        8.2473510271
  O        -2.2262163921        9.5393471064        4.7880352733
  O         2.7877425611        3.6142045412        8.0917312981
  O         0.9827297199        8.3353368314        4.1590519592
  O         7.4664139986        2.7583629621        9.2456094334
  O        -3.1439518732        6.3654567022        4.1944555546
  O       -10.0481028082       12.1739670507        9.2325791895
  O         2.2134331795        9.4404383079        6.0117621858
  O         8.6633139303        1.4219338396        5.1899930796
  O        -4.1298793882        5.2149274819        6.1303588544
  O       -10.6557892734       12.7581518548        4.8550621752
  O         2.7567568019        7.1442582187        5.4202764724
  O         7.9411640492        0.9296172607       10.8440401490
  O        -5.0943171283        7.3525815430        5.3544334376
  O       -10.7599023677       14.3892454884       10.0305964466
  O         0.5987690206        7.6557818323        6.4561058266
  O         5.8303121007        0.9192436029        9.6935741433
  O        -2.8914478189        7.3151132857        6.4053078752
  O        -8.6098198037       14.0628744100        8.8786572805
  O         4.1650863189        5.0218357484        6.7149772213
  O        -1.2696707818       10.9729415715        9.0674950395
  O        -6.6595969495        9.6596854234        6.5174742328
  O        -1.1263718680        3.4025587978        9.7486228125
  O         5.6813481088        0.5764019564        5.9914929580
  O        -1.8236206486        5.2581432536        7.8189213691
  O        -0.1591773533       10.7876112269        6.7836001514
  O         7.8485089411        2.3724532437        4.4153130258
  O        21.4586537188        2.6073265209        7.1461138953
  O        -9.6173217094       11.7332095329        4.7285733543
  H        -0.6479078867       11.0868530056        7.6371077921
  H         7.1487901744        1.7856250865        4.0682950336
  H        21.4137300072        2.0428788342        8.0071374678
  H       -10.1057460363       10.9020557403        4.5363666320
  H        -0.8770993642       10.6072494229        6.1494605117
  H         3.4741163840        5.2575309754        9.9095205038
  H        -1.9544815838        3.3234546635        7.2930708713
  H        -6.2018419017        8.9519936975        9.9322803512
  H       -17.7903202328       25.2607236849        5.9098927475
  H        -1.0980381764        5.3732937448        8.4646395931
  H        -8.3939565580       14.9057853741        5.6657070113
  H        -2.0296860815        6.1307137191        7.4176437345
 Ca        -9.3843725004       17.9276352291        6.5427185501
 Ca       -16.8569971095       24.2579071744        9.8142636199
 Ca       -16.5968501299       21.6913079940        6.4468996577
 Ca       -11.8306779975       15.9115728255        8.8084775647
 Ca       -22.1916001394       24.5030072233        5.0459640203
 Ca       -16.1792734743       17.5745297201        8.3645225010
 Ca        -3.9646691383       15.4940873390        5.2393791844
 Ca       -11.0724245413       22.1082973986        8.9031166116
 Ca        -6.4685271477       14.1717296641        8.1665828719
 Ca       -13.1645915476       18.7166955697        6.7745104049
 Ca        11.4554528656       12.9217249227        5.9837370194
 Ca         4.3246588999       19.8985045199        6.9482203221
  S       -11.0937265660       15.6593591998        5.8048823446
  S       -17.2508156073       20.5302604843        9.7088698772
  S       -15.5822954619       24.4104413953        7.0425897276
  S        -9.4951618459       18.9824841227        9.4337737343
  S       -14.2989561726       17.1509812502        3.7305923233
  S       -19.7049813782       23.0193323217        7.4260512832
  S       -13.8357249776       22.2005347175        3.9008118219
  S        -6.5441705531       17.1602934503        7.2411620192
  S       -10.1158574362       20.7712759723        5.8759394916
  S        -4.1113036007       14.3901741579       10.2715538802
  S       -16.6061851233       18.7705544557        5.5131483117
  S       -22.7027710413       25.2519396570       10.1152229220
  O       -10.8008731405       14.6748749886        6.9192955411
  O       -16.1406702559       19.5637783562        9.7460755934
  O         7.9132921644        0.1454412476        7.7912815552
  O       -10.2445578502       20.1159439650        9.9679217895
  O       -12.1618587463       15.1579147074        4.9377882242
  O       -17.7694253661       20.6749190513        8.3014963605
  O       -14.1930110719       24.8103126944        6.6933915414
  O        -8.5251466595       19.3551332301        8.3814415915
  O        -9.8383284369       16.0526270641        5.1142834628
  O       -16.9478294030       21.8317813821       10.2983653027
  O       -16.3669738721       23.9814119274        5.8391874051
  O       -10.3570619721       17.8691531902        8.9654574080
  O       -11.5407774385       16.9105613205        6.5885127601
  O       -18.3940901451       19.8628432509       10.5622974114
  O       -15.5274459134       23.1943391608        7.9676341779
  O        -8.6836291592       18.3285043329       10.6395365768
  O       -14.8364722314       16.0131236723        4.4856148576
  O       -20.4628755140       21.9219887972        8.1479430678
  O       -13.6266633601       23.6874800209        3.8545744194
  O        -5.8553135380       18.2072816195        8.0691028498
  O        -5.5592434254       16.0935795181        6.9234140419
  O       -11.7596208463       22.6777898950       11.0114449357
  O       -20.6852682476       24.0083558239        6.9123539835
  O       -13.8207730606       17.3548967117        8.5418387781
  O       -13.3034314976       17.9795254244        4.4233830203
  O       -18.7847835655       23.7175904198        8.3592039157
  O       -14.5664007981       21.6959294186        5.1128409748
  O        -7.7250156831       16.5751375204        7.9196976480
  O       -10.7936202901       21.2285642518        4.6681812523
  O        -4.7403437535       15.5647715233        9.4601793155
  O       -16.0526171709       18.6854566874        4.1465947243
  O       -22.1931126584       23.9601415623        9.4547714591
  O        -9.7899838996       21.8545502282        6.8504213508
  O        -5.8172949197       14.7025978489        4.2915411714
  O         7.0762665464       17.4443799056        6.0687648195
  O       -20.2400923959       25.2177296550        4.2330094403
  O        -8.8387333190       20.0012765311        5.5675176878
  O        -2.8725752195       13.9084391702        9.4436890271
  O       -17.7729073779       19.7265696301        5.5218852945
  O         0.2258095395        0.3694505033        9.2886224427
  O       -11.0057072422       19.7407844243        6.6125457357
  O        -5.1334823014       13.2148641222        9.9834787712
  O       -15.5961165267       19.3778792302        6.5033295795
  O         2.5263442165        1.0212344809        9.6990264345
  O        -7.0497776221       17.8577762952        5.9870585822
  O       -12.8187489959       22.8923172143       10.1575727298
  O       -18.9604147811       22.3350868177        6.3087368369
  O       -14.3448518717       16.8140143159        7.2288666341
  O        -7.7135371189       14.2654479507        5.9519208929
  O       -13.3790390636       20.6905867414        8.1675806312
  O       -12.4204952231       22.9056933010        7.0934395322
  O        -5.7728832110       16.1321510364        3.8721575328
  O       -13.4172795594       14.5007638954        7.7337682277
  O       -20.2424979156       23.7612820687        3.9199041388
  H       -13.0803997241       23.6426871491        7.0841733991
  H        -6.4306061620       16.5719607684        4.4470887576
  H         9.9072431594       14.1198788266        8.3132893955
  H       -19.6640525783       23.3760497705        4.6076954723
  H       -11.9044777353       23.0164079154        6.2536300069
  H        -7.9223378352       18.9092031092       10.8521866657
  H       -13.8607774795       15.3701832616        7.3855662827
  H       -19.1396556793       20.5413516139       10.6960850546
  H        -6.9624966082       14.3861109227        5.2193333398
  H       -14.0136086024       20.8619254516        8.8844207583
  H         4.9999993732        0.3043884051        5.2435621878
  H       -13.3126064036       21.5404478032        7.6514599164
 Ca        14.1784791172        5.1940712728        5.7972252102
 Ca         7.7451466952       11.5321125206        9.9689673000
 Ca         7.8388985637        8.9029192798        7.2022211843
 Ca        14.0088029253        2.7634863830        9.6599209960
 Ca         1.9496970664       11.9018055677        6.1599749744
 Ca         8.7740650569        4.8397336967        9.2691644941
 Ca        19.7845278182        2.9707272241        5.0927557172
 Ca        13.8822136259        9.8859353019        8.9928488449
 Ca        17.6652106175        1.1015442361        8.0459932975
 Ca        11.0998162323        7.2401101144        7.5657271111
 Ca        10.7565645579        0.6272323940        4.7871683957
 Ca         4.7345351311        7.2562911954        7.1838080938
  S        13.0388332326        2.6502102947        6.5737471191
  S         7.0856259013        7.8638418541        9.9784917517
  S         8.0257381575       11.9089864092        6.3205691449
  S        14.7588692718        6.3531142414        9.2975503197
  S        10.8888506648        4.1706168100        3.6923109481
  S         4.7508744348       10.2733778483        7.8280160872
  S         9.8561636714        9.7905183564        4.4303781149
  S        17.1511458469        4.1701915836        7.3622686488
  S        13.9792097629        8.1837339454        5.6801537442
  S        20.0183559361        1.3464180115       10.1092248252
  S         7.8660539477        5.9820476003        6.3092332200
  S         2.1230911533       12.2679358397        9.9780004915
  O        13.5601889147        1.5974872253        7.4908618791
  O         8.0004591709        6.7667490857       10.3727949700
  O         6.7721043950       12.6617638940        6.5937947923
  O        13.9597241590        7.5300660112        9.5681028319
  O        11.6857909302        2.3090000038        6.0643645407
  O         6.3814214445        7.4706729119        8.6944107504
  O         9.0279551737       12.9311815227        5.8249406417
  O        15.0468530093        6.1812085295        7.8275998834
  O        14.0024665682        2.8552156437        5.4299531593
  O         7.9310929194        9.0765179126        9.5569989696
  O         7.8367718141       10.8316525098        5.2873659772
  O        14.2719770789        5.1191746532        9.8930446055
  O        12.9697498959        3.9480725507        7.3343849396
  O         6.1248913436        8.2008533516       11.0292212111
  O         8.5248901324       11.2182849604        7.5569858725
  O        16.1982996807        6.6839298167        9.9232748869
  O        11.1083646374        2.7491869591        3.3431413748
  O         3.7812293000        9.2933696049        8.4165055895
  O        10.8028512750       10.8799277810        4.7122345872
  O        17.7409168146        5.2703727694        8.2204088773
  O        18.2842469244        3.2740144111        6.9732518900
  O        11.7784741148        8.9258029382        8.8089575574
  O         4.0554290558       11.3469749996        7.0550011228
  O        10.3945806443        2.9240559253        9.5702577606
  O        12.0114034665        4.8481690001        4.3766413251
  O         5.5763844199       10.9492926888        8.8636707623
  O         9.8538482369        8.6918883765        5.4189783824
  O        16.1403424654        3.3827834397        8.0940067851
  O        13.3868076478        9.1318693858        4.7372500363
  O        19.2305752810        2.4813576617        9.3719481472
  O         8.5962319992        5.4867210531        5.1520785487
  O         1.7336570393       11.5146507082        8.6493865184
  O        14.6025663100        8.8472606789        6.8667840377
  O        17.9290318428        2.2914831684        4.1097259769
  O         7.1979038240        4.9073278503        7.1147000548
  O         1.0501439537       12.9225635026        4.3315094042
  O        15.0747332773        7.3014933049        5.0838474464
  O        21.2995794793        1.0772721805        9.2366971217
  O         6.8429029783        7.0444036219        5.9514982406
  O         0.8787931216       13.0825594909       10.3586507252
  O        12.9077457134        7.1857067036        6.1198703702
  O        19.1589140968        0.0835724849        9.7489798864
  O         8.8342696470        6.6952214752        7.2932682164
  O         3.0804583952       13.4374745266        9.4432209841
  O        16.5739569239        4.8332744421        6.1231512437
  O        10.7716804614        9.6543868146        8.0060222251
  O         5.6086874618        9.4835581453        6.8682477056
  O        11.7058726243        3.4446838031        9.7785068732
  O        16.2284127658        1.3455835912        5.8918694653
  O        10.9504830628        5.7148703675        9.1801354754
  O        12.6206396692       11.1676824694        7.0986650011
  O        17.9442691485        3.7675368332        3.8987761141
  O         9.5503602226        3.4235222827        7.3303852376
  O         1.9467341479       11.9657715606        3.6668095329
  H        11.4223428203       10.3200249737        7.5311785130
  H        17.3456814544        4.0987071310        4.6021894149
  H        10.0467466171        3.0505377804        8.1738792772
  H         2.7397813762       12.5246051252        3.5382073943
  H        12.8381601090       10.6384852519        6.3086510925
  H        16.8297263685        6.0241168078        9.5316608166
  H        10.2204936130        3.3154057039        6.6313233224
  H         6.3833955397        9.7181335056       11.6736264106
  H        16.9002339973        1.6508699410        5.1700762283
  H        11.5181225893        4.4954046017        9.5335497607
  H         3.1084073954       14.4246477255        5.5887375211
  H        11.0327958496        6.2394926147       10.0064452562
 Ca         0.8265387645       18.0228122031        6.7423029568
 Ca        -3.1767804971       24.1148282446        8.8824889656
 Ca        -3.6226925937       22.1544478691        6.0547906416
 Ca         1.3228974232       15.1134561482        9.4945911216
 Ca        -9.4917980358       24.9619521770        6.6439356489
 Ca        -3.5805191871       17.4149995771        8.5304231787
 Ca         7.4642771098       14.9673022638        5.8031560757
 Ca         1.0564896506       22.2956157580        8.0765921333
 Ca         4.8366874878       13.3954704772        7.9714064557
 Ca        -1.0895775618       19.9608930810        3.9637247135
 Ca        -1.0571825577       13.4197037665        3.8811875411
 Ca        -6.7134826653       20.1395458138        6.7845403261
  S         0.6205827449       15.0492573747        6.5260781740
  S        -4.1796617458       20.7029470055        9.3734321999
  S        -3.9757563131       25.3019096115        5.5100330452
  S         1.6506658443       19.4923398775        9.4712440309
  S        -0.7914507963       16.6894970592        3.5147837480
  S        -6.4146054854       23.0326380917        7.3179023055
  S        -1.5089815292       23.5045084242        3.3754148347
  S         4.1130650304       16.9712322935        7.8070757749
  S         1.5160848560       20.9138258381        4.9955607298
  S         7.5801095088       14.6128685227        9.4888324887
  S        -3.6664087118       19.1547681816        5.1126812867
  S        -9.3836025787       25.0443470908        9.9072788098
  O         1.4450181708       14.0567273556        7.2728862390
  O        -3.5238673334       19.4713790434        9.8254382521
  O        19.1435218892        0.7356912075        6.1802882602
  O         1.2185953509       20.7051888574       10.1683667401
  O        -0.5491497422       14.4201343755        5.8801310973
  O        -4.4202254759       20.6864238185        7.8934848833
  O        20.8984993392        0.8882742639        4.5332591998
  O         1.9905567320       19.8466527428        8.0376368138
  O         1.4415690612       15.8717782785        5.6051667952
  O        -3.5291242682       21.9341331006        9.8374350164
  O        -4.4369989894       24.0808556081        4.8368343213
  O         0.7407751521       18.3440488550        9.4595526954
  O         0.0734820409       16.0009053603        7.6055466896
  O        -5.6334175992       20.6662774358       10.0356438327
  O        -2.8973108840       24.9296951812        6.5237784901
  O         2.9930230502       19.0507079061       10.1794496486
  O        -1.9787548492       15.7009188077        3.7042880470
  O        -7.0121977679       22.0939241183        8.3305096705
  O        -0.5352694003       24.3627611916        4.1726322737
  O         5.2189354671       17.9048009338        8.2237605748
  O         4.6037186021       15.7073012687        7.2294584290
  O        -1.1044879801       21.7804233523        8.0429631367
  O        -7.2502141300       24.2460111098        7.1758395683
  O        -1.7180618845       16.7990846380       10.0585877242
  O        -0.6786578500       17.6955092095        4.6960132191
  O        -5.0217322765       23.4286549633        7.7049630774
  O        -1.8765306252       22.2128686094        4.1400341707
  O         3.2293331706       16.6952620356        9.0084616930
  O         1.0580802972       21.0478625846        3.5880733400
  O         7.2079290770       15.3451303932        8.1295245038
  O        -3.2363408131       18.9186789252        3.7111001555
  O        -9.9294020183       24.1020410673        8.7559801549
  O         1.5006327472       22.2435463126        5.7013683143
  O         5.7873068792       14.2483833270        4.5721492638
  O        -3.7582170740       17.8975681874        5.8995200841
  O       -11.2845023258       25.2092321674        5.1795964590
  O         2.8402433493       20.2719721954        5.1339113413
  O         8.6844652855       13.6205939665        9.1058274223
  O        -4.9054681780       19.9765691914        5.1873785401
  O        13.6018816428        0.5308998209       10.3376482884
  O         0.4605865641       20.0584666658        5.6910078669
  O         6.3518968549       13.6962984577        9.7631900436
  O        -2.5536742882       20.0224566531        5.7451798460
  O        15.6639835355        0.7403438956        9.0938640050
  O         3.3023878874       17.7361354457        6.7831109493
  O        -1.8285620946       22.8642525348        7.4034129372
  O        -6.2934221746       22.2764102953        6.0286487426
  O        -0.7623123722       15.9982373012       10.3795414674
  O         3.6514731266       13.6189349878        5.6608924032
  O        -1.4460680841       18.6447028243        7.7288557586
  O         0.0459033227       24.5679367385        6.9227050132
  O         5.6434143061       15.7059103262        4.3515519354
  O        -2.6731657005       15.5693404771        7.3734504977
  O       -10.9026826511       23.7856044932        5.0999758684
  H         0.1309671103       25.0136274618        7.8287828701
  H         4.9997180055       15.9650771646        5.0443948953
  H        -2.7747282356       14.8385923358        8.0662829439
  H       -10.9489991213       23.5496704038        4.1520330409
  H        -0.7700711746       23.9146774344        7.0118099065
  H         3.2168980109       18.1214442978        9.8257094934
  H        -1.6985563535       15.6755191789        7.3137223715
  H        -6.1823474428       21.3357661290        9.5145447751
  H         4.5485179023       13.8341917122        5.1221737880
  H        -1.2338318482       19.0715474648        8.5797462136
  H        15.4971611855        1.9971182028        5.7751757640
  H        -1.8235500843       19.3631932891        7.1565557999
  O        12.4604053592       11.7072508259       12.9033632173
  H        11.8552963288       11.3105105724       13.5796710951
  H        12.6960403188       10.9476278550       12.3145074024
  O        11.1978777589       13.1385750390       11.1700185135
  H        11.6703184019       12.6355878718       11.9237326901
  H       -12.1095315742       13.5704023566       10.7085542719
  O        12.9513655739        9.5927138084       11.1830532864
  H        13.1543363827        8.7242871295       11.7233451185
  H        12.1005401788        9.3527157724       10.7546689800
  O         9.4333808710        4.7919293987       11.6260705936
  H        10.4477336804        4.8860427180       11.7509235515
  H         9.0974184844        5.6735303183       11.8720795169
  O         7.6848727458       13.2093257836       14.3445481770
  H         8.0986678723       12.5049315401       14.9305660072
  H         7.8763305307       14.0526211957       14.7769151336
  O        10.0395616118       11.0056105061       10.1852027377
  H        10.6200287927       11.8031578425       10.3845747638
  H        10.3528459001       10.5359523308        9.3675374247
  O         9.7051158899        3.0256358180       13.6601818350
  H        10.6034965697        2.6606560619       13.3715440339
  H         9.4416592797        3.6454264451       12.9315282115
  O       -14.9976916865       23.7263176820       11.1862864799
  H       -15.2691461199       23.3491700740       12.0457069046
  H       -14.1255541033       23.2866945116       10.8847022811
  O       -13.2038961066       24.9055459182       13.8421204601
  H        11.4427623427        0.4195332998       13.5993954201
  H       -12.7341702110       24.6234263000       14.6529641133
  O         6.8509688997       10.5548907308       11.9345771266
  H         8.5537728272        9.7345646026       12.4769948716
  H         6.1812838854       11.2104528775       12.2580956039
  O       -11.2571443743       24.3020109867       15.7147620740
  H       -11.1684927017       23.7055526984       16.4691818215
  H       -10.6553179328       25.1211352541       15.9342212372
  O       -16.7224672939       23.2782312557       13.4128684430
  H       -16.8491387167       22.3850812498       13.7645418090
  H       -17.5040076045       23.4474083413       12.8449518037
  O         8.5359553127       12.9926386501       11.7471136658
  H         8.3809349407       13.0110699570       12.7179673042
  H         9.4861243662       13.2029673108       11.5926870422
  O       -18.6317991448       23.9914636078       11.5080352000
  H       -19.2675052462       23.2589365617       11.2921591817
  H       -19.1201095037       24.8209349363       11.3509246253
  O         8.7626194336       11.2902627305       15.7861814960
  H         8.8264545873       11.3049357522       16.7486016437
  H         9.6315991903       10.8967697445       15.4487745128
  O         5.5046241906       12.8383173150       12.5168842935
  H         6.2064895101       13.0799482995       13.1550214555
  H         5.7449452403       13.2919802207       11.6848462557
  O       -20.1399620028       21.8396796796       10.8128756057
  H         3.0284353351       21.6725187907       11.1455018321
  H       -20.2979147458       22.0128428378        9.8455186294
  O        16.9904287953        5.7143936004       20.3729029693
  H        16.6713229242        5.6897819438       19.4571316509
  H        17.6823624619        6.3951961639       20.3962145200
  O        10.8712111271       10.3078268052       14.6386491926
  H        11.6644143855        9.7063386561       14.8940262060
  H        10.4035648018        9.8703625696       13.8848088245
  O         9.5051708877        9.5185708086       12.4037107326
  H         9.7951269551       10.0397140005       11.6097938636
  H        10.2598213472        8.0265485623       11.9172914982
  N        11.3649762860        4.6174576315       15.2528782090
  H        10.5616067260        4.0718544927       14.8952797021
  H        12.2494228887        4.0750828605       14.9715005187
  H        11.3028115467        4.7170425722       16.2610396918
  N       -10.3705794014       24.1548296578       12.9331494077
  H        -9.5022995960       23.6645219082       12.7300451561
  H       -11.0865367974       23.8429211544       12.2474610893
  H       -10.6891885320       23.9329428492       13.8874160337
  N        13.0461808368        8.8436188597       15.1240506489
  H        13.2078598132        8.3824013782       14.2117653608
  H        12.8897365896        8.0756199961       15.7726542029
  H        13.9156426761        9.3020445378       15.3884142428
  N         8.5175732543        0.6407974696       13.4893455681
  H         8.8031078559        1.6381316125       13.7013751398
  H         8.2383231320        0.6447689060       12.4739235243
  H         7.7510607270        0.2948492363       14.0597717170
  H         9.3779067304        0.0530314605       13.6530470018
  N        14.5035035777        1.0526443557       16.1173276043
  H        15.3253632946        0.8959723541       15.5348607575
  H        14.8290961107        1.3280041137       17.0405603941
  H       -10.1668756855       25.2600614958       12.9092145284
  H        14.0530763454        1.8785935517       15.6685971260
  N        10.9421344758        0.6468267470       10.7643495749
  H       -13.9887121401       25.3427690837       11.0305033055
  H        11.6913253138        0.1626052723       10.2608485056
  H        11.3963121036        1.0726095792       11.6116874007
  H        10.5654941840        1.4610451232       10.1963767320
  N        16.3045904480        3.9324976662       22.2051677609
  H        16.6308076231        4.6715454509       21.4922089604
  H        15.6145063686        3.3264336639       21.7519046206
  H        15.8647185782        4.3812999265       23.0127527804
  H        17.0971206965        3.3660123038       22.5167657971
  P        11.9139879346        6.7138181022       12.6305886422
  O        11.2159218147        6.8368560076       13.9858937437
  O        10.9109449010        7.3864044246       11.5274760137
  O        11.9707244730        5.2475262080       12.1413933845
  O        13.2410897344        7.4586387049       12.5573837251
  H        11.3236814796        5.6106059026       14.7319685197
  P        13.4040875953        2.3764151682       13.2353861944
  O        14.4490940671        1.2764477892       13.1487663823
  O        13.6941312202        3.3727798700       11.9894608806
  O        13.4792679515        3.1662146140       14.5410091314
  O        11.9565922708        1.8403673371       13.0117746847
  H        13.0620544128        4.2036426508       12.0456483997
