     464
 i =        1, E =     -6302.9822413461
 Ca         1.7583057352        5.2161121220        6.4500039466
 Ca        -3.4927072019       11.6417402695        9.2136122909
 Ca        -4.2072475575        9.4429827392        6.4538907727
 Ca         0.8879265542        2.7060124510        9.0617132152
 Ca        -9.4529959343       12.7081440750        6.8487244795
 Ca        -3.9985293146        4.5456864094        8.6217487247
 Ca         7.3985486850        2.4455058484        6.8720068160
 Ca         1.2930114586        9.3087203225        8.3903173467
 Ca         4.2772525812        0.7363845140        8.0255003298
 Ca        -1.1211089892        7.4607496396        4.8112074458
 Ca        22.9324297682        1.0893361755        5.7024083669
 Ca        16.8272399250        7.3733602249        6.7824972641
  S         1.6277010690        2.1562529940        5.7424587993
  S        -4.4560396833        7.9818880592        9.2294540727
  S        -3.8875589979       12.4004347852        5.9809392256
  S         1.6929518059        6.3125397426        9.3222809415
  S        -0.6927945964        4.2612838363        4.0214224879
  S        -6.7779998536       10.4823114497        7.7704697329
  S        -2.4169300938       10.0402673655        3.4537590090
  S         4.2140735233        4.0757125777        7.9028682696
  S         1.6490090972        8.1686327287        5.4860407386
  S         6.8390032146        1.9042502865       10.3674133674
  S        -3.8368633614        6.5436863937        5.5060289283
  S        -9.5083466342       13.4485563006        9.9628954699
  O         2.5577062265        1.2527537446        6.4487866778
  O        -3.9344154149        6.7134287829        9.7037598059
  O        -4.7146306225       13.3647549462        6.7396378713
  O         0.9808465190        7.4237481782        9.9188625738
  O         0.9339827904        1.3521909409        4.6932158025
  O        -5.3007080278        7.8311546778        8.0320306759
  O        -3.0321932805       13.2137852077        5.0677129524
  O         2.5837453399        6.7594020874        8.2264218562
  O         2.2683580174        3.3314210308        5.1709169718
  O        -3.4191508733        8.9854310312        8.9622498951
  O        -4.6770141693       11.4226019285        5.2298669910
  O         0.7646748683        5.2958057871        8.7569273210
  O         0.5303474256        2.6077503513        6.7047981972
  O        -5.4015861057        8.5148054399       10.3627480200
  O        -3.0011257795       11.6262301535        6.9223678739
  O         2.5692737214        5.6281357908       10.3851287894
  O        -1.7364349151        3.3327683071        4.6195122082
  O        -7.5273766253        9.7387287334        8.8136765815
  O        -1.6697813456       11.3245665752        3.2157901181
  O         4.6397266484        4.7746617128        9.1262396118
  O         5.0579674541        2.9084484611        7.5919836329
  O        -0.6701138827        9.8630605347        9.5525348891
  O        -7.3963581444       11.7855542016        7.4860240185
  O        -2.3196268638        3.7357345632       10.1261722822
  O        -0.2325342880        5.2933016352        5.0856563636
  O        -5.3768837410       10.6940040137        8.2301110795
  O        -2.2045499355        9.5438967633        4.9176461676
  O         2.7928042602        3.6189998533        8.0796896298
  O         0.9677745270        8.3165066996        4.1939184552
  O         7.5170503084        2.7082202157        9.2504180028
  O        -3.1442799093        6.3715699647        4.2181639559
  O       -10.0147110603       12.1864913220        9.2283548039
  O         2.1748811499        9.4340168250        6.0248462513
  O         8.6995133019        1.4353112432        5.2612263811
  O        -4.1098070632        5.2391328651        6.1483475010
  O       -10.6599003405       12.7822089598        4.8825282624
  O         2.7384595309        7.1568082782        5.4353491156
  O         7.9008831160        0.8768423933       10.8272816195
  O        -5.0745738968        7.3537455100        5.3698254448
  O       -10.7417446661       14.3922532264        9.9026725724
  O         0.5902815746        7.6609317401        6.4735063961
  O         5.8569094766        0.9451116239        9.6307587901
  O        -2.8847937784        7.3124129632        6.4159366667
  O        -8.5761610521       14.0283806476        8.8885349696
  O         4.1825638825        5.0059078998        6.7378536632
  O        -1.2822540153       10.9636531602        9.1563481654
  O        -6.6732490336        9.6546367896        6.5309404991
  O        -1.1106111784        3.4262907956        9.7274222389
  O         5.7369638338        0.6016155315        5.9854437050
  O        -1.8414827863        5.2448757601        7.8548842306
  O        -0.1462366710       10.8159026668        6.7683203207
  O         7.8528325100        2.3558390760        4.4705937846
  O        21.4682314490        2.6194599942        7.1214996073
  O        -9.6378069736       11.7348798904        4.7371924913
  H        -0.6436362940       11.1855112509        7.5480737772
  H         7.1995625928        1.7237989019        4.1174289078
  H        21.4216880756        2.0693696649        7.9882024217
  H       -10.1641415652       10.9169226387        4.5913757825
  H        -0.8353563417       10.5531079615        6.1315087813
  H         3.4410504332        5.2735170990        9.9308102349
  H        -1.9871932531        3.3726746467        7.2688935585
  H        -6.1769421456        8.9728831030        9.9433541928
  H       -17.7659871571       25.2509432376        5.9074538775
  H        -1.0952312358        5.3584370165        8.4743500189
  H        -8.4085302583       14.9326669752        5.6976266247
  H        -1.9963548237        6.0934733851        7.3943911747
 Ca        -9.3790376484       17.9264573452        6.5259371052
 Ca       -16.8496860850       24.2309824680        9.7833680215
 Ca       -16.5829196996       21.6779517090        6.4230442537
 Ca       -11.8495618620       15.9460534788        8.7927331330
 Ca       -22.2206195029       24.5142141925        5.0886949150
 Ca       -16.1468402642       17.5588909729        8.3522342615
 Ca        -3.9602257913       15.4776465363        5.2688813499
 Ca       -11.0707333099       22.1160150596        8.8788465104
 Ca        -6.4730856643       14.1744704953        8.1297900390
 Ca       -13.1636223192       18.7494054617        6.7579269470
 Ca        11.4250023452       12.9214845057        5.9771630565
 Ca         4.3366458448       19.8947088473        6.9309058702
  S       -11.0701982740       15.6626950417        5.8379623085
  S       -17.2564374239       20.5304696110        9.6594128401
  S       -15.5910470235       24.3902503103        7.0518060268
  S        -9.4786869821       18.9797837785        9.3979365617
  S       -14.1914321471       17.0358585623        3.7716633687
  S       -19.6851568358       23.0083224440        7.4107897847
  S       -13.9221457950       22.2114536790        3.9524531492
  S        -6.5511852660       17.1655314507        7.2113310474
  S       -10.1030896094       20.7780197376        5.9106434018
  S        -4.1092309820       14.3812260213       10.2055925361
  S       -16.6276614867       18.7575791875        5.5362038514
  S       -22.7112035290       25.2762933268       10.0587920832
  O       -10.7683449671       14.7097371397        6.9568346879
  O       -16.1746905650       19.5522768036        9.6735951790
  O         7.9165887958        0.1161502397        7.8110087588
  O       -10.2243334383       20.1213071279        9.8873346048
  O       -12.1213492617       15.1442801372        4.9789801702
  O       -17.7881950968       20.7009138030        8.2809400632
  O       -14.2231350683       24.7959832050        6.6806251023
  O        -8.5089250128       19.3352499488        8.3591806546
  O        -9.8286072973       16.0563037683        5.1408576184
  O       -16.9171226784       21.8111630492       10.2492808617
  O       -16.3967143780       23.9806808171        5.8747581485
  O       -10.3242842466       17.8743062968        8.9420163127
  O       -11.5347841025       16.9165931854        6.5682173257
  O       -18.3851299355       19.8872084612       10.5161114668
  O       -15.5174329990       23.1774969933        7.9529477276
  O        -8.6930378313       18.3572061358       10.6129962718
  O       -14.8237618882       15.9872068831        4.5746225626
  O       -20.4434576308       21.9249801800        8.1256218118
  O       -13.5650275268       23.6520638026        3.9908917045
  O        -5.8789343394       18.2147246164        8.0284167580
  O        -5.5520850719       16.1150791483        6.9090504248
  O       -11.6782059078       22.7743505890       10.9696578821
  O       -20.6641917735       23.9909161075        6.9013967022
  O       -13.7954258843       17.4102694948        8.5549064341
  O       -13.3263993169       17.9686483860        4.4941624210
  O       -18.7843775953       23.7031020982        8.3487377818
  O       -14.5387425593       21.6853402288        5.2046607600
  O        -7.7103125170       16.5741210292        7.8924072331
  O       -10.7774843102       21.2429903870        4.7204742731
  O        -4.7022148349       15.5682943219        9.4188640803
  O       -16.0960200131       18.6707148934        4.1915481723
  O       -22.2364266131       23.9828721165        9.4072418552
  O        -9.7799364998       21.8537448069        6.8815870793
  O        -5.8098657076       14.7359394160        4.3229098204
  O         7.0509722554       17.4477229278        6.1108218988
  O       -20.2790641469       25.1971253835        4.2795263339
  O        -8.8312769389       20.0219181438        5.5956282785
  O        -2.8900293353       13.8898507002        9.3702889254
  O       -17.7873439778       19.7167717745        5.5743120920
  O         0.2239919337        0.3979211542        9.2393077915
  O       -10.9709376108       19.7473653228        6.6313392239
  O        -5.1370954512       13.2365216164        9.9002426553
  O       -15.6168741456       19.3521360980        6.5218843321
  O         2.5185151252        1.0122090544        9.6192707973
  O        -7.0506846959       17.8483671288        5.9696575032
  O       -12.7684325003       22.9533002598       10.1586225287
  O       -18.9430262029       22.3421591201        6.3086407562
  O       -14.2914167668       16.8204515909        7.2440446990
  O        -7.7574784912       14.2549580258        5.9654773774
  O       -13.3457382880       20.7093288659        8.1668032835
  O       -12.3993777470       22.9381520563        7.0896219947
  O        -5.7424116608       16.1618629306        3.9216813176
  O       -13.4129919122       14.4652930232        7.7342075892
  O       -20.3173963373       23.7411291927        3.9816287310
  H       -13.0605568209       23.6662661068        7.0902977573
  H        -6.4063804973       16.6048689156        4.4875316879
  H         9.9103965825       14.0938555273        8.3061802785
  H       -19.6879417821       23.3485091992        4.6165979799
  H       -11.8843089258       23.0552447384        6.2488147136
  H        -8.0245370015       18.9975151292       10.9202228406
  H       -13.8461050188       15.3334192334        7.3939467250
  H       -19.1120432412       20.5619299939       10.6880148791
  H        -7.0307002333       14.3461855044        5.2452439990
  H       -14.0112846691       20.8262698015        8.8638390565
  H         5.0541404481        0.3500809423        5.2615404195
  H       -13.3320706817       21.5633823859        7.6616471655
 Ca        14.1729548702        5.1964191395        5.8111522907
 Ca         7.7243254262       11.5104970654        9.9388449675
 Ca         7.8296223585        8.9445800199        7.1354591566
 Ca        13.9808402035        2.8014130026        9.6230255378
 Ca         1.9675047705       11.9179546888        6.2039528380
 Ca         8.7827443855        4.8215048048        9.2635837472
 Ca        19.8309289248        2.9563253972        5.1031140396
 Ca        13.9068593827        9.9042231374        8.9732333777
 Ca        17.6337134752        1.0944520317        8.0305136052
 Ca        11.0590334207        7.2503684234        7.5329311339
 Ca        10.7799074066        0.6381867280        4.8396607734
 Ca         4.7457607672        7.2541912607        7.1782577566
  S        13.0662679331        2.6437913234        6.6055261000
  S         7.0918210238        7.8480572122        9.9213411864
  S         7.9924059027       11.9356711293        6.3635994642
  S        14.7631367654        6.3668011787        9.2728746060
  S        10.9733198186        4.1716072194        3.6951319532
  S         4.7265062867       10.2807881254        7.8470695455
  S         9.9931302251        9.6714383449        4.4548681641
  S        17.1429477564        4.1677441828        7.3674718673
  S        13.9952748041        8.1935717834        5.7333317056
  S        20.0144818125        1.3596789634       10.0595657893
  S         7.8611424839        5.9802943788        6.3501338598
  S         2.1380875639       12.2861252730        9.9145813656
  O        13.5906611411        1.5928911466        7.5118575057
  O         8.0163446049        6.7583334098       10.2895957479
  O         6.7537916112       12.7039673515        6.6385249292
  O        13.9850695590        7.5479943364        9.5420231594
  O        11.7273147664        2.2972803168        6.1130398069
  O         6.3361673288        7.4417092129        8.7003117182
  O         8.9983135167       12.9424251697        5.8853740813
  O        15.0421936009        6.1784462987        7.8251085325
  O        14.0170086572        2.8568992998        5.4747020701
  O         7.9084699258        9.0481079597        9.4725633690
  O         7.7910937146       10.8771922148        5.3578935702
  O        14.2720552040        5.1472124074        9.8729983154
  O        12.9984379120        3.9276576175        7.3643849113
  O         6.1862814723        8.1850948423       11.0084119844
  O         8.4804700715       11.2499358900        7.5962647236
  O        16.1919193390        6.6906894643        9.8836142222
  O        11.1393890747        2.7370219672        3.4252025820
  O         3.7464430573        9.3204978058        8.4171958071
  O        10.7660684536       10.8609823848        4.8128084815
  O        17.7296705726        5.2556696739        8.2155465798
  O        18.2794557123        3.2891871092        6.9714063449
  O        11.8241853577        8.8902493097        8.7933591520
  O         4.0482719824       11.3382100476        7.0592925823
  O        10.4114864628        2.9171119577        9.5612270116
  O        12.0643053357        4.8202426131        4.4454675042
  O         5.5351095125       10.9561770471        8.8787636471
  O         9.8278502850        8.6722191901        5.5337989466
  O        16.1608799115        3.3750549852        8.1082484437
  O        13.4145941137        9.1378851019        4.7981757754
  O        19.2494017433        2.4941100946        9.3322372472
  O         8.5930320541        5.4812997028        5.2109921944
  O         1.6896046395       11.5385932133        8.6269415580
  O        14.6212992301        8.8523234142        6.9065407725
  O        17.9543480734        2.3209846993        4.1801128883
  O         7.2007689760        4.9101791511        7.1496301260
  O         1.0329068267       12.8935619497        4.3763548335
  O        15.0710638353        7.3180170160        5.1277890738
  O        21.2716600108        1.0734109223        9.1773754796
  O         6.8400230108        7.0175936635        5.9702783231
  O         0.9377992220       13.1454504764       10.3051726664
  O        12.9328000155        7.2132484044        6.1676162179
  O        19.1448535357        0.1238289019        9.6818465498
  O         8.8066510035        6.7063494455        7.3119397759
  O         3.1174825684       13.3864131897        9.3424585666
  O        16.5603609448        4.8176419352        6.1483787553
  O        10.8008020931        9.6449998370        8.0390451968
  O         5.5841520773        9.4906182530        6.9147506525
  O        11.7022298562        3.4761966081        9.8151015728
  O        16.1869330070        1.2986757482        5.9083273950
  O        10.9435958993        5.7458493967        9.1425461222
  O        12.6131143776       11.1932748647        7.1039812364
  O        17.9998429444        3.7867404994        3.9682582908
  O         9.5220088554        3.4068998089        7.3457805971
  O         1.9860293458       11.9556359615        3.7518329419
  H        11.4367858525       10.3190287275        7.5779019471
  H        17.3811936288        4.1442951588        4.6393819114
  H        10.0559373407        3.0100531492        8.1401044280
  H         2.7199750903       12.5667365243        3.5494545685
  H        12.7952301793       10.6629061303        6.3081961872
  H        16.8233428162        6.0079713836        9.5500390092
  H        10.1598795339        3.4027663620        6.6177943300
  H         6.3969622284        9.6895368259       11.6644062473
  H        16.8467706502        1.5864066393        5.1992283730
  H        11.5008275111        4.4979809427        9.5505138286
  H         3.1383956086       14.4467889181        5.6121880241
  H        11.0362198510        6.3009487751        9.9476028911
 Ca         0.8167335393       18.0092417824        6.7565494760
 Ca        -3.1987569408       24.1131596114        8.8538011226
 Ca        -3.6771484287       22.1376419206        6.0307848885
 Ca         1.4551829363       15.1154864777        9.4295629270
 Ca        -9.5091212814       24.9306021538        6.6986292273
 Ca        -3.6316754083       17.4513539396        8.4410109213
 Ca         7.4760492692       14.9712082408        5.8283399314
 Ca         1.0887374402       22.2570470918        8.1189630779
 Ca         4.8830195802       13.4038059764        7.9110573048
 Ca        -1.0805565988       19.9633814355        3.9904596483
 Ca        -1.0646781679       13.4093898743        3.9674867603
 Ca        -6.7295731570       20.1499431264        6.7760555907
  S         0.6288205390       15.0645978449        6.5448714053
  S        -4.1732115505       20.6976711277        9.3092601781
  S        -3.9413030044       25.2858963909        5.5452547923
  S         1.6541937471       19.4954160188        9.4197396890
  S        -0.8323042252       16.7148459918        3.5971047273
  S        -6.4118821859       23.0312804413        7.3180126408
  S        -1.4513261246       23.4255120434        3.4339122874
  S         4.1087051209       16.9953950585        7.8088465764
  S         1.4923196887       20.9167214860        5.0497894951
  S         7.5518638393       14.6318963624        9.4801714068
  S        -3.6446186833       19.1582022457        5.1366008235
  S        -9.3881200081       25.0521869313        9.8980797879
  O         1.4532505617       14.0574634119        7.2534424609
  O        -3.5040828128       19.4731870009        9.7311820709
  O        19.1708374911        0.6977556334        6.2130047515
  O         1.2091967138       20.7002949202       10.1033704325
  O        -0.5364197119       14.4497240182        5.9091591553
  O        -4.4308971999       20.6969012161        7.8486794708
  O        20.9305737413        0.8704782524        4.5855162968
  O         1.9869168215       19.8426998685        8.0026951153
  O         1.4428513161       15.8729675976        5.6302804503
  O        -3.5259858519       21.9179743123        9.7685698992
  O        -4.3902016258       24.0843426769        4.8562427804
  O         0.7653205046       18.3418687376        9.4251535570
  O         0.1041421047       15.9955147127        7.6304642171
  O        -5.5910225297       20.6372290940        9.9875952200
  O        -2.8766209274       24.9153131811        6.5523943019
  O         2.9818183921       19.0925731366       10.1327535578
  O        -1.9728198575       15.7032710061        3.8170674677
  O        -6.9730121473       22.0991175459        8.3299923062
  O        -0.5712661334       24.3426764481        4.2457718745
  O         5.2105428261       17.9008329924        8.2169748830
  O         4.5663886418       15.7372754807        7.2178613475
  O        -1.0760219710       21.7281497484        7.9645157374
  O        -7.2574381535       24.2252156272        7.1769459858
  O        -1.6170959364       16.8556985595       10.0558555687
  O        -0.6841070686       17.6869333652        4.7843526729
  O        -5.0253722029       23.4356783563        7.6842423669
  O        -1.8775752881       22.2097068008        4.2610456510
  O         3.2421950949       16.7136606133        9.0135095779
  O         1.0398701068       21.0609490529        3.6560295760
  O         7.2061592706       15.3504065895        8.1342621253
  O        -3.2102489355       18.9369471975        3.7491986861
  O        -9.9636338708       24.1151592465        8.7904094131
  O         1.4556184244       22.2310087612        5.7576248274
  O         5.7960373702       14.2485974877        4.6315811059
  O        -3.7452360629       17.9018480393        5.9054171430
  O       -11.2705177711       25.2118511526        5.2029561694
  O         2.8202937898       20.3096762702        5.1804875993
  O         8.6551957731       13.6478183338        9.1147005185
  O        -4.8844391645       19.9635117631        5.2083933178
  O        13.6232496349        0.5867155088       10.2763347091
  O         0.4597367274       20.0418713387        5.7293992289
  O         6.3353837253       13.7149202076        9.7324822622
  O        -2.5550707499       20.0096881961        5.7860053145
  O        15.6691417772        0.6717020771        9.0554608389
  O         3.2903234663       17.7597460571        6.8136353284
  O        -1.8430096668       22.7741331954        7.4153189555
  O        -6.2939540038       22.2817421199        6.0378240733
  O        -0.8064963186       15.9118992513       10.2904829720
  O         3.6321356638       13.6103703696        5.6669111080
  O        -1.4438497958       18.6186660192        7.7357125415
  O         0.0596503067       24.5790368610        6.9282294967
  O         5.6423313928       15.7032858282        4.3997098495
  O        -2.6748249034       15.5977760353        7.3632293791
  O       -10.8796949014       23.7917375891        5.1201173854
  H         0.1040286833       25.0119008544        7.8505709732
  H         5.0369794939       15.9785788165        5.1194220168
  H        -2.7666314442       14.8638611351        8.0495416435
  H       -11.1085801976       23.5295306552        4.2100463810
  H        -0.7196799609       23.9341002912        6.9588650419
  H         3.2136609838       18.1550713977        9.8315962307
  H        -1.7055714759       15.7011803398        7.2858290307
  H        -6.1542324700       21.3269250649        9.5190997060
  H         4.5210725702       13.7922102567        5.1405647894
  H        -1.2642741949       19.0791135923        8.5753701978
  H        15.4692944175        1.9683294039        5.8017370634
  H        -1.8143956492       19.3258911396        7.1469482873
  O        12.4466624415       11.6928896497       12.8842391363
  H        11.8631229807       11.2861594021       13.5704897333
  H        12.6620573236       10.9344142444       12.2910084924
  O        11.2023537441       13.2030993375       11.1550695502
  H        11.6670806424       12.6842725701       11.8907554901
  H       -12.1066522257       13.6356460401       10.7027384383
  O        12.9563710878        9.6058410155       11.1168650490
  H        13.1545200458        8.7501494579       11.6615866097
  H        12.1400081260        9.3327806312       10.6407556002
  O         9.4380420706        4.7779610378       11.5935430012
  H        10.4416672819        4.8756118547       11.6990588344
  H         9.1221419602        5.6779750267       11.7963194143
  O         7.6974556836       13.2234590068       14.3331572775
  H         8.1028876833       12.5090814095       14.9077389199
  H         7.8687512028       14.0547699942       14.7930783335
  O        10.0274772810       11.0111671108       10.1511989244
  H        10.6147036603       11.7940929971       10.3353327071
  H        10.3605597017       10.5146039155        9.3562116159
  O         9.7158914404        3.0149540256       13.6385809289
  H        10.6054133157        2.6561764839       13.3270349135
  H         9.4571646020        3.6496400032       12.9241289328
  O       -15.0117433802       23.7180138962       11.1782507954
  H       -15.3087490492       23.3370943867       12.0294084970
  H       -14.1496677983       23.2761553568       10.9027890657
  O       -13.2040261419       24.9083089618       13.8339580832
  H        11.4430608512        0.4191311374       13.5922606950
  H       -12.7263536970       24.6406984868       14.6443209546
  O         6.8840557857       10.5238352771       11.8954813508
  H         8.5597102692        9.7341208087       12.4210522662
  H         6.2432714520       11.1993765375       12.2348354962
  O       -11.2453900937       24.3262749034       15.6634800304
  H       -11.2156643060       23.7224069023       16.4136682551
  H       -10.6503796967       25.1467271388       15.9095485454
  O       -16.6917026700       23.2818345828       13.3178307681
  H       -16.8537715027       22.4513579639       13.7824957195
  H       -17.4830062354       23.4365325750       12.7583738623
  O         8.5586750204       12.9136974155       11.7265141750
  H         8.3957133476       13.0127531211       12.6875462241
  H         9.4651531399       13.2480648321       11.5459774998
  O       -18.6173379455       23.9536227984       11.4668609663
  H       -19.2617374676       23.2227044875       11.2733340005
  H       -19.1327554298       24.7745294266       11.3984806832
  O         8.7746875645       11.2976169542       15.7736383228
  H         8.7967115661       11.3047319158       16.7360514382
  H         9.6468683352       10.9025219969       15.4616230260
  O         5.5493039850       12.8033432929       12.4741332714
  H         6.1865222466       13.0969366672       13.1531188221
  H         5.7892066763       13.2945597513       11.6649489970
  O       -20.1543780704       21.8467579214       10.8138720796
  H         3.0190756885       21.6584640203       11.1439956307
  H       -20.3099871262       22.0175268668        9.8515385973
  O        17.0198780874        5.6528477010       20.4474491446
  H        16.6284227135        5.5588071575       19.5657302344
  H        17.6316394782        6.4073471554       20.4535459388
  O        10.8747238060       10.2761556618       14.6430575156
  H        11.6641283093        9.6607367179       14.8770579145
  H        10.4084938706        9.8345792970       13.8955700162
  O         9.5142761623        9.5257071006       12.3663270276
  H         9.8048803912       10.0859100382       11.6017782627
  H        10.2719986732        8.0585685678       11.8772238842
  N        11.3647039311        4.6080893435       15.2727946950
  H        10.5666413145        4.0553247838       14.9151857367
  H        12.2399244201        4.0748558501       14.9685721762
  H        11.3076172659        4.7276785252       16.2783149431
  N       -10.3859815966       24.1299989608       12.9206788772
  H        -9.5120061665       23.6423374016       12.7434668397
  H       -11.0897902477       23.8032067707       12.2170285035
  H       -10.7280381183       23.9337938172       13.8720344421
  N        13.0288486615        8.8149085825       15.1083992236
  H        13.2133369414        8.3407404576       14.2085486255
  H        12.8748047655        8.0684964059       15.7786940291
  H        13.8632997063        9.3312765657       15.3690411049
  N         8.5205512599        0.6172964997       13.4638993897
  H         8.8159091790        1.6040698021       13.6871735748
  H         8.2345611488        0.6400907142       12.4543946679
  H         7.7518766492        0.2771811429       14.0338265439
  H         9.3708017061        0.0226855144       13.6128369747
  N        14.4881709431        1.0670031533       16.1083884975
  H        15.3163367910        0.8825093064       15.5462777715
  H        14.7886156242        1.3062449690       17.0483715284
  H       -10.2007864204       25.2136004446       12.8660339749
  H        14.0654424291        1.8961488258       15.6488771543
  N        10.9250147078        0.6386546602       10.7615695879
  H       -13.9719522346       25.3076623875       11.0496888925
  H        11.6761913880        0.1843831387       10.2351680883
  H        11.3982377270        1.0761901338       11.5955789342
  H        10.5224110093        1.4487733598       10.2093848098
  N        16.3164814252        3.9598240456       22.1813475977
  H        16.6856705099        4.7533290733       21.4618616673
  H        15.6297387365        3.3747299031       21.6993637172
  H        15.8602895137        4.3850998024       22.9905251826
  H        17.0892816220        3.3717539116       22.4976370261
  P        11.9057288172        6.7180892065       12.6070160134
  O        11.2613404285        6.8304741256       13.9845764748
  O        10.8587751390        7.3420902096       11.5223391751
  O        12.0030164421        5.2667881380       12.1231480082
  O        13.2067182713        7.4904432976       12.5169663259
  H        11.3278656650        5.5751774315       14.7367474576
  P        13.3906130952        2.3739803623       13.1798564867
  O        14.4269189175        1.2763384672       13.1081427885
  O        13.7022949953        3.3640154200       11.9475773832
  O        13.4616500852        3.1804772225       14.4671924515
  O        11.9455453543        1.8372109010       12.9570371949
  H        13.0933188585        4.2003214102       11.9998666626
     464
 i =        2, E =     -6303.0231976590
 Ca         1.7507079741        5.2177346825        6.4506526972
 Ca        -3.4801948734       11.6474846782        9.2422816326
 Ca        -4.1999936636        9.4554314314        6.4653215477
 Ca         0.8708509266        2.7189798841        9.0959395792
 Ca        -9.4577631936       12.7071154467        6.8585416350
 Ca        -3.9871966831        4.5352492046        8.6300504795
 Ca         7.4037337401        2.4550082498        6.8747831842
 Ca         1.2812434767        9.3145163746        8.4050224339
 Ca         4.2735203113        0.7291170597        8.0304084742
 Ca        -1.1166183028        7.4634519214        4.8394555153
 Ca        22.9290633668        1.0862334525        5.7048108303
 Ca        16.8292775424        7.3689365376        6.7922784492
  S         1.6350968264        2.1575077691        5.7394084778
  S        -4.4497791903        7.9830392401        9.2430148421
  S        -3.8898216729       12.4034194236        5.9813405988
  S         1.6883527382        6.3131067455        9.3331765330
  S        -0.6862802515        4.2379301997        4.0004229340
  S        -6.7801126714       10.4826823084        7.7670729524
  S        -2.4481376579       10.0534612900        3.4353062642
  S         4.2197686998        4.0786613104        7.8975478858
  S         1.6547450241        8.1756772274        5.4793726612
  S         6.8410559803        1.9061036186       10.3714254993
  S        -3.8435382637        6.5342639133        5.4989625149
  S        -9.5206003973       13.4509524070        9.9432701062
  O         2.5601186339        1.2394915760        6.4514730165
  O        -3.9194494238        6.7119528328        9.7326611361
  O        -4.7133149343       13.3729709471        6.7507641651
  O         0.9673860859        7.4203486305        9.9462871426
  O         0.9397396785        1.3526019472        4.6758137971
  O        -5.3070043306        7.8322162146        8.0386766231
  O        -3.0267652163       13.2194161649        5.0578269808
  O         2.5862534803        6.7643227558        8.2281219428
  O         2.2911498704        3.3347852010        5.1606726889
  O        -3.4036453602        8.9907275259        8.9672442918
  O        -4.6933630254       11.4265245623        5.2189128213
  O         0.7529492112        5.2919810211        8.7572770904
  O         0.5255888593        2.6179969612        6.7011270548
  O        -5.4065019129        8.5248017827       10.3807639547
  O        -2.9986335085       11.6126879727        6.9233541558
  O         2.5795421814        5.6189558906       10.3937730880
  O        -1.7472927323        3.3170779597        4.6079395980
  O        -7.5334871732        9.7301891117        8.8187237810
  O        -1.6406496883       11.3114219841        3.1754574126
  O         4.6569303157        4.7768557196        9.1321482010
  O         5.0699241260        2.9055915615        7.5820983066
  O        -0.6620221235        9.8690578179        9.5606176298
  O        -7.4080477628       11.7921871890        7.4909291201
  O        -2.3143836988        3.7537533768       10.1342321242
  O        -0.2377871566        5.3147857997        5.0447403387
  O        -5.3693554932       10.6975985032        8.2321698561
  O        -2.1929261790        9.5276426323        4.8929542657
  O         2.7900315964        3.6191392821        8.0887898559
  O         0.9681810912        8.3200905059        4.1752651273
  O         7.5071203147        2.7320038684        9.2481649294
  O        -3.1449805153        6.3672994745        4.1988665360
  O       -10.0312685924       12.1597993838        9.2363702915
  O         2.1826581569        9.4483834084        6.0238323818
  O         8.6889153987        1.4330095725        5.2434095527
  O        -4.1119992388        5.2234223714        6.1497500245
  O       -10.6640365274       12.7785818260        4.8611292028
  O         2.7471869269        7.1531525971        5.4284190759
  O         7.9148506844        0.8805542256       10.8452811764
  O        -5.0799468607        7.3609388753        5.3606647224
  O       -10.7589484517       14.4061322323        9.9563342756
  O         0.5906037139        7.6607664542        6.4742540945
  O         5.8348349756        0.9319261644        9.6462312762
  O        -2.8811028492        7.3135523909        6.4079240751
  O        -8.5642027218       14.0588425803        8.8878711892
  O         4.1797412269        5.0143774271        6.7221842480
  O        -1.2855174668       10.9626084855        9.1357180595
  O        -6.6691730995        9.6540846143        6.5128429404
  O        -1.1057047271        3.4089494279        9.7335809755
  O         5.7302495246        0.5976308844        5.9871119110
  O        -1.8368314948        5.2477626015        7.8438930314
  O        -0.1515513283       10.8152686318        6.7723645173
  O         7.8633287260        2.3530596636        4.4476358481
  O        21.4729501373        2.6127036470        7.1197307547
  O        -9.6386492360       11.7394480863        4.7350031862
  H        -0.6478754500       11.1669736029        7.5735700609
  H         7.1800089298        1.7408296845        4.1045891318
  H        21.4117545892        2.0695498594        7.9958092925
  H       -10.1485105910       10.9127717202        4.5807115879
  H        -0.8473015663       10.5635879264        6.1332594875
  H         3.4504703830        5.2740140787        9.9215109842
  H        -1.9764380593        3.3638486477        7.2802301542
  H        -6.1842327119        8.9651872176        9.9340624617
  H       -17.7617528556       25.2545583555        5.9129775439
  H        -1.0960298544        5.3548613912        8.4760351373
  H        -8.4149112978       14.9227638616        5.6909001173
  H        -2.0031718763        6.1074559478        7.3994982078
 Ca        -9.3835533733       17.9319859198        6.5396915181
 Ca       -16.8458747953       24.2503767087        9.7918521954
 Ca       -16.5937481519       21.6763185277        6.4432369300
 Ca       -11.8427895679       15.9214327216        8.8060629185
 Ca       -22.2065975193       24.5038276325        5.0729138230
 Ca       -16.1567020967       17.5505101750        8.3755224670
 Ca        -3.9740867718       15.4757102984        5.2508028997
 Ca       -11.0743162346       22.1277324362        8.8968356935
 Ca        -6.4658273068       14.1710356717        8.1336105612
 Ca       -13.1548383025       18.7481070466        6.7784900558
 Ca        11.4446802860       12.9242511929        5.9996360081
 Ca         4.3268718241       19.9010179229        6.9419738091
  S       -11.0726216350       15.6624415927        5.8259467313
  S       -17.2521154887       20.5278507397        9.6714251827
  S       -15.5877563988       24.3951037017        7.0467120260
  S        -9.4795502074       18.9801998470        9.4057565450
  S       -14.1939531425       17.0437024752        3.7567760412
  S       -19.6917606514       23.0120434569        7.4162684799
  S       -13.8980815083       22.2051071364        3.9368275011
  S        -6.5531275713       17.1668788716        7.2190898961
  S       -10.1048375868       20.7784005478        5.8977197175
  S        -4.1068707446       14.3868668657       10.2138273605
  S       -16.6219729029       18.7618911573        5.5345598481
  S       -22.7096166406       25.2707188815       10.0750784636
  O       -10.7691009032       14.7020335113        6.9484438600
  O       -16.1522039109       19.5533068283        9.6857971685
  O         7.9065235310        0.1225526533        7.8048843418
  O       -10.2375192879       20.1207283961        9.9138534105
  O       -12.1387397672       15.1491291662        4.9615867791
  O       -17.7943764920       20.6897415916        8.2824981587
  O       -14.2035521021       24.7898413664        6.6865563111
  O        -8.4983543365       19.3415047484        8.3615208776
  O        -9.8194874618       16.0474570610        5.1236846673
  O       -16.9245428991       21.8192401282       10.2706814607
  O       -16.3940040983       23.9783664693        5.8543265893
  O       -10.3344973796       17.8683111429        8.9341851399
  O       -11.5353961956       16.9225513041        6.5746748299
  O       -18.3881028894       19.8773270257       10.5367075454
  O       -15.5186238090       23.1752112884        7.9585322830
  O        -8.6844463445       18.3446921180       10.6232913621
  O       -14.8224937450       15.9785093873        4.5537997989
  O       -20.4471050577       21.9133607748        8.1374480583
  O       -13.5775221188       23.6695927408        3.9519957381
  O        -5.8807567934       18.2258948407        8.0450037759
  O        -5.5458197168       16.1152645295        6.9203805773
  O       -11.7018179096       22.7449534163       10.9819142866
  O       -20.6743728230       24.0019650872        6.9091787056
  O       -13.8010792473       17.3974805752        8.5481230846
  O       -13.3027191376       17.9799609449        4.4617305159
  O       -18.7740435964       23.7042676029        8.3563871976
  O       -14.5477709254       21.6785772084        5.1869306663
  O        -7.7234188098       16.5695135634        7.8980572834
  O       -10.7882722053       21.2414128299        4.6965342793
  O        -4.7169426886       15.5775171208        9.4225062122
  O       -16.0885125629       18.6853044790        4.1760610277
  O       -22.2234777888       23.9700828563        9.4232682404
  O        -9.7720460956       21.8554362334        6.8775277502
  O        -5.8051007001       14.7250502629        4.3034606396
  O         7.0542199915       17.4402058673        6.1031935558
  O       -20.2758944959       25.2022286756        4.2495372648
  O        -8.8275838460       20.0154108618        5.5746854995
  O        -2.8763519891       13.8915711648        9.3836692632
  O       -17.7910544547       19.7221189082        5.5588623208
  O         0.2107262050        0.3853449422        9.2614595696
  O       -10.9853514880       19.7456160803        6.6272096459
  O        -5.1409007778       13.2269493731        9.9288529455
  O       -15.6063649624       19.3604120744        6.5277273226
  O         2.5248368475        1.0185039758        9.6434015620
  O        -7.0649875772       17.8523513192        5.9676835467
  O       -12.7804473872       22.9369486814       10.1495483405
  O       -18.9421123192       22.3394478383        6.3030583001
  O       -14.3074126382       16.8216384745        7.2429433146
  O        -7.7491599615       14.2600128227        5.9691297077
  O       -13.3565154939       20.7070376909        8.1657361905
  O       -12.4094740346       22.9297214601        7.0931686338
  O        -5.7545670625       16.1591408937        3.8981537144
  O       -13.4154204985       14.4760451367        7.7353426101
  O       -20.2962366201       23.7407466248        3.9523201562
  H       -13.0673519405       23.6659091300        7.0917352681
  H        -6.4071175617       16.5959382124        4.4830652754
  H         9.9102589941       14.0931060844        8.3137957281
  H       -19.6904722483       23.3592280164        4.6228652084
  H       -11.8849824184       23.0531812909        6.2542927795
  H        -8.0034066550       18.9883653146       10.9099119109
  H       -13.8493360950       15.3420753941        7.3891542979
  H       -19.1208503424       20.5666473227       10.6733050583
  H        -7.0115332427       14.3609526149        5.2409166130
  H       -14.0130328116       20.8332433910        8.8730636264
  H         5.0340028549        0.3335919902        5.2632350148
  H       -13.3277379309       21.5632061892        7.6558648271
 Ca        14.1835866691        5.1950606833        5.8328431840
 Ca         7.7309141098       11.5296514924        9.9566420403
 Ca         7.8253471674        8.9292561226        7.1675054923
 Ca        13.9939485877        2.7860672035        9.6460794353
 Ca         1.9603090433       11.9257724111        6.2121661395
 Ca         8.7874671759        4.8252688583        9.2690729421
 Ca        19.8092708048        2.9750864979        5.0926409231
 Ca        13.9154484987        9.8947414741        8.9865195050
 Ca        17.6464892562        1.1169348472        8.0380836101
 Ca        11.0719880542        7.2430026336        7.5527334325
 Ca        10.7713176285        0.6382527862        4.8413508936
 Ca         4.7353108233        7.2591494258        7.1764361572
  S        13.0609549564        2.6421897001        6.5979013308
  S         7.0905194337        7.8489244641        9.9374533556
  S         7.9979252943       11.9259022325        6.3508630893
  S        14.7631527176        6.3679319970        9.2822089241
  S        10.9515385633        4.1742560464        3.6982923630
  S         4.7323920067       10.2807172569        7.8424471930
  S         9.9757287393        9.6902450203        4.4435806661
  S        17.1483840257        4.1654720449        7.3632705520
  S        13.9926274934        8.1918126847        5.7162107946
  S        20.0137482182        1.3515613907       10.0522198976
  S         7.8574906745        5.9783199875        6.3381350349
  S         2.1272264199       12.2959283844        9.9026912773
  O        13.5907352312        1.5893362614        7.5085253384
  O         8.0235276035        6.7582335416       10.3112201641
  O         6.7576834369       12.7032706787        6.6330516794
  O        13.9702554016        7.5499753032        9.5452071088
  O        11.7058200145        2.3076167558        6.1043892298
  O         6.3423972904        7.4433790942        8.6920428512
  O         9.0118330841       12.9411125216        5.8673572057
  O        15.0498753142        6.1824378447        7.8195410954
  O        14.0162395544        2.8516664112        5.4524212638
  O         7.9175728658        9.0587498284        9.4874872899
  O         7.7872619171       10.8669156993        5.3263364878
  O        14.2756972177        5.1352176474        9.8821291613
  O        12.9922787944        3.9357598988        7.3616260878
  O         6.1619946742        8.1881717147       11.0183159652
  O         8.4908748689       11.2365674272        7.5913475061
  O        16.2012441233        6.6966251799        9.8985876247
  O        11.1325549876        2.7368257614        3.3977103106
  O         3.7501973173        9.3102818509        8.4223653822
  O        10.7893371153       10.8676176604        4.7839559189
  O        17.7240256518        5.2719353691        8.2177982178
  O        18.2885648411        3.2782782692        6.9722329121
  O        11.8127737693        8.9003122137        8.7909411004
  O         4.0477891026       11.3462221565        7.0492450944
  O        10.3967591256        2.9261121407        9.5675566476
  O        12.0539871912        4.8357756972        4.4347408852
  O         5.5474057878       10.9583919022        8.8822907771
  O         9.8350261709        8.6598092977        5.5016595995
  O        16.1480054073        3.3756101526        8.1058570116
  O        13.4002576174        9.1424153443        4.7751464336
  O        19.2315717013        2.4960593404        9.3408829474
  O         8.6029227754        5.4795696798        5.1897225515
  O         1.6992457828       11.5147035930        8.6142163210
  O        14.6250625216        8.8467895055        6.9000903320
  O        17.9512233142        2.3173386622        4.1515066002
  O         7.1894905443        4.9068253428        7.1478581833
  O         1.0420631365       12.8961591523        4.3696371706
  O        15.0789066599        7.3121570849        5.1054194973
  O        21.3037144979        1.0753126192        9.1974367659
  O         6.8313012977        7.0255840021        5.9498099540
  O         0.9115571832       13.1276151041       10.3379712004
  O        12.9213786133        7.2021924116        6.1528509283
  O        19.1434733829        0.0920247430        9.7122760182
  O         8.8021647085        6.7081520067        7.3162392149
  O         3.1353144011       13.4053334202        9.3614672925
  O        16.5548107638        4.8197942546        6.1332392221
  O        10.7893270481        9.6478325941        8.0300518596
  O         5.5971023723        9.4850178638        6.8991950037
  O        11.6961734828        3.4675327600        9.8051816392
  O        16.1964252388        1.3030357177        5.9047395038
  O        10.9429245653        5.7310240723        9.1494042883
  O        12.6116974807       11.1827495553        7.1061866998
  O        17.9747843436        3.7914085790        3.9323225517
  O         9.5265732944        3.4049676236        7.3299472415
  O         1.9666628223       11.9612796184        3.7269246511
  H        11.4298716607       10.3216873147        7.5635366600
  H        17.3800673750        4.1257373659        4.6425489165
  H        10.0587585303        3.0266808212        8.1450523419
  H         2.7335441309       12.5527823479        3.5564425685
  H        12.8088891525       10.6562085456        6.3088781000
  H        16.8193271020        6.0049226690        9.5427612288
  H        10.1757340337        3.3857082684        6.6077436720
  H         6.3973556576        9.6976166164       11.6594155119
  H        16.8679287672        1.6018259452        5.1955949886
  H        11.5154530868        4.5016844774        9.5503237182
  H         3.1167336344       14.4363504545        5.6126464753
  H        11.0315838890        6.2854255712        9.9590244659
 Ca         0.8104655642       18.0045346323        6.7537160060
 Ca        -3.1780966271       24.1206996641        8.8570910016
 Ca        -3.6545543489       22.1449369970        6.0468382857
 Ca         1.4116686227       15.1071578452        9.4712921454
 Ca        -9.4938045377       24.9382435596        6.6938739444
 Ca        -3.6041232615       17.4180456557        8.4767976639
 Ca         7.4639428375       14.9561303583        5.8314596811
 Ca         1.0638230644       22.2738027274        8.0958646074
 Ca         4.8653966545       13.3933569970        7.9285717781
 Ca        -1.0818241463       19.9526439782        3.9686837473
 Ca        -1.0575838749       13.4046880888        3.9411982662
 Ca        -6.7236301447       20.1438872615        6.7864267042
  S         0.6319973166       15.0543590680        6.5388288107
  S        -4.1741881678       20.6944697712        9.3262148171
  S        -3.9505232829       25.2878055157        5.5368909767
  S         1.6555568395       19.4966379662        9.4361762771
  S        -0.8238133683       16.7197376596        3.5783352384
  S        -6.4159150199       23.0310395861        7.3113028769
  S        -1.4702616829       23.4445254254        3.4175277698
  S         4.1117882870       16.9882212476        7.8082874633
  S         1.5006347403       20.9186152253        5.0402399634
  S         7.5599622580       14.6277595413        9.4837350792
  S        -3.6539844391       19.1555908007        5.1302193187
  S        -9.4076815358       25.0658966332        9.8871312465
  O         1.4661259346       14.0550323999        7.2641653943
  O        -3.4917672948       19.4682778455        9.7532115421
  O        19.1613094953        0.7050469820        6.2125507184
  O         1.2019674144       20.7064188849       10.1289607309
  O        -0.5550573865       14.4483327851        5.9076856773
  O        -4.4431871948       20.6852807768        7.8555000319
  O        20.9255184340        0.8704775510        4.5613597921
  O         1.9939818751       19.8533379381        8.0100892147
  O         1.4519901882       15.8686971072        5.6140469999
  O        -3.5245155534       21.9243242404        9.7924972378
  O        -4.4047379650       24.0774297137        4.8418217112
  O         0.7641103217       18.3359159159        9.4336836239
  O         0.1029169890       15.9942513656        7.6282009280
  O        -5.6066643766       20.6406031145       10.0064704121
  O        -2.8742669599       24.9106831750        6.5446623760
  O         2.9909071516       19.0832047240       10.1559390217
  O        -1.9763365211       15.7016028095        3.7842688990
  O        -6.9923571253       22.0955220350        8.3306954659
  O        -0.5543931857       24.3450905588        4.2307714349
  O         5.2216489975       17.9056560636        8.2199066614
  O         4.5798935680       15.7229034300        7.2166484597
  O        -1.0782891079       21.7371945487        7.9850689397
  O        -7.2651229922       24.2315824774        7.1724726802
  O        -1.6665976461       16.8329738689       10.0469244465
  O        -0.6807776775       17.6953287150        4.7770340210
  O        -5.0220572825       23.4318600905        7.6892287409
  O        -1.8740864651       22.2032470095        4.2393688068
  O         3.2411667798       16.7120540964        9.0213628650
  O         1.0517067639       21.0607784969        3.6326267425
  O         7.2045324019       15.3545646583        8.1263004003
  O        -3.2173355661       18.9297106835        3.7311439516
  O        -9.9483725200       24.0873526618        8.7748033925
  O         1.4608709888       22.2406500674        5.7517875237
  O         5.8033560532       14.2515006070        4.6189559233
  O        -3.7472915303       17.8938211586        5.9103204800
  O       -11.2829453728       25.2094213050        5.1995156210
  O         2.8346140980       20.2971226061        5.1649270323
  O         8.6706260727       13.6426869720        9.1130419440
  O        -4.8982821672       19.9717853311        5.1930801179
  O        13.5959650107        0.5798318519       10.3152841420
  O         0.4521758569       20.0469796949        5.7199931604
  O         6.3314722185       13.7124252626        9.7416640172
  O        -2.5506433379       20.0143213634        5.7724862265
  O        15.6918954301        0.6898411397        9.0636909636
  O         3.2890465306       17.7565626459        6.8020741305
  O        -1.8413407127       22.8039691102        7.4119508471
  O        -6.2952224054       22.2739519960        6.0217442180
  O        -0.7672516344       15.9389783695       10.3111240816
  O         3.6352940051       13.6108752838        5.6612900200
  O        -1.4360132019       18.6328997668        7.7292091097
  O         0.0520427107       24.5755347161        6.9221155965
  O         5.6346100094       15.7049499967        4.3810153854
  O        -2.6718151585       15.5837348083        7.3567939601
  O       -10.8806634968       23.7905104123        5.1055546515
  H         0.1123633527       25.0135406284        7.8442784290
  H         5.0305413995       15.9702342523        5.1095687787
  H        -2.7686405617       14.8580101640        8.0617385311
  H       -11.0739831958       23.5278036374        4.1877991408
  H        -0.7413815726       23.9304724748        6.9733191828
  H         3.2199208976       18.1483123599        9.8206086062
  H        -1.6983982409       15.6974643511        7.2950987661
  H        -6.1550652233       21.3324754331        9.5115174460
  H         4.5341068983       13.8140279410        5.1398260091
  H        -1.2572334456       19.0713095671        8.5846646893
  H        15.4709852207        1.9692742622        5.8007974686
  H        -1.8202960819       19.3375056371        7.1402242811
  O        12.4551324404       11.6938961318       12.8900658932
  H        11.8529559431       11.2950984305       13.5716070686
  H        12.6735562132       10.9396729114       12.2856436179
  O        11.2051348508       13.2058076275       11.1648316892
  H        11.6633897318       12.6707383331       11.8992717476
  H       -12.0974808585       13.6160212802       10.6921697136
  O        12.9525717032        9.6090278118       11.1281722425
  H        13.1534087430        8.7465106535       11.6757036567
  H        12.1282928332        9.3384158303       10.6607086005
  O         9.4366079589        4.7882043766       11.5977333248
  H        10.4478686220        4.8713754315       11.7069893331
  H         9.1155091311        5.6848623536       11.8134246770
  O         7.6786540060       13.2245997819       14.3369114223
  H         8.1109045695       12.5105362051       14.9029014419
  H         7.8734697598       14.0560942809       14.7944625565
  O        10.0316944731       11.0127030195       10.1566129332
  H        10.6149707987       11.8032716108       10.3457234820
  H        10.3583088471       10.5161677157        9.3563494903
  O         9.7118183810        3.0221518271       13.6467435271
  H        10.6105213039        2.6546082135       13.3440787392
  H         9.4422785381        3.6499649797       12.9236732992
  O       -15.0157317606       23.7068098687       11.1732203173
  H       -15.3049418940       23.3381512826       12.0340900168
  H       -14.1290215576       23.2906010291       10.9041200879
  O       -13.2079684525       24.9091189686       13.8436194239
  H        11.4397518238        0.4208453225       13.5749193371
  H       -12.7240991191       24.6306157113       14.6483869993
  O         6.8839890359       10.5296482033       11.9124094927
  H         8.5546191461        9.7290159122       12.4352421856
  H         6.2284210115       11.2004472179       12.2366586289
  O       -11.2599185806       24.3121826025       15.6732326717
  H       -11.2033222449       23.7175862942       16.4333159008
  H       -10.6584095164       25.1377386671       15.9065608051
  O       -16.6996972875       23.2867299811       13.3432659771
  H       -16.8542948675       22.4349116651       13.7795286436
  H       -17.4869873849       23.4356395457       12.7720440277
  O         8.5429995218       12.9430007128       11.7294095333
  H         8.3924981485       13.0031733850       12.6994574057
  H         9.4750944014       13.2225138004       11.5512595393
  O       -18.6234078595       23.9624687523       11.4855311641
  H       -19.2648913368       23.2296482845       11.2721001089
  H       -19.1311214454       24.7891785377       11.3863280480
  O         8.7683134982       11.3016116283       15.7808058181
  H         8.8054502510       11.3010415540       16.7458316653
  H         9.6386668580       10.8966170160       15.4556036492
  O         5.5237730275       12.8282184317       12.4849653175
  H         6.1999415071       13.0852709580       13.1510624672
  H         5.7849604605       13.2906409595       11.6604295065
  O       -20.1516201056       21.8407666464       10.8173600855
  H         3.0156328506       21.6628524425       11.1465864803
  H       -20.3054752677       22.0169077972        9.8482546696
  O        17.0128577601        5.6699101132       20.4286320221
  H        16.6428041086        5.5961404736       19.5343700144
  H        17.6415171902        6.4111485322       20.4352492108
  O        10.8684678708       10.2788636599       14.6470453363
  H        11.6692031117        9.6713390809       14.8809922399
  H        10.3986555158        9.8492070188       13.8869902562
  O         9.5124887927        9.5290806264       12.3752260096
  H         9.8118273884       10.0747210024       11.6010287550
  H        10.2621555267        8.0498355015       11.8923366646
  N        11.3648917599        4.6067341267       15.2598986928
  H        10.5587233092        4.0553351855       14.9149032081
  H        12.2501174192        4.0690153434       14.9697084352
  H        11.3056645724        4.7210570626       16.2699270776
  N       -10.3858533852       24.1343214086       12.9201829570
  H        -9.5078901703       23.6477096647       12.7423656465
  H       -11.0906601343       23.8094511002       12.2195579797
  H       -10.7170822367       23.9333758480       13.8759874733
  N        13.0300563840        8.8253706966       15.1136112217
  H        13.2101116626        8.3487547535       14.2095641750
  H        12.8843754666        8.0669061404       15.7776058971
  H        13.8810358646        9.3207375314       15.3763698585
  N         8.5193514492        0.6244760399       13.4680016879
  H         8.8151472433        1.6175997739       13.6873512326
  H         8.2296486514        0.6373840778       12.4543514297
  H         7.7493742726        0.2789809094       14.0351199126
  H         9.3777239756        0.0284406104       13.6213943140
  N        14.4878219483        1.0598673240       16.1086902824
  H        15.3220611835        0.8902378252       15.5451742940
  H        14.8002834617        1.3185066739       17.0435796484
  H       -10.1904256442       25.2252842387       12.8712260142
  H        14.0624584283        1.8968997685       15.6497501343
  N        10.9356487397        0.6383580329       10.7604362901
  H       -13.9735896982       25.3156139763       11.0413124851
  H        11.6839951542        0.1730951257       10.2372691229
  H        11.4010683285        1.0734819216       11.6056339826
  H        10.5321168864        1.4496294650       10.2058096923
  N        16.3134769069        3.9511153564       22.1928219750
  H        16.6744428041        4.7313277356       21.4762051657
  H        15.6258402221        3.3636491072       21.7122472407
  H        15.8575861314        4.3814368064       23.0000565024
  H        17.0913864466        3.3667700487       22.5040588379
  P        11.9102804820        6.7164042196       12.6143554266
  O        11.2361387440        6.8385778645       13.9828461438
  O        10.8743530600        7.3563614812       11.5225016262
  O        11.9873861412        5.2575130081       12.1246058408
  O        13.2251453848        7.4826848651       12.5284651517
  H        11.3276844589        5.5911533429       14.7345866376
  P        13.3991434223        2.3771629681       13.1960801230
  O        14.4377227932        1.2742345444       13.1221393275
  O        13.7069090134        3.3675132032       11.9513543252
  O        13.4634467483        3.1767153446       14.4960005664
  O        11.9483622692        1.8457678829       12.9682030313
  H        13.0840470873        4.2009515771       12.0115485027
     464
 i =        3, E =     -6303.0344348499
 Ca         1.7430746743        5.2151406301        6.4455432501
 Ca        -3.4756373840       11.6453700012        9.2515733211
 Ca        -4.1953348595        9.4541276381        6.4650840379
 Ca         0.8746157433        2.7123201224        9.1058531800
 Ca        -9.4459194793       12.7064248512        6.8429845455
 Ca        -3.9798392174        4.5315642630        8.6275877617
 Ca         7.4049716213        2.4592509334        6.8599253744
 Ca         1.2767887612        9.3145259191        8.4031072260
 Ca         4.2613183774        0.7273983862        8.0367932459
 Ca        -1.1142851587        7.4643013448        4.8449785860
 Ca        22.9303655064        1.0851834750        5.7005884951
 Ca        16.8359593473        7.3746406499        6.7853414504
  S         1.6408976201        2.1577633718        5.7360983387
  S        -4.4439385173        7.9834228772        9.2513270622
  S        -3.8890616741       12.4040003611        5.9787225268
  S         1.6851644775        6.3106411825        9.3427741181
  S        -0.6840542456        4.2214717147        3.9799154963
  S        -6.7806244233       10.4824406332        7.7687169222
  S        -2.4655154751       10.0631238647        3.4153904134
  S         4.2212781489        4.0801299677        7.8958086153
  S         1.6596481545        8.1824084542        5.4736076811
  S         6.8330470119        1.9218790452       10.3907110548
  S        -3.8469703491        6.5311519159        5.4946075144
  S        -9.5044503247       13.4456639424        9.9874466703
  O         2.5581121440        1.2294864090        6.4503438855
  O        -3.9173893603        6.7099090608        9.7486200420
  O        -4.7062532222       13.3787299045        6.7533434405
  O         0.9688698135        7.4179159718        9.9664884713
  O         0.9394648215        1.3507728559        4.6723664637
  O        -5.3022300095        7.8308566949        8.0423775674
  O        -3.0229622992       13.2212870095        5.0518757728
  O         2.5797737058        6.7705149003        8.2327094242
  O         2.3060279457        3.3365652206        5.1603685627
  O        -3.3944316113        8.9933969423        8.9754979353
  O        -4.6994570482       11.4248310490        5.2178396907
  O         0.7459257626        5.2890801478        8.7612880838
  O         0.5306452974        2.6229950406        6.7013646508
  O        -5.4077782243        8.5358110593       10.3864013271
  O        -3.0016229365       11.6052095704        6.9245307439
  O         2.5850094985        5.6090788985       10.3982604022
  O        -1.7531848803        3.3106094375        4.5980573422
  O        -7.5364102065        9.7216134675        8.8203089059
  O        -1.6277457241       11.3057466941        3.1511219384
  O         4.6623925232        4.7809136716        9.1335683850
  O         5.0717501889        2.9046799359        7.5762313811
  O        -0.6608472915        9.8764499603        9.5728816887
  O        -7.4149055537       11.7928480048        7.4969190107
  O        -2.3142665034        3.7676729995       10.1450557564
  O        -0.2370998377        5.3130139113        5.0163401873
  O        -5.3675833772       10.7040488744        8.2346719473
  O        -2.1907002674        9.5301122928        4.8699832792
  O         2.7891526968        3.6192172326        8.0901989611
  O         0.9673932291        8.3254517713        4.1675097850
  O         7.4978584144        2.7341496495        9.2507710675
  O        -3.1427915535        6.3636839133        4.1929628639
  O       -10.0357271681       12.1832009506        9.2269626507
  O         2.1898725680        9.4562272794        6.0212083334
  O         8.6823070945        1.4295376056        5.2314962427
  O        -4.1181103606        5.2166726394        6.1435654500
  O       -10.6676727484       12.7743678991        4.8586800301
  O         2.7518429117        7.1544819483        5.4275355303
  O         7.9217226603        0.8939950803       10.8426741612
  O        -5.0854091067        7.3597686242        5.3591162013
  O       -10.7564771958       14.3919994655        9.9706470095
  O         0.5967806801        7.6617061655        6.4747943031
  O         5.8390126360        0.9262518793        9.6576792249
  O        -2.8847034128        7.3116214915        6.4117210575
  O        -8.5958531269       14.0533173043        8.8798223073
  O         4.1773526778        5.0184578328        6.7174214609
  O        -1.2810403433       10.9644439138        9.1144861164
  O        -6.6665209583        9.6564644388        6.5083417002
  O        -1.1091350525        3.4024925803        9.7387114004
  O         5.7171927773        0.5906806899        5.9891836449
  O        -1.8330728058        5.2492256194        7.8367570540
  O        -0.1547016207       10.8139624804        6.7780946532
  O         7.8640630205        2.3545324222        4.4380735323
  O        21.4689506225        2.6147624528        7.1265728594
  O        -9.6382293469       11.7410426743        4.7384492459
  H        -0.6535960675       11.1501270609        7.5897951206
  H         7.1708444575        1.7522768030        4.0974827451
  H        21.4133869982        2.0613955293        7.9951724414
  H       -10.1347492361       10.9094147365        4.5695027604
  H        -0.8535277532       10.5738548567        6.1383185710
  H         3.4574353476        5.2727782110        9.9174415888
  H        -1.9700036001        3.3572452964        7.2822621772
  H        -6.1904778638        8.9614971204        9.9327116067
  H       -17.7649980929       25.2575905415        5.9118319729
  H        -1.0970963742        5.3566811045        8.4740853104
  H        -8.4150794034       14.9166957874        5.6860282243
  H        -2.0084379910        6.1144197518        7.4045590719
 Ca        -9.3815771694       17.9356249288        6.5396908654
 Ca       -16.8556204704       24.2415438900        9.7996471943
 Ca       -16.6003612704       21.6718113599        6.4521733135
 Ca       -11.8465303516       15.9287117343        8.8048826830
 Ca       -22.2023051455       24.5020219485        5.0699704580
 Ca       -16.1576435849       17.5609173037        8.3692931754
 Ca        -3.9721626562       15.4866234249        5.2445943752
 Ca       -11.0778014577       22.1206001827        8.8967297800
 Ca        -6.4730001286       14.1760870648        8.1382885648
 Ca       -13.1622931808       18.7404616640        6.7837674029
 Ca        11.4420770874       12.9264035593        5.9974796747
 Ca         4.3260535446       19.9006031028        6.9461635436
  S       -11.0762313608       15.6626198400        5.8168991106
  S       -17.2504975524       20.5283965275        9.6823694829
  S       -15.5868975873       24.3957603002        7.0440400851
  S        -9.4841255029       18.9819653571        9.4118360903
  S       -14.2112337065       17.0621538404        3.7477117980
  S       -19.6939621396       23.0138006437        7.4211074434
  S       -13.8792625497       22.2015708889        3.9271479492
  S        -6.5523656886       17.1661902770        7.2278353739
  S       -10.1072236602       20.7782350137        5.8889387488
  S        -4.1035840571       14.3923729865       10.2440339751
  S       -16.6175991896       18.7635281621        5.5297091292
  S       -22.7097522730       25.2647298891       10.0965281200
  O       -10.7741694690       14.6937467082        6.9386889311
  O       -16.1432630837       19.5558192728        9.6994094978
  O         7.9090369321        0.1275796483        7.8018389467
  O       -10.2427018051       20.1209719402        9.9319985257
  O       -12.1467770256       15.1477340925        4.9526734586
  O       -17.7925461424       20.6839227684        8.2874291524
  O       -14.1983609372       24.7949729748        6.6919658097
  O        -8.4996158299       19.3467413647        8.3662243188
  O        -9.8188160737       16.0481073376        5.1170875554
  O       -16.9278974693       21.8250518686       10.2802331953
  O       -16.3888128922       23.9774414419        5.8429607602
  O       -10.3376842020       17.8624304404        8.9382714274
  O       -11.5335543772       16.9221969959        6.5794697578
  O       -18.3913355159       19.8715168261       10.5462257015
  O       -15.5211538613       23.1769610715        7.9648957442
  O        -8.6829663604       18.3375541765       10.6275261998
  O       -14.8193216706       15.9815846065        4.5398599965
  O       -20.4531303591       21.9137353118        8.1444658583
  O       -13.5869202970       23.6774920349        3.9263619727
  O        -5.8769380218       18.2261806221        8.0567921982
  O        -5.5486130680       16.1113766746        6.9207611376
  O       -11.7194954197       22.7257623792       10.9937835750
  O       -20.6757014367       24.0064323298        6.9120805942
  O       -13.8046619807       17.3830075862        8.5493067105
  O       -13.2933838991       17.9790308644        4.4466926335
  O       -18.7719972399       23.7093857183        8.3598265954
  O       -14.5539042042       21.6822401771        5.1712845346
  O        -7.7287744591       16.5666499871        7.9033140228
  O       -10.7935586390       21.2416666753        4.6843982589
  O        -4.7214416556       15.5674125758        9.4252272790
  O       -16.0756631763       18.6856094054        4.1676644169
  O       -22.2170334854       23.9689356595        9.4302932744
  O        -9.7716861980       21.8569440060        6.8699685535
  O        -5.8132579396       14.7165425730        4.2939942471
  O         7.0599622427       17.4385043332        6.0978466868
  O       -20.2660082339       25.2049429870        4.2406519252
  O        -8.8293490461       20.0092762699        5.5683119848
  O        -2.8820901630       13.8978836469        9.3942530531
  O       -17.7888526486       19.7247956069        5.5540052438
  O         0.2173042159        0.3801152497        9.2675788547
  O       -10.9913128844       19.7437914190        6.6237792314
  O        -5.1318253647       13.2256542166        9.9411661012
  O       -15.6038854610       19.3674719798        6.5260971720
  O         2.5205747624        1.0170686370        9.6521490811
  O        -7.0625265232       17.8512227053        5.9694688608
  O       -12.7914976492       22.9296865846       10.1511945106
  O       -18.9471558925       22.3395288164        6.2991061386
  O       -14.3159463503       16.8184703955        7.2428559630
  O        -7.7409295338       14.2632143670        5.9668036658
  O       -13.3635278210       20.7055781734        8.1668010328
  O       -12.4099421551       22.9261013594        7.0956076054
  O        -5.7592306282       16.1525892695        3.8895312248
  O       -13.4145503652       14.4844862331        7.7407190046
  O       -20.2810031082       23.7439266050        3.9375451040
  H       -13.0717605571       23.6612904753        7.0900314020
  H        -6.4093447669       16.5903895963        4.4755554994
  H         9.9064887871       14.0985078423        8.3148412516
  H       -19.6892724829       23.3642184175        4.6219688088
  H       -11.8873674534       23.0487376899        6.2560005928
  H        -7.9888011007       18.9748596037       10.8993277373
  H       -13.8525189326       15.3490581982        7.3887547600
  H       -19.1292127387       20.5618770963       10.6739821896
  H        -6.9998966977       14.3675047682        5.2368407852
  H       -14.0148236070       20.8391153987        8.8773500052
  H         5.0254712718        0.3242712136        5.2583151537
  H       -13.3235528886       21.5607797477        7.6538968295
 Ca        14.1834575746        5.1945525572        5.8267051647
 Ca         7.7354934457       11.5355907699        9.9567696317
 Ca         7.8264101702        8.9194336170        7.1738980789
 Ca        13.9962528494        2.7885302845        9.6523111567
 Ca         1.9580308357       11.9263601811        6.1988521207
 Ca         8.7823124562        4.8233434819        9.2648261111
 Ca        19.8022297074        2.9799226965        5.0957206540
 Ca        13.9147376059        9.8942535512        8.9895352593
 Ca        17.6477098849        1.1146980919        8.0371119747
 Ca        11.0777363915        7.2422585066        7.5522077948
 Ca        10.7672199420        0.6342639547        4.8308900707
 Ca         4.7293618677        7.2585216756        7.1693761169
  S        13.0544994122        2.6447376100        6.5923769657
  S         7.0893973906        7.8517608406        9.9489296608
  S         8.0047076046       11.9190574884        6.3409412366
  S        14.7615093693        6.3641770745        9.2896037396
  S        10.9346340925        4.1760317829        3.6993347624
  S         4.7346691314       10.2781232777        7.8399282811
  S         9.9515463945        9.7100844815        4.4361538899
  S        17.1486887819        4.1666381892        7.3634110471
  S        13.9893916106        8.1885652963        5.7036551160
  S        20.0189252873        1.3546588275       10.1025331105
  S         7.8570151808        5.9797351839        6.3293981923
  S         2.1363865632       12.2662362673        9.9351657086
  O        13.5847399002        1.5903524768        7.5044574698
  O         8.0221458032        6.7606118613       10.3298887419
  O         6.7639618434       12.6995118838        6.6263002848
  O        13.9644316090        7.5459871465        9.5531065174
  O        11.6941697280        2.3114502007        6.0982253199
  O         6.3520916742        7.4494979043        8.6880085531
  O         9.0204807940       12.9387046129        5.8570274874
  O        15.0489452016        6.1829236259        7.8200784381
  O        14.0157925076        2.8517800810        5.4452794220
  O         7.9215684859        9.0680442176        9.5071141700
  O         7.7937125992       10.8549014009        5.3131777196
  O        14.2748815433        5.1281180376        9.8892226512
  O        12.9911750384        3.9401561659        7.3615189374
  O         6.1491933836        8.1894779413       11.0241591124
  O         8.4980616734       11.2254680623        7.5827978503
  O        16.2035104838        6.6962463776        9.9071358540
  O        11.1292232956        2.7402572354        3.3835167438
  O         3.7533873061        9.3033343634        8.4243576878
  O        10.8053485834       10.8648756759        4.7672593433
  O        17.7289041331        5.2753944546        8.2200697413
  O        18.2876872312        3.2772771654        6.9698755327
  O        11.8047073864        8.9102066310        8.7950963087
  O         4.0500730595       11.3490136027        7.0474695672
  O        10.3937632449        2.9309188942        9.5691107880
  O        12.0433672384        4.8423273243        4.4248890166
  O         5.5534895181       10.9600542279        8.8794298278
  O         9.8465199502        8.6606516185        5.4796499783
  O        16.1445512306        3.3715616689        8.1034291358
  O        13.3915955313        9.1460703558        4.7663899520
  O        19.2349860597        2.4731785245        9.3388014774
  O         8.6051969731        5.4788667411        5.1781833693
  O         1.7030603782       11.5311355999        8.6128667982
  O        14.6221392792        8.8459131497        6.8905396506
  O        17.9438763337        2.3105136462        4.1372289967
  O         7.1888868620        4.9056109743        7.1413360078
  O         1.0473774613       12.9033641730        4.3642047063
  O        15.0816446363        7.3065883185        5.0966673158
  O        21.2808664495        1.0788596463        9.2009116238
  O         6.8274400433        7.0311429366        5.9448369470
  O         0.9117887696       13.1096554458       10.3325179610
  O        12.9155808812        7.1952191545        6.1438778296
  O        19.1635464380        0.0958461616        9.7091424000
  O         8.8046129088        6.7071296602        7.3154810236
  O         3.1049038203       13.4130587220        9.3780617172
  O        16.5613955781        4.8189526962        6.1224044458
  O        10.7826798880        9.6515893044        8.0265548246
  O         5.5999017325        9.4817921291        6.8900651780
  O        11.7009901901        3.4568201678        9.7998890976
  O        16.2099788171        1.3168443800        5.9063099944
  O        10.9495542398        5.7243080995        9.1603055988
  O        12.6182577708       11.1768325831        7.1068290125
  O        17.9628857165        3.7874397685        3.9191531476
  O         9.5353837462        3.4112589787        7.3282860888
  O         1.9585489694       11.9625178904        3.7164578335
  H        11.4251810922       10.3223527296        7.5518072376
  H        17.3756778022        4.1193623071        4.6354669070
  H        10.0580235140        3.0330079799        8.1517460998
  H         2.7365543969       12.5436870101        3.5630927191
  H        12.8160599280       10.6501294719        6.3098441927
  H        16.8211085241        6.0078986449        9.5387208603
  H        10.1850426076        3.3703595011        6.6055200062
  H         6.3987828304        9.7018721422       11.6584083232
  H        16.8778923159        1.6128638013        5.1885907014
  H        11.5192962035        4.4954428220        9.5473191543
  H         3.1073376293       14.4284117289        5.6092378306
  H        11.0292504796        6.2757429140        9.9724648678
 Ca         0.8139058271       18.0129462852        6.7556388720
 Ca        -3.1734912504       24.1158841736        8.8633801419
 Ca        -3.6451216683       22.1408074763        6.0526443642
 Ca         1.3810130445       15.1296467645        9.4899940700
 Ca        -9.4866815799       24.9403622268        6.6704140510
 Ca        -3.5914210679       17.4138905442        8.4900019413
 Ca         7.4661603093       14.9636010230        5.8210398214
 Ca         1.0628191001       22.2834344991        8.0888450733
 Ca         4.8531644328       13.3984569404        7.9322510212
 Ca        -1.0824045806       19.9515278304        3.9630455554
 Ca        -1.0472042261       13.4011599670        3.9260357277
 Ca        -6.7202919489       20.1427256185        6.7845573296
  S         0.6310135717       15.0505622074        6.5347180372
  S        -4.1739401260       20.6950014486        9.3388134917
  S        -3.9577236871       25.2905107590        5.5250645641
  S         1.6543894235       19.4970299847        9.4488333920
  S        -0.8149594194       16.7176822211        3.5609723856
  S        -6.4169861576       23.0302280800        7.3120644620
  S        -1.4817766844       23.4581202457        3.4085049029
  S         4.1136524268       16.9820624842        7.8075720390
  S         1.5042400568       20.9190054811        5.0280460258
  S         7.5673331780       14.6274384330        9.4925724809
  S        -3.6576351181       19.1549022999        5.1255670969
  S        -9.3857462961       25.0416119405        9.9235687292
  O         1.4628058104       14.0517566774        7.2695799479
  O        -3.4915517707       19.4671218307        9.7700238772
  O        19.1597170559        0.7143810549        6.2064597598
  O         1.2002012847       20.7107586960       10.1413009574
  O        -0.5560240236       14.4373324761        5.9026381815
  O        -4.4437643431       20.6829544182        7.8637711021
  O        20.9216058897        0.8789526638        4.5517349581
  O         1.9947059704       19.8569879515        8.0190123747
  O         1.4538836403       15.8659172092        5.6059336433
  O        -3.5225844808       21.9289463798        9.8036164875
  O        -4.4132029829       24.0714610518        4.8376305059
  O         0.7593243389       18.3358646240        9.4379494111
  O         0.1006248551       15.9922693488        7.6274911150
  O        -5.6154347730       20.6450027634       10.0160029701
  O        -2.8808021008       24.9119516934        6.5376785593
  O         2.9959782977       19.0749562314       10.1643909637
  O        -1.9762759116       15.7032354081        3.7638407811
  O        -7.0041893327       22.0929439755        8.3321328266
  O        -0.5430349835       24.3480494962        4.2152631135
  O         5.2240997880       17.9066622190        8.2229306483
  O         4.5879300634       15.7134855696        7.2190796963
  O        -1.0936842749       21.7406869371        7.9991431059
  O        -7.2618573453       24.2367559994        7.1708565712
  O        -1.6844379471       16.8200858552       10.0456962836
  O        -0.6829607794       17.6920022113        4.7669408578
  O        -5.0205306554       23.4311662236        7.6912905288
  O        -1.8735568102       22.2003174918        4.2183777681
  O         3.2402843846       16.7080397767        9.0220849862
  O         1.0521782547       21.0603747268        3.6168367651
  O         7.2008631291       15.3475220482        8.1272627434
  O        -3.2203385728       18.9236080931        3.7224690975
  O        -9.9490096503       24.1065687463        8.7738245432
  O         1.4712978303       22.2450065085        5.7397779309
  O         5.7973854216       14.2496749705        4.6055024778
  O        -3.7503391751       17.8915530773        5.9085864933
  O       -11.2877549878       25.2106575110        5.2016451981
  O         2.8385390923       20.2912773109        5.1585857832
  O         8.6736196286       13.6362757509        9.1123810397
  O        -4.9034161505       19.9737082250        5.1882766465
  O        13.6008986024        0.5636689648       10.2982231661
  O         0.4516375712       20.0502896315        5.7117791133
  O         6.3405723175       13.7035015329        9.7500116755
  O        -2.5491394257       20.0188257603        5.7639404443
  O        15.6652335072        0.7013761919        9.0734126160
  O         3.2903980685       17.7492014903        6.7944297490
  O        -1.8349502802       22.8263928568        7.4088898519
  O        -6.2952041433       22.2738059954        6.0181532387
  O        -0.7534428129       15.9547786128       10.3255671644
  O         3.6390456427       13.6115333927        5.6616365404
  O        -1.4381714082       18.6349391536        7.7278025839
  O         0.0487148424       24.5734206823        6.9225279001
  O         5.6349317231       15.7042806947        4.3743309859
  O        -2.6710183026       15.5792283001        7.3597372488
  O       -10.8875532759       23.7915305575        5.0988944873
  H         0.1159991698       25.0143391003        7.8405560770
  H         5.0253135179       15.9685974442        5.0980350435
  H        -2.7650635850       14.8506466017        8.0623201753
  H       -11.0455060629       23.5266513383        4.1751185872
  H        -0.7527227031       23.9289599740        6.9833658942
  H         3.2241093659       18.1411236707        9.8180013712
  H        -1.6967753614       15.6909288287        7.3005014597
  H        -6.1609544623       21.3331549075        9.5094470133
  H         4.5386961179       13.8225634816        5.1371958167
  H        -1.2526893483       19.0696894877        8.5827893621
  H        15.4752740651        1.9711204147        5.7933936133
  H        -1.8208543977       19.3446321895        7.1425898868
  O        12.4519050883       11.6981294154       12.8890190439
  H        11.8520664776       11.2982471409       13.5709314206
  H        12.6799376652       10.9421243731       12.2905057338
  O        11.2057004276       13.1908491414       11.1654762256
  H        11.6662403626       12.6680146576       11.9074559974
  H       -12.0964994880       13.6031893329       10.6943892092
  O        12.9472906502        9.6061583630       11.1439743438
  H        13.1546889791        8.7409662765       11.6885003427
  H        12.1214888094        9.3430057477       10.6763955666
  O         9.4352170734        4.7899048690       11.6044579865
  H        10.4487864658        4.8758817146       11.7169367151
  H         9.1157590545        5.6851917575       11.8269887300
  O         7.6789742219       13.2225934029       14.3386640300
  H         8.1085609799       12.5087491604       14.9064415186
  H         7.8738903988       14.0563168142       14.7912016989
  O        10.0374388371       11.0114716706       10.1653902862
  H        10.6157620975       11.8069667033       10.3506522427
  H        10.3560525025       10.5218718970        9.3572378469
  O         9.7074897679        3.0225466728       13.6512697580
  H        10.6103561241        2.6586511405       13.3518713466
  H         9.4400534194        3.6475748559       12.9254590709
  O       -15.0071981697       23.7077745284       11.1764905667
  H       -15.3001584799       23.3387976382       12.0348446249
  H       -14.1230811502       23.2900018520       10.8995231082
  O       -13.2092393641       24.9080952307       13.8417755523
  H        11.4399367441        0.4197084526       13.5783812635
  H       -12.7235638529       24.6317081789       14.6470699661
  O         6.8761700783       10.5367953524       11.9211514424
  H         8.5567856855        9.7298654277       12.4425744105
  H         6.2164699123       11.2033476481       12.2433331058
  O       -11.2610500735       24.3071036811       15.6831500831
  H       -11.1957137038       23.7141057493       16.4439516692
  H       -10.6609759266       25.1353146680       15.9087398434
  O       -16.7060539356       23.2874074918       13.3602970248
  H       -16.8536157885       22.4240380775       13.7766360237
  H       -17.4902963940       23.4371073343       12.7846958961
  O         8.5362868748       12.9591431065       11.7341446772
  H         8.3901708654       13.0021215022       12.7064163068
  H         9.4778328365       13.2118273217       11.5591391159
  O       -18.6266033749       23.9697305171       11.4913240366
  H       -19.2648561280       23.2352198035       11.2748017554
  H       -19.1295562772       24.7975165002       11.3789440879
  O         8.7670047586       11.3035410676       15.7822996372
  H         8.8106237507       11.3006598030       16.7472863981
  H         9.6346570918       10.8924473493       15.4534624026
  O         5.5197897452       12.8325312015       12.4897530202
  H         6.2029450053       13.0821088114       13.1495415168
  H         5.7776926089       13.2912787768       11.6638137630
  O       -20.1489954555       21.8427094705       10.8168144025
  H         3.0180645362       21.6647159635       11.1458387048
  H       -20.3042776474       22.0150639325        9.8464049255
  O        17.0067199324        5.6779625196       20.4172692323
  H        16.6545714199        5.6238576581       19.5145309564
  H        17.6463815319        6.4087437327       20.4206729308
  O        10.8679521339       10.2871394798       14.6434873294
  H        11.6674270304        9.6781738997       14.8854280525
  H        10.3952284080        9.8559926506       13.8859812596
  O         9.5136723950        9.5259158085       12.3814307243
  H         9.8077545669       10.0669679450       11.6024211536
  H        10.2586851596        8.0440509680       11.9017452759
  N        11.3646301144        4.6089433299       15.2573189862
  H        10.5595492549        4.0588390135       14.9075979196
  H        12.2502481582        4.0655719981       14.9697272900
  H        11.3074230230        4.7195381128       16.2671155484
  N       -10.3826989681       24.1396505445       12.9205490027
  H        -9.5071448747       23.6510812660       12.7386055364
  H       -11.0886966685       23.8121823568       12.2254828962
  H       -10.7112848251       23.9342881879       13.8765705044
  N        13.0345424569        8.8284875023       15.1158914410
  H        13.2084819001        8.3577588089       14.2072618289
  H        12.8876207994        8.0690624500       15.7789608319
  H        13.8910309661        9.3141817320       15.3805088760
  N         8.5176914788        0.6298214266       13.4689213939
  H         8.8117219915        1.6243381495       13.6892653842
  H         8.2306381753        0.6382704197       12.4531123225
  H         7.7524463461        0.2815352528       14.0406255561
  H         9.3768469012        0.0335564598       13.6307674838
  N        14.4916025706        1.0582473012       16.1079259011
  H        15.3249438312        0.8914722752       15.5424518008
  H        14.8048444648        1.3241320414       17.0405347824
  H       -10.1830810425       25.2337758893       12.8802161112
  H        14.0580563704        1.8943830158       15.6533686918
  N        10.9365974801        0.6391547553       10.7609478265
  H       -13.9776933173       25.3199675083       11.0361620393
  H        11.6851363999        0.1696988715       10.2419956726
  H        11.4023599159        1.0733919341       11.6059435020
  H        10.5423413698        1.4531783039       10.2032664837
  N        16.3113910833        3.9460817501       22.1982095828
  H        16.6619666804        4.7140682098       21.4839335599
  H        15.6245259105        3.3565982874       21.7191901044
  H        15.8596901361        4.3800946248       23.0061786374
  H        17.0919989145        3.3650955647       22.5099095956
  P        11.9105112972        6.7149812916       12.6163247941
  O        11.2300135244        6.8376722271       13.9829707553
  O        10.8836528320        7.3674962571       11.5205944813
  O        11.9795178681        5.2510211612       12.1287918922
  O        13.2317567726        7.4768355334       12.5345308664
  H        11.3235071408        5.5974507429       14.7330763179
  P        13.4022043948        2.3767626620       13.2101641984
  O        14.4430842512        1.2737646320       13.1305250082
  O        13.7051731848        3.3722070664       11.9635392564
  O        13.4675809976        3.1735825286       14.5145050026
  O        11.9508439685        1.8442660112       12.9787734340
  H        13.0779857100        4.2052608888       12.0163274184
     464
 i =        4, E =     -6303.0442235196
 Ca         1.7344750013        5.2125412353        6.4427561337
 Ca        -3.4763872807       11.6481699204        9.2510453785
 Ca        -4.1929704783        9.4524026758        6.4618727524
 Ca         0.8819133246        2.7026451718        9.1043082550
 Ca        -9.4422555723       12.7140738035        6.8391175235
 Ca        -3.9730835343        4.5302652476        8.6241465412
 Ca         7.4064269791        2.4584695952        6.8488775245
 Ca         1.2762797546        9.3052971635        8.3982598991
 Ca         4.2546120337        0.7334816907        8.0433039383
 Ca        -1.1132419398        7.4636081548        4.8374126067
 Ca        22.9303108118        1.0846108360        5.6931325519
 Ca        16.8370388272        7.3781536964        6.7761752625
  S         1.6445456268        2.1556910599        5.7352740954
  S        -4.4401479122        7.9845185591        9.2567354206
  S        -3.8881292616       12.4044433722        5.9774811597
  S         1.6843635510        6.3087554035        9.3499812335
  S        -0.6848312297        4.2135100559        3.9630822435
  S        -6.7790965773       10.4824264335        7.7717428895
  S        -2.4694430913       10.0712063962        3.3995592619
  S         4.2206555728        4.0796363277        7.8951195855
  S         1.6633717349        8.1854372235        5.4703546015
  S         6.8329965029        1.9247996003       10.3910147781
  S        -3.8487732029        6.5317981787        5.4922871373
  S        -9.5092380286       13.4446579562        9.9816374515
  O         2.5560062134        1.2229130636        6.4508458806
  O        -3.9211676784        6.7091775008        9.7560037093
  O        -4.7014051423       13.3820868007        6.7521666904
  O         0.9744015312        7.4166213629        9.9781780436
  O         0.9386599109        1.3498609041        4.6733228961
  O        -5.2926949843        7.8300029925        8.0434929440
  O        -3.0219906331       13.2195968549        5.0484433411
  O         2.5731639443        6.7735970938        8.2369434711
  O         2.3142935050        3.3339206683        5.1637326134
  O        -3.3878371106        8.9930023309        8.9848066722
  O        -4.6993896836       11.4233624522        5.2198801510
  O         0.7424194436        5.2888107714        8.7676963922
  O         0.5365642730        2.6257717942        6.7015999651
  O        -5.4070009515        8.5456047564       10.3876822243
  O        -3.0032817506       11.6033060984        6.9247643827
  O         2.5877149591        5.6011377057       10.4000749038
  O        -1.7537931524        3.3087159836        4.5905245443
  O        -7.5354555160        9.7139135558        8.8190287365
  O        -1.6239464929       11.3066734153        3.1311177194
  O         4.6621591303        4.7839762340        9.1317657141
  O         5.0695772232        2.9043506449        7.5730073775
  O        -0.6602228448        9.8855641635        9.5836840299
  O        -7.4167009063       11.7916038785        7.5024726946
  O        -2.3147682020        3.7774203971       10.1586196641
  O        -0.2311095600        5.3034442767        4.9977075127
  O        -5.3671153840       10.7057330509        8.2377849676
  O        -2.1977812383        9.5358114677        4.8523620747
  O         2.7890015693        3.6190859953        8.0891114533
  O         0.9686950157        8.3303492287        4.1660940271
  O         7.4905923747        2.7430640136        9.2511911871
  O        -3.1406151117        6.3626472969        4.1937409293
  O       -10.0372860753       12.1755141713        9.2292047348
  O         2.1950986193        9.4587449247        6.0166324293
  O         8.6765545523        1.4269568204        5.2221591856
  O        -4.1239573202        5.2161622407        6.1374261350
  O       -10.6679045311       12.7667436687        4.8587927430
  O         2.7560664601        7.1577061355        5.4269581254
  O         7.9285888157        0.9051958143       10.8461401778
  O        -5.0899087887        7.3561230383        5.3591898977
  O       -10.7606769903       14.3939044893        9.9956928107
  O         0.5997508392        7.6647172783        6.4735783512
  O         5.8350459852        0.9214626632        9.6677402393
  O        -2.8892433379        7.3106841629        6.4166915243
  O        -8.5968217922       14.0558467070        8.8798425170
  O         4.1751353181        5.0191146340        6.7174641363
  O        -1.2752189422       10.9672220058        9.0976644973
  O        -6.6647971866        9.6574215610        6.5112706147
  O        -1.1153785049        3.4021796248        9.7432251079
  O         5.7041630893        0.5854749096        5.9911792518
  O        -1.8305369510        5.2510125494        7.8319391582
  O        -0.1564692943       10.8125552262        6.7809627612
  O         7.8601202768        2.3591046172        4.4329771566
  O        21.4653136314        2.6150357320        7.1344692420
  O        -9.6331185160       11.7400271720        4.7366834898
  H        -0.6551352955       11.1353933222        7.6019754274
  H         7.1669990150        1.7598121925        4.0924569308
  H        21.4129875753        2.0549078823        7.9975463386
  H       -10.1278240858       10.9082683215        4.5599719892
  H        -0.8572515159       10.5824173746        6.1420860123
  H         3.4622177939        5.2706295553        9.9160299044
  H        -1.9661022913        3.3501317209        7.2829322765
  H        -6.1943913679        8.9594286960        9.9341828112
  H       -17.7724845032       25.2597775588        5.9085863510
  H        -1.0978128962        5.3599175131        8.4711120427
  H        -8.4106847922       14.9135435546        5.6814221612
  H        -2.0128725385        6.1183152201        7.4084130622
 Ca        -9.3796047478       17.9331677521        6.5360734919
 Ca       -16.8582310798       24.2418704836        9.8043957933
 Ca       -16.5979757711       21.6770890135        6.4499559981
 Ca       -11.8436946950       15.9320909635        8.8031150987
 Ca       -22.2019357885       24.5068868155        5.0641924408
 Ca       -16.1621508102       17.5681840401        8.3611300497
 Ca        -3.9647947019       15.4930289281        5.2426063760
 Ca       -11.0776859277       22.1124609772        8.8940728490
 Ca        -6.4676232998       14.1793419994        8.1451561892
 Ca       -13.1662059854       18.7356763805        6.7794678800
 Ca        11.4415220984       12.9273426918        5.9938985626
 Ca         4.3244710761       19.8967221744        6.9464613387
  S       -11.0790695864       15.6605907094        5.8126965233
  S       -17.2508416861       20.5295289568        9.6916825395
  S       -15.5865760681       24.3969285997        7.0445997461
  S        -9.4878941387       18.9824222254        9.4185397879
  S       -14.2324610037       17.0834650279        3.7415902414
  S       -19.6945380609       23.0158613446        7.4234738647
  S       -13.8677083081       22.2001274161        3.9213989408
  S        -6.5509024141       17.1631065743        7.2333335108
  S       -10.1093673334       20.7776146245        5.8843071274
  S        -4.1066496686       14.3899682620       10.2440973981
  S       -16.6147905974       18.7646868546        5.5237214321
  S       -22.7084788183       25.2605678891       10.0966661979
  O       -10.7815999343       14.6863772056        6.9330580317
  O       -16.1414128103       19.5589313999        9.7120605620
  O         7.9115683515        0.1319240655        7.7993648906
  O       -10.2441336836       20.1202232642        9.9423864844
  O       -12.1502514854       15.1489095808        4.9478889529
  O       -17.7866489340       20.6821946520        8.2928436776
  O       -14.1985112606       24.8003706076        6.6942191198
  O        -8.5083176457       19.3504153205        8.3699241670
  O        -9.8243351932       16.0540366560        5.1142412798
  O       -16.9318074877       21.8284823474       10.2849637448
  O       -16.3819840244       23.9772701038        5.8397201729
  O       -10.3412185031       17.8622333385        8.9443717290
  O       -11.5339301154       16.9181990371        6.5813161276
  O       -18.3938853146       19.8680361410       10.5509451247
  O       -15.5247817733       23.1783265400        7.9672760766
  O        -8.6832531574       18.3341791234       10.6317939347
  O       -14.8181812694       15.9896057217        4.5286314336
  O       -20.4573876661       21.9191161349        8.1470851694
  O       -13.5945041884       23.6797772994        3.9094030990
  O        -5.8721318995       18.2204641273        8.0618426888
  O        -5.5524201664       16.1055228100        6.9200796892
  O       -11.7317995211       22.7132724734       11.0018781103
  O       -20.6770820535       24.0068915233        6.9135516233
  O       -13.8083561961       17.3720845818        8.5511254240
  O       -13.2932839341       17.9749855267        4.4409013612
  O       -18.7740242876       23.7131583068        8.3615285949
  O       -14.5578142832       21.6881446180        5.1591462011
  O        -7.7303146324       16.5683173598        7.9090543616
  O       -10.7951876144       21.2418100327        4.6801687126
  O        -4.7272017214       15.5700614311        9.4341437255
  O       -16.0657916802       18.6808940439        4.1620224651
  O       -22.2093566686       23.9623612131        9.4384143301
  O        -9.7753247087       21.8584570423        6.8625175376
  O        -5.8208068894       14.7123753617        4.2908643410
  O         7.0662654591       17.4395680185        6.0917062637
  O       -20.2576591716       25.2083318344        4.2408552903
  O        -8.8332562947       20.0045739353        5.5676713244
  O        -2.8720519584       13.9027931739        9.4091027574
  O       -17.7846571258       19.7263007248        5.5502306280
  O         0.2172527731        0.3785499906        9.2710081171
  O       -10.9940717828       19.7426816517        6.6209821053
  O        -5.1353343440       13.2180051516        9.9587532666
  O       -15.6045509687       19.3705393887        6.5219846755
  O         2.5214669712        1.0195283481        9.6642347272
  O        -7.0554234062       17.8516919907        5.9736757084
  O       -12.8003550660       22.9237448969       10.1558565740
  O       -18.9523974655       22.3374183175        6.2997319737
  O       -14.3206038873       16.8171611311        7.2403826873
  O        -7.7342599016       14.2637302217        5.9622203567
  O       -13.3675615591       20.7015876835        8.1671532612
  O       -12.4105469089       22.9216635855        7.0947973495
  O        -5.7610846733       16.1472739318        3.8863833614
  O       -13.4138158908       14.4878035141        7.7397038036
  O       -20.2687461244       23.7490377919        3.9327022957
  H       -13.0741982723       23.6562181429        7.0884453011
  H        -6.4134046858       16.5859808037        4.4683340418
  H         9.9045607982       14.1068906720        8.3142520176
  H       -19.6840474831       23.3646165570        4.6170510361
  H       -11.8906079431       23.0427458951        6.2558647782
  H        -7.9749673116       18.9603931545       10.8906740119
  H       -13.8559572469       15.3538543926        7.3910625970
  H       -19.1346550397       20.5543488222       10.6812530516
  H        -6.9924197426       14.3727012165        5.2322093106
  H       -14.0151061609       20.8467738996        8.8779562726
  H         5.0224817825        0.3174038175        5.2518684240
  H       -13.3214396409       21.5570054062        7.6555428807
 Ca        14.1822882672        5.1933791647        5.8136368814
 Ca         7.7376060852       11.5323821748        9.9557693899
 Ca         7.8263423597        8.9123977151        7.1801343986
 Ca        13.9974589445        2.7788928846        9.6491247657
 Ca         1.9552270176       11.9216305424        6.1907027764
 Ca         8.7785348907        4.8264092697        9.2633056626
 Ca        19.8018297387        2.9739372295        5.0936814948
 Ca        13.9046545762        9.8905112169        8.9877717553
 Ca        17.6573590747        1.1053216771        8.0397927879
 Ca        11.0820752041        7.2434440574        7.5534598176
 Ca        10.7647556417        0.6310202471        4.8175798162
 Ca         4.7280471987        7.2578221694        7.1690514886
  S        13.0503969755        2.6468776290        6.5892010496
  S         7.0887231240        7.8553053668        9.9562352620
  S         8.0095158159       11.9165765908        6.3354114676
  S        14.7595571409        6.3618036500        9.2936494638
  S        10.9223816643        4.1759218653        3.6977888851
  S         4.7369255342       10.2766965249        7.8380117963
  S         9.9274653864        9.7292819191        4.4331492848
  S        17.1468285427        4.1674440828        7.3643147425
  S        13.9870096116        8.1866769543        5.6975433284
  S        20.0167450774        1.3477177678       10.0881465607
  S         7.8583829806        5.9810184253        6.3248998481
  S         2.1285848369       12.2724729561        9.9348111890
  O        13.5778844937        1.5908085599        7.5001228670
  O         8.0161643445        6.7625809688       10.3426716358
  O         6.7666744722       12.6931297399        6.6182538892
  O        13.9629855731        7.5428710210        9.5595959172
  O        11.6911252414        2.3121984249        6.0912568829
  O         6.3594899920        7.4553977023        8.6883541675
  O         9.0243246686       12.9356924413        5.8478275799
  O        15.0471484461        6.1818504972        7.8229201434
  O        14.0129620821        2.8546937844        5.4427386746
  O         7.9235632081        9.0735496665        9.5220286713
  O         7.8034990143       10.8471485895        5.3090125838
  O        14.2733177328        5.1266207770        9.8934737787
  O        12.9888332274        3.9433920610        7.3578166609
  O         6.1443274460        8.1916803503       11.0269577265
  O         8.5056492200       11.2189278903        7.5735251103
  O        16.2025634583        6.6930179540        9.9117245543
  O        11.1266815187        2.7435781482        3.3749059483
  O         3.7573305466        9.3004703328        8.4225213807
  O        10.8106142825       10.8641694444        4.7549414737
  O        17.7349880082        5.2733014411        8.2197400687
  O        18.2857657738        3.2791491865        6.9709276096
  O        11.7996606571        8.9170599190        8.7980699491
  O         4.0525071809       11.3480666011        7.0471589335
  O        10.3949498830        2.9300376871        9.5674739746
  O        12.0345949028        4.8433719290        4.4145412137
  O         5.5576158809       10.9598902371        8.8754991957
  O         9.8543555822        8.6661087304        5.4634475250
  O        16.1431276901        3.3707986576        8.1027469624
  O        13.3889819221        9.1453705310        4.7621171535
  O        19.2284715885        2.4818856994        9.3511541655
  O         8.6033931190        5.4802570561        5.1726770396
  O         1.7078095555       11.5255452249        8.6139100689
  O        14.6179659970        8.8479233597        6.8834416776
  O        17.9394585222        2.3035226586        4.1284709596
  O         7.1905718046        4.9043431207        7.1330732174
  O         1.0492977144       12.9110648454        4.3596002582
  O        15.0797779309        7.3036828324        5.0930234066
  O        21.2982648290        1.0819353816        9.2115822287
  O         6.8290646397        7.0341594924        5.9447572046
  O         0.8982069032       13.0980698487       10.3487351270
  O        12.9130206078        7.1912217927        6.1365720230
  O        19.1576688283        0.0820534307        9.7272535266
  O         8.8113691041        6.7062208964        7.3106314114
  O         3.1064690154       13.4225863842        9.3989168832
  O        16.5677395638        4.8218455266        6.1198618448
  O        10.7791377402        9.6542999581        8.0235005049
  O         5.5985992557        9.4815687887        6.8834568905
  O        11.7039262576        3.4516522439        9.7961108555
  O        16.2182672430        1.3272074047        5.9053918684
  O        10.9540674776        5.7226090463        9.1667571947
  O        12.6219529419       11.1753666902        7.1041895792
  O        17.9582531350        3.7813207002        3.9180760906
  O         9.5411591715        3.4198007805        7.3324558089
  O         1.9567340580       11.9635084873        3.7114576332
  H        11.4244083453       10.3219962188        7.5457518122
  H        17.3678808004        4.1184774305        4.6253366438
  H        10.0576408235        3.0358576972        8.1559350309
  H         2.7383370681       12.5359964771        3.5646431484
  H        12.8212234361       10.6451221155        6.3106800765
  H        16.8249958949        6.0130389444        9.5366065069
  H        10.1922162547        3.3558227843        6.6113895545
  H         6.3976000784        9.7057720555       11.6609266640
  H        16.8820792861        1.6236693992        5.1825763005
  H        11.5181622560        4.4924936418        9.5440804231
  H         3.1045932732       14.4237619544        5.6041771739
  H        11.0282875083        6.2669935380        9.9827015915
 Ca         0.8177394188       18.0204320879        6.7559829955
 Ca        -3.1795117348       24.1184702290        8.8691635628
 Ca        -3.6415716729       22.1418473312        6.0527612248
 Ca         1.3654180544       15.1285833009        9.4959543967
 Ca        -9.4920071700       24.9411935749        6.6655254311
 Ca        -3.5866487232       17.4168407728        8.4976076920
 Ca         7.4681273953       14.9702511995        5.8149059907
 Ca         1.0608613336       22.2869013184        8.0886145731
 Ca         4.8527905973       13.4015809627        7.9375051469
 Ca        -1.0838870672       19.9535055628        3.9634247076
 Ca        -1.0456275615       13.4018665993        3.9162211351
 Ca        -6.7186571621       20.1430422787        6.7806649460
  S         0.6281196088       15.0505674420        6.5333791532
  S        -4.1741473722       20.6967049091        9.3483569198
  S        -3.9625700587       25.2928318216        5.5189201289
  S         1.6530228933       19.4964637886        9.4560134419
  S        -0.8093082336       16.7121197072        3.5500867169
  S        -6.4163067853       23.0307270277        7.3145145531
  S        -1.4882057655       23.4684522688        3.4019457976
  S         4.1141106244       16.9779002935        7.8078793005
  S         1.5059693821       20.9180310135        5.0170025981
  S         7.5689485574       14.6228035350        9.4926351853
  S        -3.6589016717       19.1544467713        5.1207643563
  S        -9.3889256984       25.0439267742        9.9114566568
  O         1.4567989764       14.0506232470        7.2695431801
  O        -3.4982832774       19.4677192209        9.7848547099
  O        19.1574546595        0.7210993683        6.1987241209
  O         1.2040383673       20.7113013493       10.1482448664
  O        -0.5500191321       14.4259491546        5.8964588644
  O        -4.4380854482       20.6850785642        7.8717141360
  O        20.9155146853        0.8851131850        4.5483873356
  O         1.9933348278       19.8558335597        8.0249583928
  O         1.4515492217       15.8638625407        5.6027146526
  O        -3.5226483699       21.9314745866        9.8100131441
  O        -4.4186010709       24.0710792598        4.8369437836
  O         0.7549368799       18.3376501164        9.4420584607
  O         0.0964564945       15.9961432145        7.6239994065
  O        -5.6197520949       20.6504628636       10.0225266382
  O        -2.8851986461       24.9165815012        6.5332338053
  O         2.9968030070       19.0688471157       10.1679234645
  O        -1.9749599515       15.7014673956        3.7487292724
  O        -7.0079608224       22.0914017352        8.3321031020
  O        -0.5388095459       24.3505755479        4.2048502131
  O         5.2229015455       17.9068220211        8.2230918474
  O         4.5931215115       15.7101279487        7.2213766243
  O        -1.1035565091       21.7458766027        8.0093595959
  O        -7.2560834343       24.2408413413        7.1707475370
  O        -1.6857686921       16.8164896673       10.0496035629
  O        -0.6832776034       17.6892225608        4.7551425870
  O        -5.0199376899       23.4298541340        7.6941255338
  O        -1.8746364934       22.2019773036        4.2008567857
  O         3.2378483377       16.7031586427        9.0195621962
  O         1.0513941376       21.0588846627        3.6062971148
  O         7.2026076953       15.3480952148        8.1287047080
  O        -3.2223927492       18.9194884267        3.7176458185
  O        -9.9472551587       24.0978957027        8.7680323472
  O         1.4809134311       22.2444601871        5.7299806082
  O         5.7902424938       14.2480472803        4.5947414817
  O        -3.7528579518       17.8929751518        5.9054658799
  O       -11.2859152394       25.2081314148        5.1974631389
  O         2.8380219815       20.2879151876        5.1550895976
  O         8.6759546199       13.6314149458        9.1126150397
  O        -4.9033600923       19.9736717937        5.1884090434
  O        13.6000057508        0.5549129283       10.3125954009
  O         0.4546726174       20.0517753586        5.7057024822
  O         6.3450907728       13.6964905646        9.7569665651
  O        -2.5504792183       20.0213145692        5.7588070984
  O        15.6708687888        0.7189358163        9.0863058259
  O         3.2941832635       17.7444699620        6.7910178306
  O        -1.8300613931       22.8387674586        7.4058019068
  O        -6.2948725351       22.2747328970        6.0210104152
  O        -0.7586960848       15.9611973744       10.3362590232
  O         3.6424538321       13.6125864511        5.6627060292
  O        -1.4416156153       18.6331865874        7.7276434028
  O         0.0480941606       24.5730501598        6.9253959098
  O         5.6377226324       15.7041229236        4.3710094459
  O        -2.6698814606       15.5767612128        7.3656147894
  O       -10.8924685557       23.7873106163        5.1025137099
  H         0.1186485820       25.0143003733        7.8396061562
  H         5.0201260053       15.9688148802        5.0861928018
  H        -2.7652701073       14.8447460814        8.0620628338
  H       -11.0233410355       23.5350674348        4.1684927512
  H        -0.7573702221       23.9269919963        6.9914865016
  H         3.2245520226       18.1358257305        9.8193996576
  H        -1.6964630966       15.6856060797        7.3027957387
  H        -6.1674917569       21.3315357904        9.5099900463
  H         4.5399943169       13.8258602419        5.1326674008
  H        -1.2500671219       19.0708670896        8.5778337992
  H        15.4814080888        1.9762790514        5.7857347393
  H        -1.8195185794       19.3497007920        7.1486386911
  O        12.4501752508       11.7031817051       12.8890966562
  H        11.8543602601       11.2986354621       13.5693305482
  H        12.6813183586       10.9432255145       12.2983806879
  O        11.2020670236       13.1734323683       11.1642081580
  H        11.6701371783       12.6659224111       11.9120251278
  H       -12.0999971507       13.5928050235       10.7008126479
  O        12.9469723486        9.6019365787       11.1572169203
  H        13.1523520867        8.7348449535       11.6981627912
  H        12.1179096653        9.3455931428       10.6933061454
  O         9.4340138491        4.7884005619       11.6108584338
  H        10.4475911055        4.8813254501       11.7260822727
  H         9.1158583754        5.6824051900       11.8370943825
  O         7.6846606543       13.2192455470       14.3395725942
  H         8.1036030102       12.5068988197       14.9133582317
  H         7.8733348238       14.0555797002       14.7868916099
  O        10.0384936416       11.0110092321       10.1720900657
  H        10.6180316767       11.8062355271       10.3548809485
  H        10.3553105377       10.5282797763        9.3595941988
  O         9.7052229121        3.0213945561       13.6536926795
  H        10.6079482528        2.6621749690       13.3553904036
  H         9.4422558923        3.6454942517       12.9276410201
  O       -15.0019394119       23.7131352526       11.1786265093
  H       -15.2916043232       23.3394459809       12.0348337404
  H       -14.1244328398       23.2857460079       10.8965817574
  O       -13.2090305587       24.9068616683       13.8384532920
  H        11.4404266663        0.4182069380       13.5869999476
  H       -12.7248829115       24.6342266067       14.6455147694
  O         6.8685065471       10.5430274421       11.9235541960
  H         8.5586866470        9.7319883043       12.4484609815
  H         6.2064809777       11.2042419995       12.2488855129
  O       -11.2582668567       24.3060366790       15.6913945489
  H       -11.1898786627       23.7124857682       16.4501130396
  H       -10.6603966908       25.1332544450       15.9146327921
  O       -16.7106513760       23.2857881041       13.3727709469
  H       -16.8526072465       22.4159425964       13.7743253266
  H       -17.4931742369       23.4398179714       12.7978397478
  O         8.5359084108       12.9658925456       11.7376923035
  H         8.3890359787       13.0050589971       12.7087616664
  H         9.4777660929       13.2094653244       11.5684521777
  O       -18.6272808253       23.9745892696       11.4940639104
  H       -19.2658688610       23.2417313092       11.2795210251
  H       -19.1278493456       24.8015537838       11.3728374020
  O         8.7674883796       11.3022435806       15.7819499991
  H         8.8138494251       11.3017623097       16.7458638928
  H         9.6335463162       10.8913758115       15.4524928548
  O         5.5207147618       12.8297277229       12.4938223882
  H         6.2020203144       13.0830673131       13.1482622917
  H         5.7707422163       13.2926485425       11.6704867627
  O       -20.1460873729       21.8435970682       10.8145556503
  H         3.0220645903       21.6661927519       11.1442871616
  H       -20.3046839903       22.0138847520        9.8457881190
  O        17.0030653584        5.6858628741       20.4048626334
  H        16.6575425123        5.6382493772       19.4997493294
  H        17.6546730163        6.4064085787       20.4171864922
  O        10.8687904090       10.2964358440       14.6407874358
  H        11.6631251480        9.6830984232       14.8865016512
  H        10.3978727556        9.8589578735       13.8876896805
  O         9.5133950871        9.5219310334       12.3860915873
  H         9.8030021554       10.0606276869       11.6043446766
  H        10.2594022460        8.0402260705       11.9067995016
  N        11.3648173665        4.6118181624       15.2594132591
  H        10.5624672113        4.0636298509       14.9011267419
  H        12.2477217107        4.0661469350       14.9675020301
  H        11.3075644008        4.7192667509       16.2677180042
  N       -10.3780796013       24.1437309923       12.9229261852
  H        -9.5062125830       23.6528539975       12.7356396420
  H       -11.0872795258       23.8176445209       12.2317814988
  H       -10.7079357983       23.9345784475       13.8772509834
  N        13.0382391061        8.8312562351       15.1184401166
  H        13.2080805637        8.3648817792       14.2080095609
  H        12.8876441475        8.0705840020       15.7779693155
  H        13.8974772910        9.3109340011       15.3813619279
  N         8.5175299761        0.6316626431       13.4736702716
  H         8.8082922899        1.6275119920       13.6893558306
  H         8.2344460767        0.6408946675       12.4574484359
  H         7.7523334071        0.2851358530       14.0456439253
  H         9.3774766322        0.0389825982       13.6353733296
  N        14.4950685005        1.0581671860       16.1093321168
  H        15.3244055655        0.8926023248       15.5394622361
  H        14.8081527698        1.3249448550       17.0402812477
  H       -10.1802202271       25.2406632124       12.8874763902
  H        14.0562784039        1.8897138736       15.6550323312
  N        10.9368185007        0.6409609516       10.7609598915
  H       -13.9814159864       25.3256432226       11.0336993592
  H        11.6868270534        0.1689684734       10.2468161229
  H        11.4022867631        1.0725771735       11.6047183777
  H        10.5483492576        1.4551442344       10.2013667954
  N        16.3105156959        3.9444489337       22.1980986352
  H        16.6540245076        4.7040469709       21.4872170922
  H        15.6227349594        3.3499131636       21.7269943397
  H        15.8621751750        4.3782537029       23.0084688050
  H        17.0912839057        3.3651444602       22.5137682261
  P        11.9086040538        6.7153687309       12.6174574350
  O        11.2305529081        6.8353369485       13.9847028264
  O        10.8897635147        7.3748981854       11.5183672993
  O        11.9773670928        5.2492196834       12.1328709202
  O        13.2332617992        7.4715661489       12.5392255076
  H        11.3211449654        5.5983076286       14.7303264556
  P        13.4018407724        2.3755204400       13.2171702036
  O        14.4455055704        1.2748315239       13.1363604791
  O        13.7051316570        3.3766697508       11.9743946205
  O        13.4720647182        3.1708758754       14.5220947831
  O        11.9514021390        1.8400202819       12.9898212071
  H        13.0728194695        4.2069721775       12.0223573307
     464
 i =        5, E =     -6303.0157781705
 Ca         1.6939676848        5.2018002054        6.4340837579
 Ca        -3.4781164927       11.6550390863        9.2476213016
 Ca        -4.1867046817        9.4481511934        6.4518622277
 Ca         0.9037374913        2.6632790231        9.0992167591
 Ca        -9.4287316094       12.7411343062        6.8264570878
 Ca        -3.9537062633        4.5187038446        8.6094724692
 Ca         7.4172904212        2.4547971765        6.8063432577
 Ca         1.2685738178        9.2531183867        8.4052699364
 Ca         4.2330195522        0.7543126810        8.0714885425
 Ca        -1.1099181014        7.4604621664        4.8032257346
 Ca        22.9262938381        1.0826428487        5.6540220615
 Ca        16.8382803172        7.3885760076        6.7459498909
  S         1.6593553840        2.1470833807        5.7352256366
  S        -4.4238754872        7.9911634389        9.2807708304
  S        -3.8854375078       12.4050964649        5.9745082035
  S         1.6826814132        6.2996034236        9.3823329060
  S        -0.6908345784        4.1789604555        3.8880949103
  S        -6.7708512362       10.4801149322        7.7854750623
  S        -2.4867812302       10.1075099288        3.3265684578
  S         4.2147772413        4.0792349148        7.8892089966
  S         1.6751327395        8.1675922425        5.4482140057
  S         6.8358054603        1.9358843035       10.3890454531
  S        -3.8587369902        6.5309168858        5.4835473236
  S        -9.5305886553       13.4395663906        9.9498852067
  O         2.5460542751        1.1938020140        6.4532339386
  O        -3.9389586214        6.7094060129        9.7906896277
  O        -4.6803559601       13.3964058095        6.7480535470
  O         0.9996472500        7.4071600975       10.0323715641
  O         0.9394847468        1.3480984512        4.6778442000
  O        -5.2467833320        7.8282736307        8.0473265311
  O        -3.0241753630       13.2110801010        5.0345578874
  O         2.5472035824        6.7832382353        8.2574263369
  O         2.3501778884        3.3188336902        5.1794413583
  O        -3.3577907571        8.9907852001        9.0297115003
  O        -4.6990247301       11.4190603773        5.2285220092
  O         0.7283746826        5.2873516080        8.7997681741
  O         0.5582568375        2.6365787364        6.7018098672
  O        -5.4027248777        8.5889186890       10.3934752909
  O        -3.0057149970       11.5985289786        6.9248224520
  O         2.6008751809        5.5656868190       10.4071116584
  O        -1.7563492121        3.2974269106        4.5544686600
  O        -7.5294375529        9.6813553232        8.8138640748
  O        -1.6067618215       11.3084916720        3.0321456600
  O         4.6588628514        4.7962754321        9.1206537295
  O         5.0583699554        2.9061509430        7.5602411168
  O        -0.6517969862        9.9332627415        9.6291283123
  O        -7.4200416109       11.7846805870        7.5305738072
  O        -2.3118476376        3.8223858214       10.2231495111
  O        -0.2013594068        5.2690969398        4.9049034598
  O        -5.3653725309       10.7110931151        8.2529529823
  O        -2.2342342924        9.5560634468        4.7698271143
  O         2.7885541285        3.6151871513        8.0868226729
  O         0.9768047194        8.3456324832        4.1531426132
  O         7.4556977735        2.7806382973        9.2481893572
  O        -3.1326859459        6.3635241374        4.1996235781
  O       -10.0497724358       12.1407193753        9.2415715503
  O         2.2209512437        9.4277760478        5.9971955962
  O         8.6519237131        1.4156743091        5.1760030350
  O        -4.1491022672        5.2111113414        6.1121897232
  O       -10.6639495445       12.7372027939        4.8573164310
  O         2.7826486591        7.1581852310        5.4205655137
  O         7.9567281800        0.9519863288       10.8612563792
  O        -5.1066621779        7.3418581415        5.3571648973
  O       -10.7763226702       14.4023505216       10.1033406891
  O         0.6031018514        7.6698940862        6.4646800492
  O         5.8150685357        0.9009828525        9.7158329835
  O        -2.9068095087        7.3102567629        6.4276259949
  O        -8.5992270441       14.0741627907        8.8818223899
  O         4.1641661312        5.0241281380        6.7168641310
  O        -1.2534896674       10.9799159000        9.0245048938
  O        -6.6557044821        9.6614097328        6.5244080207
  O        -1.1426444311        3.4022220233        9.7629090321
  O         5.6489515050        0.5642864759        5.9957988257
  O        -1.8156222441        5.2607789078        7.8076566512
  O        -0.1865618571       10.7876361978        6.8005295586
  O         7.8404478422        2.3805176928        4.4085106748
  O        21.4465590525        2.6124405082        7.1645601255
  O        -9.6102667089       11.7340154686        4.7248422018
  H        -0.6647793550       11.0636407393        7.6712911817
  H         7.1457498458        1.7972878789        4.0644296502
  H        21.4162403509        2.0294063344        8.0097658487
  H       -10.0927124984       10.8998531969        4.5163168997
  H        -0.8861087426       10.6180170206        6.1503423629
  H         3.4836772957        5.2585281144        9.9087358191
  H        -1.9491129626        3.3116765338        7.2909951696
  H        -6.2109350390        8.9486989818        9.9387953421
  H       -17.8066016380       25.2684381261        5.8984738600
  H        -1.0992163813        5.3761552487        8.4586049844
  H        -8.3868813552       14.8996665728        5.6583369676
  H        -2.0361126958        6.1377691522        7.4250773108
 Ca        -9.3760446600       17.9217363826        6.5246429106
 Ca       -16.8644489625       24.2536502774        9.8259929903
 Ca       -16.5877341442       21.7022780301        6.4384254952
 Ca       -11.8271431074       15.9327566395        8.8001058905
 Ca       -22.1970344632       24.5223927062        5.0360580586
 Ca       -16.1874826012       17.5953008809        8.3349606976
 Ca        -3.9370049094       15.5130501587        5.2314215628
 Ca       -11.0767554488       22.0803350174        8.8887942975
 Ca        -6.4483380555       14.1861079979        8.1778367055
 Ca       -13.1774439693       18.7131351627        6.7597113657
 Ca        11.4476853325       12.9276884409        5.9787761531
 Ca         4.3175948385       19.8841042955        6.9474181250
  S       -11.0963590065       15.6537576989        5.7942642550
  S       -17.2523230688       20.5344924543        9.7312993250
  S       -15.5830888652       24.4086032875        7.0463350065
  S        -9.5045908627       18.9837992285        9.4485109864
  S       -14.3361132468       17.1873918550        3.7158618891
  S       -19.7027601696       23.0257499992        7.4331428913
  S       -13.8146888425       22.1950694197        3.8945822834
  S        -6.5419377323       17.1516410049        7.2550839087
  S       -10.1198792097       20.7719506721        5.8647215755
  S        -4.1155498247       14.3872240820       10.2715564327
  S       -16.6005532286       18.7718491541        5.4991283547
  S       -22.7020524928       25.2405418336       10.1131944290
  O       -10.8181876558       14.6559552038        6.9066188368
  O       -16.1357495964       19.5720001206        9.7723339909
  O         7.9210191400        0.1546425967        7.7869292196
  O       -10.2489910769       20.1149924895        9.9904288489
  O       -12.1671148741       15.1567052280        4.9258366047
  O       -17.7573235412       20.6745871519        8.3148315741
  O       -14.1956222732       24.8218380911        6.7015288267
  O        -8.5471412597       19.3657885883        8.3879375012
  O        -9.8509532102       16.0737413839        5.1036851109
  O       -16.9536957551       21.8419291237       10.3081441521
  O       -16.3494429883       23.9770271485        5.8293175385
  O       -10.3615835148       17.8653234504        8.9744958238
  O       -11.5388583212       16.9013335830        6.5910395720
  O       -18.4023446621       19.8537208796       10.5723693391
  O       -15.5403855959       23.1898679993        7.9737181193
  O        -8.6850605054       18.3205282243       10.6505260185
  O       -14.8193609737       16.0269636140        4.4720094912
  O       -20.4743643129       21.9394988267        8.1570728575
  O       -13.6351795914       23.6911211406        3.8279865017
  O        -5.8475189098       18.1934273543        8.0836202608
  O        -5.5689082678       16.0789254700        6.9199270946
  O       -11.7861692374       22.6531090381       11.0338813173
  O       -20.6860729733       24.0107973339        6.9180090350
  O       -13.8245882390       17.3301396675        8.5516788280
  O       -13.2965691831       17.9612725126        4.4133641052
  O       -18.7858556211       23.7276080294        8.3658959622
  O       -14.5757606303       21.7124935805        5.0995854508
  O        -7.7325989621       16.5793710270        7.9335434486
  O       -10.7995776363       21.2378954884        4.6615436217
  O        -4.7497631342       15.5686327818        9.4707132587
  O       -16.0267822935       18.6648194269        4.1363375660
  O       -22.1751138841       23.9419596400        9.4714021257
  O        -9.7948661336       21.8616461394        6.8306044571
  O        -5.8461803543       14.6949826615        4.2814955412
  O         7.0921980299       17.4452600983        6.0585208452
  O       -20.2205421077       25.2224782059        4.2406551482
  O        -8.8486365247       19.9884159443        5.5643101610
  O        -2.8515723629       13.9213509522        9.4679188036
  O       -17.7661794498       19.7297369574        5.5232087004
  O         0.2279030280        0.3682791268        9.2877355273
  O       -11.0094638356       19.7384251398        6.6088942861
  O        -5.1370128956       13.1965012708       10.0230497363
  O       -15.6012511477       19.3833444951        6.5005696966
  O         2.5217180290        1.0275366399        9.7193584969
  O        -7.0282827654       17.8560433270        5.9936545244
  O       -12.8393454848       22.8893670587       10.1740826004
  O       -18.9748443288       22.3280303322        6.3086454187
  O       -14.3467774013       16.8121985807        7.2265730167
  O        -7.7018276383       14.2661540912        5.9412312899
  O       -13.3885759974       20.6831956916        8.1686883637
  O       -12.4174481959       22.8987667403        7.0914273249
  O        -5.7732590882       16.1231027987        3.8695100457
  O       -13.4168265134       14.5048121558        7.7331748637
  O       -20.2157717580       23.7709096954        3.9104957508
  H       -13.0851826265       23.6325200676        7.0814041976
  H        -6.4350730799       16.5658786620        4.4342686565
  H         9.8990512018       14.1392583433        8.3149823361
  H       -19.6577780154       23.3708705912        4.5955614841
  H       -11.9083616953       23.0108772799        6.2544292409
  H        -7.9048604614       18.8888983349       10.8466785525
  H       -13.8678572916       15.3796369895        7.3952397547
  H       -19.1559426961       20.5211383356       10.7142454950
  H        -6.9547388015       14.3983535868        5.2092858175
  H       -14.0164689108       20.8800717287        8.8838705193
  H         5.0014377774        0.2882330298        5.2254530566
  H       -13.3096515249       21.5364762400        7.6591432593
 Ca        14.1792824431        5.1898146544        5.7620910107
 Ca         7.7469351786       11.5196708885        9.9597274764
 Ca         7.8275736746        8.8849205075        7.2132916151
 Ca        14.0095928945        2.7400567405        9.6426014997
 Ca         1.9448929383       11.7323806230        6.0854982451
 Ca         8.7659667937        4.8436209363        9.2614823399
 Ca        19.7921998063        2.9513683093        5.0874480228
 Ca        13.8585177112        9.8748210832        8.9817902195
 Ca        17.6929240291        1.0697170586        8.0493205317
 Ca        11.1053792010        7.2461342433        7.5654917562
 Ca        10.7541873895        0.6155990974        4.7567771403
 Ca         4.7247784724        7.2556617346        7.1759307508
  S        13.0319570185        2.6553034699        6.5716015659
  S         7.0849792059        7.8720298676        9.9927271186
  S         8.0347293512       11.9019305073        6.3102846588
  S        14.7527239613        6.3497128757        9.3089576466
  S        10.8654313336        4.1723871258        3.6903255042
  S         4.7759837543       10.2545109626        7.8412561763
  S         9.8121499729        9.8232626336        4.4239763308
  S        17.1449782101        4.1705078351        7.3656316404
  S        13.9750787822        8.1790498178        5.6698773453
  S        20.0128709929        1.3298095887       10.0755088832
  S         7.8660714333        5.9851385378        6.3019953698
  S         2.1019659522       12.3007103647        9.9875879945
  O        13.5456656899        1.5949610282        7.4813270595
  O         7.9869140662        6.7709247878       10.4003489707
  O         6.7811542753       12.6552881306        6.5796060304
  O        13.9581966614        7.5265703737        9.5867973680
  O        11.6794851960        2.3134782670        6.0548650512
  O         6.3958220204        7.4862945726        8.6922724805
  O         9.0377391622       12.9222103506        5.8038523229
  O        15.0400524226        6.1769227289        7.8343748303
  O        13.9979366436        2.8651820299        5.4276139817
  O         7.9328610015        9.0934240994        9.5864495166
  O         7.8484742379       10.8129505248        5.2847588734
  O        14.2670126749        5.1196099114        9.9088531025
  O        12.9728180359        3.9562361358        7.3345445007
  O         6.1196860608        8.2035210954       11.0391064952
  O         8.5422340109       11.1930917266        7.5343192373
  O        16.1970002280        6.6781095783        9.9330363650
  O        11.1108533488        2.7573009067        3.3307713808
  O         3.7881876799        9.2835284550        8.4161880058
  O        10.8256283200       10.8691766818        4.6929629659
  O        17.7568472917        5.2653500876        8.2186756958
  O        18.2790360342        3.2805132184        6.9742627565
  O        11.7733913416        8.9436795227        8.8128026409
  O         4.0889490867       11.3312904729        7.0645972909
  O        10.3975881148        2.9188364131        9.5622644578
  O        11.9953209450        4.8492653314        4.3591172731
  O         5.5927872179       10.9548758974        8.8680035724
  O         9.8798331139        8.6913337159        5.3848683839
  O        16.1380309772        3.3757147681        8.0963380698
  O        13.3784644192        9.1362512256        4.7371929202
  O        19.2117466851        2.4990016755        9.3963858040
  O         8.5945552388        5.4880247583        5.1449625600
  O         1.7336135208       11.4965002214        8.6756784318
  O        14.5988244385        8.8542946011        6.8511835498
  O        17.9168473885        2.2770822086        4.0884834444
  O         7.1992343231        4.9004538085        7.0950377503
  O         1.0383129661       12.9456190108        4.3186375152
  O        15.0694042820        7.2933419689        5.0752862812
  O        21.3374528206        1.0879264021        9.2552355251
  O         6.8418621902        7.0495041945        5.9473192837
  O         0.8363884713       13.0584180242       10.4178057358
  O        12.9022419099        7.1738380965        6.1033315785
  O        19.1491794517        0.0475453376        9.7877593410
  O         8.8417754071        6.7001664842        7.2862049229
  O         3.1045957186       13.4564062706        9.4954418200
  O        16.5932672593        4.8410588819        6.1152622525
  O        10.7650971291        9.6647073180        8.0053432116
  O         5.6091009984        9.4704643318        6.8524413277
  O        11.7105906285        3.4323771339        9.7716228447
  O        16.2487765169        1.3681739500        5.8923942686
  O        10.9650245121        5.7129081842        9.1937197209
  O        12.6326294943       11.1675268864        7.0921825520
  O        17.9392803159        3.7562520153        3.9035861475
  O         9.5649888444        3.4529490379        7.3459314354
  O         1.9490094999       11.9889179996        3.6501385892
  H        11.4206786163       10.3216028378        7.5183913149
  H        17.3324169870        4.1015294377        4.5814365529
  H        10.0524233534        3.0539431449        8.1773725663
  H         2.7610453410       12.5029550677        3.5063170992
  H        12.8471787633       10.6244068208        6.3133398488
  H        16.8409121289        6.0373026169        9.5266667380
  H        10.2292085151        3.2876625260        6.6402739842
  H         6.3874315646        9.7242437402       11.6753741235
  H        16.9059472765        1.6729749578        5.1576939039
  H        11.5193460265        4.4880548041        9.5302668941
  H         3.1262140438       14.4522307203        5.5659323796
  H        11.0268357930        6.2230933302       10.0272917447
 Ca         0.8355928038       18.0535149060        6.7507986786
 Ca        -3.1992980277       24.1225252547        8.8923943223
 Ca        -3.6210896684       22.1518455199        6.0538813478
 Ca         1.2890292013       15.1413640940        9.5588416097
 Ca        -9.5113027977       24.9535712566        6.6404348867
 Ca        -3.5683036094       17.4263287102        8.5407085655
 Ca         7.4730031466       14.9941500134        5.7908345653
 Ca         1.0498289420       22.3021893232        8.0815794394
 Ca         4.9026611159       13.4349889763        8.0059234109
 Ca        -1.0906724908       19.9641692582        3.9647845692
 Ca        -1.1116434530       13.4588300615        3.8038418114
 Ca        -6.7107460692       20.1405357818        6.7676139224
  S         0.5953338188       15.0898079968        6.5310329368
  S        -4.1775296967       20.7064509225        9.3927418721
  S        -3.9842676174       25.3049937862        5.4949885754
  S         1.6480981072       19.4925491721        9.4864611893
  S        -0.7823709921       16.6827663778        3.4979601492
  S        -6.4126880810       23.0341131606        7.3242008911
  S        -1.5191720034       23.5196989281        3.3674569330
  S         4.1147369450       16.9599091201        7.8087164157
  S         1.5167301716       20.9134747206        4.9704405120
  S         7.5778710784       14.6048684537        9.4932926339
  S        -3.6669891980       19.1516661000        5.1004910415
  S        -9.4008565244       25.0557773597        9.8644204951
  O         1.4157088188       14.0879033876        7.2746581057
  O        -3.5343302420       19.4727749716        9.8556136157
  O        19.1442957610        0.7518618187        6.1633553540
  O         1.2252842016       20.7093301305       10.1813330786
  O        -0.5305487505       14.3943589603        5.8665859294
  O        -4.4120789852       20.6927286272        7.9095056235
  O        20.8855760187        0.9083182702        4.5305987653
  O         1.9863800715       19.8480489452        8.0499654250
  O         1.4338325429       15.8736359956        5.5879783755
  O        -3.5256054882       21.9423196948        9.8429388761
  O        -4.4441251914       24.0752065654        4.8344117796
  O         0.7353890127       18.3460781133        9.4641695844
  O         0.0595461449       16.0427115503        7.6174802365
  O        -5.6395980641       20.6779347086       10.0539684158
  O        -2.9044950797       24.9377248456        6.5142978681
  O         2.9979467125       19.0401683407       10.1860586407
  O        -1.9698555098       15.6932441134        3.6783541087
  O        -7.0219461059       22.0878809083        8.3310500416
  O        -0.5227477620       24.3626148627        4.1565924554
  O         5.2164055419       17.9055683047        8.2236469593
  O         4.6162963641       15.6976816942        7.2319585270
  O        -1.1403597814       21.7779152530        8.0592472420
  O        -7.2297547611       24.2603336620        7.1744705029
  O        -1.6986926545       16.7970666761       10.0670577575
  O        -0.6838098584       17.6788913459        4.6924494781
  O        -5.0184215949       23.4241236474        7.7089464846
  O        -1.8783473023       22.2144425046        4.1167366671
  O         3.2255496199       16.6816126528        9.0059380861
  O         1.0509089622       21.0485939665        3.5633058790
  O         7.2143127260       15.3485892921        8.1334253704
  O        -3.2338933160       18.9046867610        3.6988707016
  O        -9.9317748747       24.0672760126        8.7423043726
  O         1.5200312939       22.2422312295        5.6856327325
  O         5.7681898869       14.2443718468        4.5469560890
  O        -3.7651054702       17.8989441776        5.8919517674
  O       -11.2771604296       25.2019729142        5.1802720131
  O         2.8368111773       20.2689806608        5.1342587154
  O         8.6840300115       13.6113179712        9.1084786564
  O        -4.9031229066       19.9747647137        5.1888314231
  O        13.5956733892        0.5156965193       10.3767622357
  O         0.4692597892       20.0576932441        5.6765528053
  O         6.3643013791       13.6719942359        9.7816000773
  O        -2.5574504764       20.0311876878        5.7322206639
  O        15.6891662473        0.7905792887        9.1342211149
  O         3.3104598419       17.7240176072        6.7763104852
  O        -1.8105881451       22.8939851960        7.3937621710
  O        -6.2939371056       22.2779173825        6.0351493329
  O        -0.7795368690       15.9960039407       10.3887043494
  O         3.6623856164       13.6468093398        5.6681483774
  O        -1.4560557874       18.6368737129        7.7280486708
  O         0.0468281567       24.5711761082        6.9324224576
  O         5.6502140468       15.7061955965        4.3515281316
  O        -2.6667641838       15.5652090455        7.3882888768
  O       -10.9165096824       23.7737255385        5.1115327577
  H         0.1301258273       25.0125807930        7.8307603938
  H         4.9934664748       15.9685872147        5.0280200510
  H        -2.7670664677       14.8213862891        8.0611899058
  H       -10.9145794598       23.5671628847        4.1375932055
  H        -0.7765200536       23.9154463012        7.0315965900
  H         3.2225554555       18.1117987559        9.8272112916
  H        -1.6960576733       15.6609550032        7.3159191550
  H        -6.1971611242       21.3256029898        9.5136726543
  H         4.5528465909       13.8416074600        5.1055557588
  H        -1.2329687153       19.0730183825        8.5655068709
  H        15.5097150069        2.0033727482        5.7556459623
  H        -1.8172810233       19.3715241567        7.1672092123
  O        12.4498955800       11.7176676426       12.8968519661
  H        11.8597449032       11.3086339138       13.5704794487
  H        12.6936924492       10.9500092181       12.3269857594
  O        11.1931029015       13.1006079109       11.1630490878
  H        11.6784460472       12.6419420903       11.9365999548
  H       -12.1163966004       13.5520815154       10.7206075101
  O        12.9495951676        9.5839604503       11.2127068393
  H        13.1416721623        8.7092023713       11.7413646174
  H        12.0988994794        9.3569046260       10.7788338508
  O         9.4316794712        4.7879019136       11.6397909396
  H        10.4463120683        4.8968420831       11.7672023627
  H         9.1041836804        5.6700815185       11.8867073293
  O         7.7036180789       13.2032674655       14.3432159901
  H         8.0836348741       12.5021121015       14.9458258486
  H         7.8730274223       14.0500630141       14.7679517354
  O        10.0426321819       11.0087736418       10.1993315792
  H        10.6270884404       11.8033630869       10.3843415557
  H        10.3504372576       10.5528915734        9.3709225132
  O         9.7011812052        3.0221572506       13.6627371151
  H        10.5986139237        2.6696386604       13.3758983598
  H         9.4461145899        3.6399041084       12.9368816228
  O       -14.9813312121       23.7386002834       11.1898898257
  H       -15.2520027602       23.3452376701       12.0390622372
  H       -14.1298880535       23.2709364341       10.8809647113
  O       -13.1994844264       24.9028689163       13.8293857170
  H        11.4391736331        0.4172079233       13.6165474115
  H       -12.7351829354       24.6333944904       14.6468713868
  O         6.8341256643       10.5692315254       11.9346298556
  H         8.5604450011        9.7385961986       12.4842854435
  H         6.1606583009       11.2086946980       12.2718562293
  O       -11.2490910695       24.3015157707       15.7279131794
  H       -11.1602882697       23.7066223004       16.4788141608
  H       -10.6559631728       25.1186944466       15.9454874806
  O       -16.7316035766       23.2768006169       13.4338471637
  H       -16.8482806708       22.3748696611       13.7629813394
  H       -17.5072363314       23.4522719585       12.8639756156
  O         8.5346932824       13.0000488379       11.7536333825
  H         8.3814545138       13.0179336403       12.7200521586
  H         9.4802039971       13.1987273377       11.6110567793
  O       -18.6321903159       23.9978073852       11.5091662571
  H       -19.2702021872       23.2705343802       11.3018476438
  H       -19.1179421755       24.8241586396       11.3426626172
  O         8.7683870488       11.2911791124       15.7827577201
  H         8.8289535508       11.3074745242       16.7421662333
  H         9.6297088374       10.8899255442       15.4456663859
  O         5.5184984437       12.8238855110       12.5181714372
  H         6.2011152817       13.0848620644       13.1478256477
  H         5.7357898329       13.2962801249       11.6986195759
  O       -20.1349501329       21.8435041363       10.8037830574
  H         3.0386926610       21.6736657861       11.1415171500
  H       -20.3018695695       22.0102833572        9.8416859729
  O        16.9859466725        5.7240877026       20.3506752565
  H        16.6750273288        5.7104762909       19.4320978537
  H        17.6944339620        6.3937340884       20.3961311176
  O        10.8748744723       10.3323289076       14.6284364797
  H        11.6496056362        9.7103299272       14.8962176075
  H        10.4076011071        9.8755398212       13.8920084119
  O         9.5064750461        9.5083631459       12.4062865795
  H         9.7893054062       10.0297745973       11.6116162894
  H        10.2621909055        8.0222766837       11.9261504410
  N        11.3647000733        4.6233146530       15.2579200897
  H        10.5680902989        4.0822858749       14.8804901229
  H        12.2428354630        4.0736883124       14.9649830133
  H        11.3059140154        4.7153878143       16.2608416727
  N       -10.3609179206       24.1614717506       12.9350893401
  H        -9.5019009798       23.6652269832       12.7244069816
  H       -11.0826548885       23.8473724906       12.2577852073
  H       -10.6869131941       23.9345904873       13.8846103254
  N        13.0541801782        8.8467262094       15.1289119998
  H        13.2061032633        8.3955591179       14.2131304037
  H        12.8891680110        8.0782090226       15.7707138823
  H        13.9270088566        9.2958871273       15.3873405246
  N         8.5171217865        0.6424186993       13.4974706598
  H         8.7946590859        1.6436098552       13.6943257374
  H         8.2491863292        0.6506961648       12.4803177989
  H         7.7504843711        0.3017958625       14.0680265297
  H         9.3801563440        0.0646975778       13.6580203302
  N        14.5087847483        1.0548836220       16.1167389214
  H        15.3221819194        0.8988950478       15.5278322696
  H        14.8275791455        1.3286123577       17.0379502204
  H       -10.1633127765       25.2709465522       12.9209610608
  H        14.0497092414        1.8688015847       15.6656617248
  N        10.9431420201        0.6511876780       10.7622866618
  H       -13.9965309992       25.3558078901       11.0225457001
  H        11.6944581396        0.1623127360       10.2670894051
  H        11.3975215091        1.0693909563       11.6062208302
  H        10.5735066404        1.4614548960       10.1926261040
  N        16.3045481463        3.9327762910       22.2026663453
  H        16.6161265744        4.6530974271       21.5031543458
  H        15.6133309136        3.3180636717       21.7631172479
  H        15.8705342121        4.3752803268       23.0180878756
  H        17.0931937473        3.3656087535       22.5267027653
  P        11.9086537280        6.7143963558       12.6287182897
  O        11.2244001016        6.8273140301       13.9895542519
  O        10.9219757109        7.4047735784       11.5191619318
  O        11.9651706610        5.2415894036       12.1483105938
  O        13.2435342582        7.4496351125       12.5614098468
  H        11.3168098516        5.6092980850       14.7233135543
  P        13.4047772893        2.3744286818       13.2478948065
  O        14.4541257052        1.2780892023       13.1629325121
  O        13.6965452818        3.3898274389       12.0128859960
  O        13.4883538961        3.1585999589       14.5573875211
  O        11.9595054087        1.8276024095       13.0369101179
  H        13.0501624127        4.2123824344       12.0558320700
     464
 i =        6, E =     -6303.0561466728
 Ca         1.7135516420        5.2040274054        6.4416753479
 Ca        -3.4770090231       11.6497483865        9.2492817162
 Ca        -4.1931958434        9.4525934130        6.4599648880
 Ca         0.8880006207        2.6839331129        9.1029203789
 Ca        -9.4376540911       12.7216658738        6.8329568437
 Ca        -3.9708713087        4.5205048007        8.6187178691
 Ca         7.4145839453        2.4577410132        6.8302324198
 Ca         1.2743124918        9.2836999894        8.4112337143
 Ca         4.2506372878        0.7397461974        8.0579735402
 Ca        -1.1153889882        7.4614778607        4.8148702920
 Ca        22.9260987432        1.0831882579        5.6699965636
 Ca        16.8331783914        7.3814621195        6.7676236920
  S         1.6509541316        2.1517553356        5.7383871581
  S        -4.4324683145        7.9887918081        9.2689820651
  S        -3.8857049491       12.4055411701        5.9752685286
  S         1.6853214067        6.3024586520        9.3678797813
  S        -0.6909551089        4.1963985837        3.9221383605
  S        -6.7740325117       10.4787965841        7.7797311152
  S        -2.4776777824       10.0927328039        3.3551091777
  S         4.2150687464        4.0804498054        7.8897002191
  S         1.6717121704        8.1729060805        5.4588704914
  S         6.8355430890        1.9336994158       10.3920208985
  S        -3.8551112738        6.5293481512        5.4884087572
  S        -9.5163720331       13.4398213178        9.9705018174
  O         2.5494632204        1.2078549602        6.4527043547
  O        -3.9315260159        6.7114933962        9.7746280426
  O        -4.6892173595       13.3884457646        6.7504995423
  O         0.9890357435        7.4085516511       10.0081810990
  O         0.9427643764        1.3517128376        4.6756818280
  O        -5.2673932617        7.8314600565        8.0452566913
  O        -3.0222776542       13.2116950153        5.0384605428
  O         2.5608448727        6.7757533440        8.2492359195
  O         2.3328522794        3.3230426279        5.1736212023
  O        -3.3724933550        8.9911570764        9.0119218945
  O        -4.6990678397       11.4242054870        5.2248853038
  O         0.7364686765        5.2877345445        8.7881928704
  O         0.5440890533        2.6317056900        6.7003777856
  O        -5.4036862790        8.5682260315       10.3899843758
  O        -3.0016483940       11.6045779621        6.9227074794
  O         2.5956085150        5.5814351453       10.4029189421
  O        -1.7546564196        3.3006587213        4.5691904750
  O        -7.5309275767        9.6971564973        8.8166582626
  O        -1.6160814382       11.3094556857        3.0743010907
  O         4.6583452691        4.7899511602        9.1225693669
  O         5.0626904640        2.9080138948        7.5674993595
  O        -0.6523050172        9.9153809235        9.6023237807
  O        -7.4149149976       11.7861547407        7.5204834550
  O        -2.3088721805        3.8029478373       10.1950583400
  O        -0.2091260059        5.2876035979        4.9414015236
  O        -5.3669082003       10.7060254279        8.2470189103
  O        -2.2206888994        9.5444103793        4.8009487899
  O         2.7888208195        3.6151442811        8.0896889495
  O         0.9773577622        8.3355172221        4.1604282927
  O         7.4672089596        2.7615215742        9.2468074025
  O        -3.1390189002        6.3662615771        4.1979614987
  O       -10.0478400660       12.1630761857        9.2360047853
  O         2.2124852167        9.4372938465        6.0085732361
  O         8.6642088266        1.4214193938        5.1952383494
  O        -4.1345963522        5.2127693624        6.1261478159
  O       -10.6605352925       12.7546553565        4.8569659492
  O         2.7646066089        7.1493773479        5.4202812935
  O         7.9417736957        0.9303940734       10.8503529777
  O        -5.0955062242        7.3508211771        5.3552554465
  O       -10.7631661455       14.3945021117       10.0420703564
  O         0.5995970738        7.6610271223        6.4607305493
  O         5.8278831074        0.9159941357        9.6928035222
  O        -2.8968334127        7.3129205523        6.4145066799
  O        -8.6034660214       14.0666879121        8.8809408775
  O         4.1676168990        5.0224006536        6.7165681525
  O        -1.2677651607       10.9756520173        9.0677336153
  O        -6.6587962464        9.6597940397        6.5184847885
  O        -1.1295025683        3.4041904924        9.7528378480
  O         5.6788598439        0.5758797836        5.9913584446
  O        -1.8212806361        5.2575645057        7.8178021106
  O        -0.1647757044       10.7905426830        6.7864593278
  O         7.8486341679        2.3710456194        4.4184460128
  O        21.4548917565        2.6106385086        7.1475220345
  O        -9.6198199770       11.7349540092        4.7278578571
  H        -0.6550602000       11.0890328416        7.6369020852
  H         7.1522566476        1.7829652289        4.0727067707
  H        21.4169948578        2.0432415289        8.0055675479
  H       -10.1071007707       10.9021767676        4.5362129605
  H        -0.8767837374       10.6053533604        6.1491348949
  H         3.4738516535        5.2612066398        9.9114527664
  H        -1.9566399907        3.3248281818        7.2904279107
  H        -6.2022630861        8.9523850150        9.9351666477
  H       -17.7910821253       25.2626006595        5.9066725404
  H        -1.0978106484        5.3705215158        8.4649484312
  H        -8.3950660866       14.9065702235        5.6668854671
  H        -2.0279819443        6.1296126835        7.4171170469
 Ca        -9.3819533850       17.9263913408        6.5345467505
 Ca       -16.8578318769       24.2539254231        9.8159245025
 Ca       -16.5926924966       21.6922805831        6.4420951571
 Ca       -11.8324903012       15.9210050014        8.8054621639
 Ca       -22.1958535957       24.5088382376        5.0487260224
 Ca       -16.1783605764       17.5801056539        8.3534662335
 Ca        -3.9546300859       15.4983026152        5.2389134167
 Ca       -11.0745040132       22.1007934843        8.8958201895
 Ca        -6.4641787055       14.1759761098        8.1668879636
 Ca       -13.1674492411       18.7198124874        6.7671334336
 Ca        11.4502464180       12.9215254178        5.9834462451
 Ca         4.3222194954       19.8929165532        6.9467260604
  S       -11.0914603136       15.6588779070        5.8035008388
  S       -17.2516936166       20.5320013857        9.7114783701
  S       -15.5832705670       24.4077454950        7.0442830503
  S        -9.4961673358       18.9826760659        9.4349973092
  S       -14.2882779606       17.1416550945        3.7287784017
  S       -19.7028239725       23.0209540120        7.4273299208
  S       -13.8396615617       22.2000938379        3.9058477395
  S        -6.5444338240       17.1583436393        7.2426476963
  S       -10.1158277387       20.7723416303        5.8747233526
  S        -4.1111145138       14.3913145876       10.2705927851
  S       -16.6069801094       18.7702510787        5.5135492549
  S       -22.7044940722       25.2499243740       10.1143927367
  O       -10.8010731781       14.6726660121        6.9176748894
  O       -16.1410209535       19.5653011332        9.7472922874
  O         7.9142778826        0.1443323953        7.7925662821
  O       -10.2457339576       20.1158895277        9.9682619952
  O       -12.1594157018       15.1550151718        4.9365098312
  O       -17.7704013756       20.6779921501        8.3041429004
  O       -14.1952004491       24.8110113833        6.6948003165
  O        -8.5303237529       19.3591339537        8.3804024838
  O        -9.8397436065       16.0596326205        5.1110984703
  O       -16.9471246839       21.8335973465       10.2995143943
  O       -16.3655689511       23.9789348351        5.8383205451
  O       -10.3544146179       17.8670005305        8.9636781877
  O       -11.5384623586       16.9098521327        6.5877468144
  O       -18.3957373628       19.8618098567       10.5628281906
  O       -15.5309149063       23.1895424286        7.9676064775
  O        -8.6829304468       18.3277457961       10.6405663846
  O       -14.8283637973       16.0136023012        4.4921915500
  O       -20.4647055412       21.9270801593        8.1503120134
  O       -13.6180307442       23.6857417381        3.8613761366
  O        -5.8573093243       18.2045473451        8.0724608575
  O        -5.5605172884       16.0915708011        6.9214915046
  O       -11.7605244944       22.6795613882       11.0159956745
  O       -20.6838458609       24.0094055146        6.9140535762
  O       -13.8188490856       17.3538627652        8.5473828048
  O       -13.3020974428       17.9741630439        4.4257525654
  O       -18.7829083705       23.7185109832        8.3610407496
  O       -14.5661830341       21.7004144867        5.1229714657
  O        -7.7269976491       16.5753375951        7.9211100357
  O       -10.7945387915       21.2351626462        4.6698378962
  O        -4.7387932997       15.5642591151        9.4549278654
  O       -16.0486929596       18.6776707344        4.1499491635
  O       -22.1942844858       23.9572621762        9.4540530290
  O        -9.7880409647       21.8569221201        6.8466062710
  O        -5.8268145824       14.7032789439        4.2885863435
  O         7.0792052915       17.4435394729        6.0710546332
  O       -20.2382996035       25.2161173401        4.2381304433
  O        -8.8406090176       19.9988338029        5.5666172873
  O        -2.8711243585       13.9100845163        9.4426925898
  O       -17.7746701945       19.7269094331        5.5275751394
  O         0.2280888363        0.3710373584        9.2828070556
  O       -11.0043261904       19.7410806032        6.6143241098
  O        -5.1305838828       13.2115152859        9.9863624888
  O       -15.5976705343       19.3771492797        6.5067270811
  O         2.5212523822        1.0209835227        9.6946337421
  O        -7.0448758459       17.8559809016        5.9861631348
  O       -12.8199218179       22.8980290257       10.1624472048
  O       -18.9624537654       22.3334790053        6.3086437342
  O       -14.3393781039       16.8148582740        7.2315359435
  O        -7.7153112378       14.2654878252        5.9509551008
  O       -13.3790300451       20.6930633491        8.1691545592
  O       -12.4174297142       22.9079106322        7.0931214273
  O        -5.7691727219       16.1336450793        3.8762594018
  O       -13.4188595462       14.4996133256        7.7362433289
  O       -20.2406344907       23.7611420105        3.9199211540
  H       -13.0806538114       23.6428946390        7.0849763889
  H        -6.4279290521       16.5744138590        4.4481691577
  H         9.9041115982       14.1208135023        8.3157278485
  H       -19.6674246797       23.3711254269        4.6061261017
  H       -11.9023413092       23.0205015156        6.2537020304
  H        -7.9318663846       18.9157881082       10.8622124058
  H       -13.8603740539       15.3702779004        7.3882007424
  H       -19.1427345326       20.5376670291       10.6989403535
  H        -6.9687503882       14.3872381209        5.2186494937
  H       -14.0155017074       20.8634800102        8.8830576590
  H         5.0060614086        0.3034981504        5.2406771953
  H       -13.3138599441       21.5433440318        7.6537335742
 Ca        14.1810290005        5.1937353198        5.7890407867
 Ca         7.7455311117       11.5251436842        9.9646377609
 Ca         7.8349183717        8.9016341904        7.2005505921
 Ca        14.0068685613        2.7596770832        9.6514253602
 Ca         1.9522670783       11.8540885378        6.1382420550
 Ca         8.7746147521        4.8373571845        9.2659615484
 Ca        19.7901693417        2.9656945128        5.0918118218
 Ca        13.8790982080        9.8862577055        8.9869040100
 Ca        17.6678898062        1.0949870795        8.0454323812
 Ca        11.0971679294        7.2437091509        7.5626490724
 Ca        10.7582461736        0.6221824559        4.7856585187
 Ca         4.7312404906        7.2561500775        7.1797895137
  S        13.0399714462        2.6506383524        6.5773036240
  S         7.0863562686        7.8650700855        9.9783465531
  S         8.0243387092       11.9093081778        6.3218367377
  S        14.7573584608        6.3542418596        9.2999552828
  S        10.8908840403        4.1718184404        3.6928119091
  S         4.7553246587       10.2704195715        7.8351308926
  S         9.8732628356        9.7789781673        4.4269835830
  S        17.1502393320        4.1688577690        7.3635791578
  S        13.9797841599        8.1836674144        5.6821966411
  S        20.0186535553        1.3433950790       10.1042304948
  S         7.8643544469        5.9819475824        6.3105086886
  S         2.1121712614       12.2897436239        9.9616449499
  O        13.5586324571        1.5942837569        7.4903115207
  O         7.9994125527        6.7672275919       10.3729392091
  O         6.7735557801       12.6675373160        6.5955955125
  O        13.9607469162        7.5318259255        9.5724214158
  O        11.6864245266        2.3110425165        6.0678251087
  O         6.3809552486        7.4717332268        8.6942727555
  O         9.0298928395       12.9284305819        5.8235256925
  O        15.0445272281        6.1794921012        7.8290842967
  O        14.0024980381        2.8584211074        5.4324535982
  O         7.9291044825        9.0805202823        9.5558178735
  O         7.8308897728       10.8310809688        5.2929000568
  O        14.2707960569        5.1219363488        9.8978156561
  O        12.9754608319        3.9489242710        7.3397073445
  O         6.1283066553        8.2001179625       11.0318805305
  O         8.5259873297       11.2100928150        7.5531462791
  O        16.1987046268        6.6842203122        9.9230679173
  O        11.1131842733        2.7500714724        3.3490448679
  O         3.7788521459        9.2928438315        8.4170611498
  O        10.8039383235       10.8764256031        4.7179551306
  O        17.7442347917        5.2688223298        8.2198205309
  O        18.2834983450        3.2752571348        6.9723530518
  O        11.7817528435        8.9292712374        8.8080166538
  O         4.0655507293       11.3431783232        7.0559214067
  O        10.3962171690        2.9203870604        9.5669605626
  O        12.0109215640        4.8473993263        4.3811679705
  O         5.5805201333       10.9490452605        8.8693050286
  O         9.8549579281        8.6880476872        5.4205582164
  O        16.1412016758        3.3798455166        8.0967859785
  O        13.3860755183        9.1359315915        4.7433820712
  O        19.2277589692        2.4802762337        9.3706712977
  O         8.5972172491        5.4856397480        5.1549056377
  O         1.7264109114       11.5015665291        8.6521087948
  O        14.6052508760        8.8490311794        6.8669313049
  O        17.9249521035        2.2926642751        4.1104238282
  O         7.1970258090        4.9043474624        7.1129373699
  O         1.0467674411       12.9263318169        4.3324449314
  O        15.0727724440        7.3003158077        5.0830136651
  O        21.3022339048        1.0793527018        9.2324050810
  O         6.8395382105        7.0420915948        5.9490085294
  O         0.8675331577       13.0821118593       10.3857166794
  O        12.9081525151        7.1834062392        6.1185510812
  O        19.1601184923        0.0768726591        9.7511121626
  O         8.8298290675        6.6997354212        7.2945881782
  O         3.1032613217       13.4419116274        9.4536160348
  O        16.5770464664        4.8331698682        6.1227236667
  O        10.7723465771        9.6582484284        8.0099574652
  O         5.6062782337        9.4780334523        6.8713113829
  O        11.7049133410        3.4443946524        9.7799152858
  O        16.2306382279        1.3472085687        5.8926013902
  O        10.9538938863        5.7165803278        9.1805038379
  O        12.6236030473       11.1696764770        7.0981748282
  O        17.9496391915        3.7687441826        3.9046227822
  O         9.5522247969        3.4281170663        7.3345898775
  O         1.9503605930       11.9716318305        3.6670166187
  H        11.4225539075       10.3217695995        7.5311440978
  H        17.3472790291        4.1012158231        4.6016014475
  H        10.0514056416        3.0491152475        8.1709706626
  H         2.7446107311       12.5230961739        3.5333180341
  H        12.8364776504       10.6361930348        6.3107151216
  H        16.8323007011        6.0264548425        9.5313936460
  H        10.2154459177        3.3190820101        6.6296391731
  H         6.3880217490        9.7170501706       11.6717277466
  H        16.8986012609        1.6500113797        5.1696398340
  H        11.5202401130        4.4951095451        9.5362172833
  H         3.1149859447       14.4351277398        5.5848546006
  H        11.0302525611        6.2405539904       10.0064688018
 Ca         0.8288470535       18.0320371012        6.7474277222
 Ca        -3.1826243070       24.1158602083        8.8815536591
 Ca        -3.6270900127       22.1520614802        6.0536452647
 Ca         1.3286340960       15.1219739056        9.5139111251
 Ca        -9.4998639287       24.9545850789        6.6483393249
 Ca        -3.5792993869       17.4204244683        8.5244772572
 Ca         7.4684265359       14.9753745468        5.7988538601
 Ca         1.0546878621       22.2949510420        8.0813627611
 Ca         4.8588915120       13.4083335233        7.9708400788
 Ca        -1.0879850446       19.9599400410        3.9600583219
 Ca        -1.0731866535       13.4301890452        3.8654105810
 Ca        -6.7145202399       20.1395548552        6.7778109395
  S         0.6155770749       15.0612817293        6.5287720066
  S        -4.1779624241       20.7034812846        9.3727952251
  S        -3.9742497882       25.3010207010        5.5081924511
  S         1.6507090440       19.4933496181        9.4706576563
  S        -0.7936085031       16.6946237538        3.5201044258
  S        -6.4140319240       23.0328750270        7.3186460369
  S        -1.5057807730       23.4987658735        3.3796178809
  S         4.1135509819       16.9698434356        7.8081736128
  S         1.5146778829       20.9146241313        4.9943641064
  S         7.5799531638       14.6163043487        9.4959502557
  S        -3.6645912583       19.1533154467        5.1108329104
  S        -9.3890451880       25.0469379647        9.8965993303
  O         1.4379684363       14.0690814586        7.2797720098
  O        -3.5218410837       19.4725722511        9.8253641624
  O        19.1471571457        0.7368973684        6.1786967474
  O         1.2189903721       20.7068802860       10.1672834718
  O        -0.5453045669       14.4189362930        5.8792007798
  O        -4.4209522721       20.6883449170        7.8929255582
  O        20.9003674511        0.8915783790        4.5357081218
  O         1.9890160190       19.8489380667        8.0369640245
  O         1.4373769838       15.8769074884        5.6017538415
  O        -3.5269251852       21.9362975783        9.8317881410
  O        -4.4334587475       24.0782273220        4.8361701066
  O         0.7428161333       18.3436207027        9.4573011575
  O         0.0721658377       16.0150893044        7.6082065095
  O        -5.6311867883       20.6666304667       10.0387126458
  O        -2.8957879306       24.9297656717        6.5233755120
  O         2.9943159384       19.0521520310       10.1787256684
  O        -1.9754957068       15.7003305086        3.7068962921
  O        -7.0123238614       22.0922561248        8.3309875294
  O        -0.5339126124       24.3584381606        4.1771731432
  O         5.2186180339       17.9054335868        8.2234587225
  O         4.6057899614       15.7067007140        7.2286086569
  O        -1.1153136670       21.7716574366        8.0371124348
  O        -7.2447624837       24.2492330503        7.1750414929
  O        -1.7033059827       16.8025124110       10.0572024689
  O        -0.6819097189       17.6862507076        4.7140330492
  O        -5.0203948053       23.4271948912        7.7037623864
  O        -1.8771599523       22.2127714890        4.1511456979
  O         3.2304881817       16.6934864480        9.0105784035
  O         1.0536469440       21.0503293219        3.5874983064
  O         7.2073097814       15.3429251033        8.1330164447
  O        -3.2308845749       18.9149291490        3.7098680647
  O        -9.9352548518       24.0935748641        8.7542709514
  O         1.5011857575       22.2430994262        5.7038341827
  O         5.7827752385       14.2471199267        4.5686961002
  O        -3.7590454672       17.8968823616        5.8982188306
  O       -11.2826631271       25.2094117878        5.1869407931
  O         2.8391375827       20.2751807624        5.1389088864
  O         8.6802058938       13.6208168255        9.1066524505
  O        -4.9033397962       19.9749673683        5.1882416557
  O        13.5997486937        0.5309092038       10.3406652034
  O         0.4614948421       20.0571792785        5.6894505665
  O         6.3587457873       13.6892486262        9.7659638558
  O        -2.5548612420       20.0256509373        5.7431894556
  O        15.6729491115        0.7492023556        9.1049950895
  O         3.3033406913       17.7349487294        6.7838034414
  O        -1.8254693008       22.8659406438        7.4016331318
  O        -6.2944241595       22.2762244157        6.0293532256
  O        -0.7678767590       15.9881618457       10.3741372820
  O         3.6544915708       13.6282387014        5.6633742033
  O        -1.4489160569       18.6423235758        7.7288964536
  O         0.0480005004       24.5715463105        6.9250810211
  O         5.6451721336       15.7060446164        4.3575367590
  O        -2.6711854801       15.5704824421        7.3761231115
  O       -10.8975096680       23.7878121526        5.0972758686
  H         0.1265935604       25.0131871334        7.8315156312
  H         5.0024929585       15.9668167610        5.0496112895
  H        -2.7688785336       14.8345773326        8.0627056024
  H       -10.9630443084       23.5455619597        4.1557330174
  H        -0.7666988262       23.9175126092        7.0139162597
  H         3.2199902598       18.1226620672        9.8249914982
  H        -1.6982423316       15.6726287404        7.3114302346
  H        -6.1836693291       21.3303521234        9.5136656787
  H         4.5483332969       13.8345627726        5.1189336066
  H        -1.2367306662       19.0708304553        8.5772334465
  H        15.4969007157        1.9944467247        5.7726548893
  H        -1.8212568695       19.3614854651        7.1549691744
  O        12.4562273977       11.7068185864       12.8993227667
  H        11.8548284288       11.3088933807       13.5756938518
  H        12.6921511779       10.9481344649       12.3113301568
  O        11.2002263864       13.1375968043       11.1677314377
  H        11.6696074638       12.6417675731       11.9261778851
  H       -12.1099202932       13.5735745104       10.7070526402
  O        12.9503118335        9.5927414023       11.1867931779
  H        13.1484864902        8.7218336306       11.7220477060
  H        12.1055929742        9.3520389120       10.7473558129
  O         9.4344141694        4.7914449856       11.6266262221
  H        10.4488336850        4.8849746548       11.7490137985
  H         9.1014472237        5.6749670327       11.8675820071
  O         7.6917321362       13.2094732303       14.3419943070
  H         8.0947497043       12.5055028330       14.9321846692
  H         7.8744971260       14.0516714806       14.7765995176
  O        10.0386799875       11.0086098052       10.1838298271
  H        10.6217064969       11.8032472964       10.3787330374
  H        10.3523076008       10.5381881459        9.3662599626
  O         9.7060579543        3.0248987505       13.6582367376
  H        10.6033739292        2.6615549257       13.3693014362
  H         9.4418077977        3.6446793200       12.9322016661
  O       -14.9952261434       23.7256795012       11.1850286926
  H       -15.2693381700       23.3453833754       12.0415512345
  H       -14.1271839650       23.2817084301       10.8860550247
  O       -13.2004280135       24.9054161114       13.8375045303
  H        11.4392480282        0.4203988693       13.5993832890
  H       -12.7334152607       24.6264721333       14.6509136707
  O         6.8503550478       10.5564627099       11.9296501614
  H         8.5559129565        9.7345367675       12.4734848042
  H         6.1811893856       11.2073418614       12.2597859195
  O       -11.2547524388       24.3039106519       15.7125315461
  H       -11.1713010653       23.7086821063       16.4667919136
  H       -10.6560056068       25.1228224697       15.9339861431
  O       -16.7214692384       23.2793053284       13.4092456345
  H       -16.8503709689       22.3908125027       13.7666108862
  H       -17.5018500249       23.4466077562       12.8398914254
  O         8.5361923679       12.9867821293       11.7470582027
  H         8.3825205270       13.0118718787       12.7159397991
  H         9.4816696807       13.2034513007       11.5921177625
  O       -18.6313586135       23.9889458112       11.5044494457
  H       -19.2680184723       23.2574852123       11.2925276251
  H       -19.1209417737       24.8173699373       11.3541093462
  O         8.7661428766       11.2922474572       15.7840794492
  H         8.8233920813       11.3053173227       16.7457847494
  H         9.6322434451       10.8940149723       15.4479643147
  O         5.5133557448       12.8316906568       12.5116431459
  H         6.2043330394       13.0823422416       13.1516013475
  H         5.7482099488       13.2933206834       11.6851053719
  O       -20.1404144086       21.8405050489       10.8092606240
  H         3.0302138285       21.6713311286       11.1449083438
  H       -20.3003738954       22.0128734449        9.8436487968
  O        16.9940194825        5.7086582125       20.3732786726
  H        16.6688445716        5.6825854253       19.4604524505
  H        17.6775396227        6.3977593933       20.4012463059
  O        10.8724260263       10.3121692511       14.6354165541
  H        11.6597561711        9.7025306799       14.8938480284
  H        10.4030634427        9.8697298459       13.8876298620
  O         9.5062684797        9.5163251705       12.3985280531
  H         9.7979944672       10.0417332575       11.6084700539
  H        10.2607928220        8.0297514258       11.9151663539
  N        11.3643789061        4.6174465278       15.2530156026
  H        10.5616730916        4.0721496797       14.8949456481
  H        12.2484202705        4.0740264550       14.9703462975
  H        11.3045777411        4.7159396099       16.2596192988
  N       -10.3705512050       24.1532348783       12.9312843614
  H        -9.5034144544       23.6624669413       12.7304607273
  H       -11.0859108618       23.8386191408       12.2452735305
  H       -10.6923644959       23.9335307451       13.8846385880
  N        13.0461969712        8.8418533576       15.1238078896
  H        13.2072386154        8.3813270819       14.2120035326
  H        12.8891154544        8.0751796884       15.7723776399
  H        13.9139357786        9.3024382027       15.3860202398
  N         8.5178039115        0.6391419753       13.4877717372
  H         8.8020873085        1.6369791809       13.6965995016
  H         8.2402395752        0.6448908585       12.4720633580
  H         7.7510129028        0.2947985651       14.0579814940
  H         9.3785422845        0.0535187053       13.6498118211
  N        14.5020591528        1.0544293876       16.1148769899
  H        15.3235373961        0.8964032199       15.5342361371
  H        14.8229688125        1.3269284692       17.0390993351
  H       -10.1686096677       25.2573146365       12.9066199274
  H        14.0533460808        1.8781265508       15.6639106002
  N        10.9422817974        0.6474352107       10.7627898566
  H       -13.9887734742       25.3437886220       11.0286988482
  H        11.6907548815        0.1637388190       10.2580783746
  H        11.3969221640        1.0715084397       11.6095081890
  H        10.5621835621        1.4582194926       10.1964175230
  N        16.3056545412        3.9342848771       22.2047147425
  H        16.6320575516        4.6735854190       21.4945661783
  H        15.6163201563        3.3304722359       21.7484990127
  H        15.8644875919        4.3802347541       23.0132774451
  H        17.0960654665        3.3652250879       22.5177498727
  P        11.9132275236        6.7135758992       12.6278073482
  O        11.2214521963        6.8333686782       13.9859370306
  O        10.9086570655        7.3877548839       11.5262859478
  O        11.9703391249        5.2464270675       12.1397950242
  O        13.2408531919        7.4589177198       12.5532264318
  H        11.3229814876        5.6083809667       14.7298833559
  P        13.4048542220        2.3769560941       13.2351023176
  O        14.4487928731        1.2764368447       13.1497818740
  O        13.6961149254        3.3786416101       11.9920773674
  O        13.4785899607        3.1647950082       14.5424453305
  O        11.9580665217        1.8371141684       13.0143945359
  H        13.0611460001        4.2073449676       12.0444386720
     464
 i =        7, E =     -6303.0616897580
 Ca         1.7137927487        5.2068572457        6.4446599573
 Ca        -3.4750227026       11.6520062284        9.2547157019
 Ca        -4.1936926268        9.4543954896        6.4612783994
 Ca         0.8784968437        2.6858868047        9.1085685281
 Ca        -9.4358058036       12.7143445489        6.8305826019
 Ca        -3.9716603218        4.5182672861        8.6230540707
 Ca         7.4151000679        2.4609702458        6.8357009221
 Ca         1.2817558283        9.3020088929        8.4158446697
 Ca         4.2557332808        0.7338300776        8.0557726489
 Ca        -1.1154438570        7.4626461170        4.8140613961
 Ca        22.9236746345        1.0828701158        5.6651365480
 Ca        16.8316810643        7.3792856220        6.7798902493
  S         1.6491562814        2.1508070843        5.7400762659
  S        -4.4323977736        7.9885382151        9.2696702997
  S        -3.8843256847       12.4052879024        5.9743934810
  S         1.6869160556        6.3005988705        9.3692766819
  S        -0.6915349453        4.1964238798        3.9192942689
  S        -6.7741990373       10.4772635732        7.7800171781
  S        -2.4821705368       10.0956401552        3.3451399711
  S         4.2134812898        4.0802622000        7.8874074643
  S         1.6718892752        8.1756743811        5.4604895640
  S         6.8356761232        1.9365506859       10.3948493044
  S        -3.8549416247        6.5295251020        5.4876068024
  S        -9.5109820032       13.4395702046        9.9813647351
  O         2.5474236032        1.2072030811        6.4550682211
  O        -3.9295537120        6.7122962552        9.7765986186
  O        -4.6882297834       13.3862861035        6.7515686864
  O         0.9881750715        7.4057715355       10.0100651346
  O         0.9457168404        1.3526935835        4.6731313509
  O        -5.2674995122        7.8329832408        8.0463149588
  O        -3.0207167347       13.2096911380        5.0358601189
  O         2.5649094700        6.7732128722        8.2525258546
  O         2.3300398364        3.3222469046        5.1760666440
  O        -3.3716308524        8.9886811670        9.0099897176
  O        -4.7013447242       11.4270395696        5.2247665009
  O         0.7378610904        5.2867199919        8.7899481647
  O         0.5388730232        2.6269430216        6.6994935523
  O        -5.4043562570        8.5656572607       10.3897747389
  O        -2.9978909621       11.6062082089        6.9206409145
  O         2.5972608191        5.5802375536       10.4030013100
  O        -1.7548976332        3.3008898375        4.5681653362
  O        -7.5322003593        9.7017139998        8.8185640128
  O        -1.6137042836       11.3098639463        3.0725975738
  O         4.6582893920        4.7889476180        9.1197259305
  O         5.0636943757        2.9090986687        7.5678659646
  O        -0.6502257647        9.9155911869        9.6019031267
  O        -7.4133245440       11.7857171617        7.5227499001
  O        -2.3044375190        3.8067210601       10.1859213944
  O        -0.2083776219        5.2938326480        4.9322723192
  O        -5.3665127985       10.7031034386        8.2473510271
  O        -2.2262163921        9.5393471064        4.7880352733
  O         2.7877425611        3.6142045412        8.0917312981
  O         0.9827297199        8.3353368314        4.1590519592
  O         7.4664139986        2.7583629621        9.2456094334
  O        -3.1439518732        6.3654567022        4.1944555546
  O       -10.0481028082       12.1739670507        9.2325791895
  O         2.2134331795        9.4404383079        6.0117621858
  O         8.6633139303        1.4219338396        5.1899930796
  O        -4.1298793882        5.2149274819        6.1303588544
  O       -10.6557892734       12.7581518548        4.8550621752
  O         2.7567568019        7.1442582187        5.4202764724
  O         7.9411640492        0.9296172607       10.8440401490
  O        -5.0943171283        7.3525815430        5.3544334376
  O       -10.7599023677       14.3892454884       10.0305964466
  O         0.5987690206        7.6557818323        6.4561058266
  O         5.8303121007        0.9192436029        9.6935741433
  O        -2.8914478189        7.3151132857        6.4053078752
  O        -8.6098198037       14.0628744100        8.8786572805
  O         4.1650863189        5.0218357484        6.7149772213
  O        -1.2696707818       10.9729415715        9.0674950395
  O        -6.6595969495        9.6596854234        6.5174742328
  O        -1.1263718680        3.4025587978        9.7486228125
  O         5.6813481088        0.5764019564        5.9914929580
  O        -1.8236206486        5.2581432536        7.8189213691
  O        -0.1591773533       10.7876112269        6.7836001514
  O         7.8485089411        2.3724532437        4.4153130258
  O        21.4586537188        2.6073265209        7.1461138953
  O        -9.6173217094       11.7332095329        4.7285733543
  H        -0.6479078867       11.0868530056        7.6371077921
  H         7.1487901744        1.7856250865        4.0682950336
  H        21.4137300072        2.0428788342        8.0071374678
  H       -10.1057460363       10.9020557403        4.5363666320
  H        -0.8770993642       10.6072494229        6.1494605117
  H         3.4741163840        5.2575309754        9.9095205038
  H        -1.9544815838        3.3234546635        7.2930708713
  H        -6.2018419017        8.9519936975        9.9322803512
  H       -17.7903202328       25.2607236849        5.9098927475
  H        -1.0980381764        5.3732937448        8.4646395931
  H        -8.3939565580       14.9057853741        5.6657070113
  H        -2.0296860815        6.1307137191        7.4176437345
 Ca        -9.3843725004       17.9276352291        6.5427185501
 Ca       -16.8569971095       24.2579071744        9.8142636199
 Ca       -16.5968501299       21.6913079940        6.4468996577
 Ca       -11.8306779975       15.9115728255        8.8084775647
 Ca       -22.1916001394       24.5030072233        5.0459640203
 Ca       -16.1792734743       17.5745297201        8.3645225010
 Ca        -3.9646691383       15.4940873390        5.2393791844
 Ca       -11.0724245413       22.1082973986        8.9031166116
 Ca        -6.4685271477       14.1717296641        8.1665828719
 Ca       -13.1645915476       18.7166955697        6.7745104049
 Ca        11.4554528656       12.9217249227        5.9837370194
 Ca         4.3246588999       19.8985045199        6.9482203221
  S       -11.0937265660       15.6593591998        5.8048823446
  S       -17.2508156073       20.5302604843        9.7088698772
  S       -15.5822954619       24.4104413953        7.0425897276
  S        -9.4951618459       18.9824841227        9.4337737343
  S       -14.2989561726       17.1509812502        3.7305923233
  S       -19.7049813782       23.0193323217        7.4260512832
  S       -13.8357249776       22.2005347175        3.9008118219
  S        -6.5441705531       17.1602934503        7.2411620192
  S       -10.1158574362       20.7712759723        5.8759394916
  S        -4.1113036007       14.3901741579       10.2715538802
  S       -16.6061851233       18.7705544557        5.5131483117
  S       -22.7027710413       25.2519396570       10.1152229220
  O       -10.8008731405       14.6748749886        6.9192955411
  O       -16.1406702559       19.5637783562        9.7460755934
  O         7.9132921644        0.1454412476        7.7912815552
  O       -10.2445578502       20.1159439650        9.9679217895
  O       -12.1618587463       15.1579147074        4.9377882242
  O       -17.7694253661       20.6749190513        8.3014963605
  O       -14.1930110719       24.8103126944        6.6933915414
  O        -8.5251466595       19.3551332301        8.3814415915
  O        -9.8383284369       16.0526270641        5.1142834628
  O       -16.9478294030       21.8317813821       10.2983653027
  O       -16.3669738721       23.9814119274        5.8391874051
  O       -10.3570619721       17.8691531902        8.9654574080
  O       -11.5407774385       16.9105613205        6.5885127601
  O       -18.3940901451       19.8628432509       10.5622974114
  O       -15.5274459134       23.1943391608        7.9676341779
  O        -8.6836291592       18.3285043329       10.6395365768
  O       -14.8364722314       16.0131236723        4.4856148576
  O       -20.4628755140       21.9219887972        8.1479430678
  O       -13.6266633601       23.6874800209        3.8545744194
  O        -5.8553135380       18.2072816195        8.0691028498
  O        -5.5592434254       16.0935795181        6.9234140419
  O       -11.7596208463       22.6777898950       11.0114449357
  O       -20.6852682476       24.0083558239        6.9123539835
  O       -13.8207730606       17.3548967117        8.5418387781
  O       -13.3034314976       17.9795254244        4.4233830203
  O       -18.7847835655       23.7175904198        8.3592039157
  O       -14.5664007981       21.6959294186        5.1128409748
  O        -7.7250156831       16.5751375204        7.9196976480
  O       -10.7936202901       21.2285642518        4.6681812523
  O        -4.7403437535       15.5647715233        9.4601793155
  O       -16.0526171709       18.6854566874        4.1465947243
  O       -22.1931126584       23.9601415623        9.4547714591
  O        -9.7899838996       21.8545502282        6.8504213508
  O        -5.8172949197       14.7025978489        4.2915411714
  O         7.0762665464       17.4443799056        6.0687648195
  O       -20.2400923959       25.2177296550        4.2330094403
  O        -8.8387333190       20.0012765311        5.5675176878
  O        -2.8725752195       13.9084391702        9.4436890271
  O       -17.7729073779       19.7265696301        5.5218852945
  O         0.2258095395        0.3694505033        9.2886224427
  O       -11.0057072422       19.7407844243        6.6125457357
  O        -5.1334823014       13.2148641222        9.9834787712
  O       -15.5961165267       19.3778792302        6.5033295795
  O         2.5263442165        1.0212344809        9.6990264345
  O        -7.0497776221       17.8577762952        5.9870585822
  O       -12.8187489959       22.8923172143       10.1575727298
  O       -18.9604147811       22.3350868177        6.3087368369
  O       -14.3448518717       16.8140143159        7.2288666341
  O        -7.7135371189       14.2654479507        5.9519208929
  O       -13.3790390636       20.6905867414        8.1675806312
  O       -12.4204952231       22.9056933010        7.0934395322
  O        -5.7728832110       16.1321510364        3.8721575328
  O       -13.4172795594       14.5007638954        7.7337682277
  O       -20.2424979156       23.7612820687        3.9199041388
  H       -13.0803997241       23.6426871491        7.0841733991
  H        -6.4306061620       16.5719607684        4.4470887576
  H         9.9072431594       14.1198788266        8.3132893955
  H       -19.6640525783       23.3760497705        4.6076954723
  H       -11.9044777353       23.0164079154        6.2536300069
  H        -7.9223378352       18.9092031092       10.8521866657
  H       -13.8607774795       15.3701832616        7.3855662827
  H       -19.1396556793       20.5413516139       10.6960850546
  H        -6.9624966082       14.3861109227        5.2193333398
  H       -14.0136086024       20.8619254516        8.8844207583
  H         4.9999993732        0.3043884051        5.2435621878
  H       -13.3126064036       21.5404478032        7.6514599164
 Ca        14.1784791172        5.1940712728        5.7972252102
 Ca         7.7451466952       11.5321125206        9.9689673000
 Ca         7.8388985637        8.9029192798        7.2022211843
 Ca        14.0088029253        2.7634863830        9.6599209960
 Ca         1.9496970664       11.9018055677        6.1599749744
 Ca         8.7740650569        4.8397336967        9.2691644941
 Ca        19.7845278182        2.9707272241        5.0927557172
 Ca        13.8822136259        9.8859353019        8.9928488449
 Ca        17.6652106175        1.1015442361        8.0459932975
 Ca        11.0998162323        7.2401101144        7.5657271111
 Ca        10.7565645579        0.6272323940        4.7871683957
 Ca         4.7345351311        7.2562911954        7.1838080938
  S        13.0388332326        2.6502102947        6.5737471191
  S         7.0856259013        7.8638418541        9.9784917517
  S         8.0257381575       11.9089864092        6.3205691449
  S        14.7588692718        6.3531142414        9.2975503197
  S        10.8888506648        4.1706168100        3.6923109481
  S         4.7508744348       10.2733778483        7.8280160872
  S         9.8561636714        9.7905183564        4.4303781149
  S        17.1511458469        4.1701915836        7.3622686488
  S        13.9792097629        8.1837339454        5.6801537442
  S        20.0183559361        1.3464180115       10.1092248252
  S         7.8660539477        5.9820476003        6.3092332200
  S         2.1230911533       12.2679358397        9.9780004915
  O        13.5601889147        1.5974872253        7.4908618791
  O         8.0004591709        6.7667490857       10.3727949700
  O         6.7721043950       12.6617638940        6.5937947923
  O        13.9597241590        7.5300660112        9.5681028319
  O        11.6857909302        2.3090000038        6.0643645407
  O         6.3814214445        7.4706729119        8.6944107504
  O         9.0279551737       12.9311815227        5.8249406417
  O        15.0468530093        6.1812085295        7.8275998834
  O        14.0024665682        2.8552156437        5.4299531593
  O         7.9310929194        9.0765179126        9.5569989696
  O         7.8367718141       10.8316525098        5.2873659772
  O        14.2719770789        5.1191746532        9.8930446055
  O        12.9697498959        3.9480725507        7.3343849396
  O         6.1248913436        8.2008533516       11.0292212111
  O         8.5248901324       11.2182849604        7.5569858725
  O        16.1982996807        6.6839298167        9.9232748869
  O        11.1083646374        2.7491869591        3.3431413748
  O         3.7812293000        9.2933696049        8.4165055895
  O        10.8028512750       10.8799277810        4.7122345872
  O        17.7409168146        5.2703727694        8.2204088773
  O        18.2842469244        3.2740144111        6.9732518900
  O        11.7784741148        8.9258029382        8.8089575574
  O         4.0554290558       11.3469749996        7.0550011228
  O        10.3945806443        2.9240559253        9.5702577606
  O        12.0114034665        4.8481690001        4.3766413251
  O         5.5763844199       10.9492926888        8.8636707623
  O         9.8538482369        8.6918883765        5.4189783824
  O        16.1403424654        3.3827834397        8.0940067851
  O        13.3868076478        9.1318693858        4.7372500363
  O        19.2305752810        2.4813576617        9.3719481472
  O         8.5962319992        5.4867210531        5.1520785487
  O         1.7336570393       11.5146507082        8.6493865184
  O        14.6025663100        8.8472606789        6.8667840377
  O        17.9290318428        2.2914831684        4.1097259769
  O         7.1979038240        4.9073278503        7.1147000548
  O         1.0501439537       12.9225635026        4.3315094042
  O        15.0747332773        7.3014933049        5.0838474464
  O        21.2995794793        1.0772721805        9.2366971217
  O         6.8429029783        7.0444036219        5.9514982406
  O         0.8787931216       13.0825594909       10.3586507252
  O        12.9077457134        7.1857067036        6.1198703702
  O        19.1589140968        0.0835724849        9.7489798864
  O         8.8342696470        6.6952214752        7.2932682164
  O         3.0804583952       13.4374745266        9.4432209841
  O        16.5739569239        4.8332744421        6.1231512437
  O        10.7716804614        9.6543868146        8.0060222251
  O         5.6086874618        9.4835581453        6.8682477056
  O        11.7058726243        3.4446838031        9.7785068732
  O        16.2284127658        1.3455835912        5.8918694653
  O        10.9504830628        5.7148703675        9.1801354754
  O        12.6206396692       11.1676824694        7.0986650011
  O        17.9442691485        3.7675368332        3.8987761141
  O         9.5503602226        3.4235222827        7.3303852376
  O         1.9467341479       11.9657715606        3.6668095329
  H        11.4223428203       10.3200249737        7.5311785130
  H        17.3456814544        4.0987071310        4.6021894149
  H        10.0467466171        3.0505377804        8.1738792772
  H         2.7397813762       12.5246051252        3.5382073943
  H        12.8381601090       10.6384852519        6.3086510925
  H        16.8297263685        6.0241168078        9.5316608166
  H        10.2204936130        3.3154057039        6.6313233224
  H         6.3833955397        9.7181335056       11.6736264106
  H        16.9002339973        1.6508699410        5.1700762283
  H        11.5181225893        4.4954046017        9.5335497607
  H         3.1084073954       14.4246477255        5.5887375211
  H        11.0327958496        6.2394926147       10.0064452562
 Ca         0.8265387645       18.0228122031        6.7423029568
 Ca        -3.1767804971       24.1148282446        8.8824889656
 Ca        -3.6226925937       22.1544478691        6.0547906416
 Ca         1.3228974232       15.1134561482        9.4945911216
 Ca        -9.4917980358       24.9619521770        6.6439356489
 Ca        -3.5805191871       17.4149995771        8.5304231787
 Ca         7.4642771098       14.9673022638        5.8031560757
 Ca         1.0564896506       22.2956157580        8.0765921333
 Ca         4.8366874878       13.3954704772        7.9714064557
 Ca        -1.0895775618       19.9608930810        3.9637247135
 Ca        -1.0571825577       13.4197037665        3.8811875411
 Ca        -6.7134826653       20.1395458138        6.7845403261
  S         0.6205827449       15.0492573747        6.5260781740
  S        -4.1796617458       20.7029470055        9.3734321999
  S        -3.9757563131       25.3019096115        5.5100330452
  S         1.6506658443       19.4923398775        9.4712440309
  S        -0.7914507963       16.6894970592        3.5147837480
  S        -6.4146054854       23.0326380917        7.3179023055
  S        -1.5089815292       23.5045084242        3.3754148347
  S         4.1130650304       16.9712322935        7.8070757749
  S         1.5160848560       20.9138258381        4.9955607298
  S         7.5801095088       14.6128685227        9.4888324887
  S        -3.6664087118       19.1547681816        5.1126812867
  S        -9.3836025787       25.0443470908        9.9072788098
  O         1.4450181708       14.0567273556        7.2728862390
  O        -3.5238673334       19.4713790434        9.8254382521
  O        19.1435218892        0.7356912075        6.1802882602
  O         1.2185953509       20.7051888574       10.1683667401
  O        -0.5491497422       14.4201343755        5.8801310973
  O        -4.4202254759       20.6864238185        7.8934848833
  O        20.8984993392        0.8882742639        4.5332591998
  O         1.9905567320       19.8466527428        8.0376368138
  O         1.4415690612       15.8717782785        5.6051667952
  O        -3.5291242682       21.9341331006        9.8374350164
  O        -4.4369989894       24.0808556081        4.8368343213
  O         0.7407751521       18.3440488550        9.4595526954
  O         0.0734820409       16.0009053603        7.6055466896
  O        -5.6334175992       20.6662774358       10.0356438327
  O        -2.8973108840       24.9296951812        6.5237784901
  O         2.9930230502       19.0507079061       10.1794496486
  O        -1.9787548492       15.7009188077        3.7042880470
  O        -7.0121977679       22.0939241183        8.3305096705
  O        -0.5352694003       24.3627611916        4.1726322737
  O         5.2189354671       17.9048009338        8.2237605748
  O         4.6037186021       15.7073012687        7.2294584290
  O        -1.1044879801       21.7804233523        8.0429631367
  O        -7.2502141300       24.2460111098        7.1758395683
  O        -1.7180618845       16.7990846380       10.0585877242
  O        -0.6786578500       17.6955092095        4.6960132191
  O        -5.0217322765       23.4286549633        7.7049630774
  O        -1.8765306252       22.2128686094        4.1400341707
  O         3.2293331706       16.6952620356        9.0084616930
  O         1.0580802972       21.0478625846        3.5880733400
  O         7.2079290770       15.3451303932        8.1295245038
  O        -3.2363408131       18.9186789252        3.7111001555
  O        -9.9294020183       24.1020410673        8.7559801549
  O         1.5006327472       22.2435463126        5.7013683143
  O         5.7873068792       14.2483833270        4.5721492638
  O        -3.7582170740       17.8975681874        5.8995200841
  O       -11.2845023258       25.2092321674        5.1795964590
  O         2.8402433493       20.2719721954        5.1339113413
  O         8.6844652855       13.6205939665        9.1058274223
  O        -4.9054681780       19.9765691914        5.1873785401
  O        13.6018816428        0.5308998209       10.3376482884
  O         0.4605865641       20.0584666658        5.6910078669
  O         6.3518968549       13.6962984577        9.7631900436
  O        -2.5536742882       20.0224566531        5.7451798460
  O        15.6639835355        0.7403438956        9.0938640050
  O         3.3023878874       17.7361354457        6.7831109493
  O        -1.8285620946       22.8642525348        7.4034129372
  O        -6.2934221746       22.2764102953        6.0286487426
  O        -0.7623123722       15.9982373012       10.3795414674
  O         3.6514731266       13.6189349878        5.6608924032
  O        -1.4460680841       18.6447028243        7.7288557586
  O         0.0459033227       24.5679367385        6.9227050132
  O         5.6434143061       15.7059103262        4.3515519354
  O        -2.6731657005       15.5693404771        7.3734504977
  O       -10.9026826511       23.7856044932        5.0999758684
  H         0.1309671103       25.0136274618        7.8287828701
  H         4.9997180055       15.9650771646        5.0443948953
  H        -2.7747282356       14.8385923358        8.0662829439
  H       -10.9489991213       23.5496704038        4.1520330409
  H        -0.7700711746       23.9146774344        7.0118099065
  H         3.2168980109       18.1214442978        9.8257094934
  H        -1.6985563535       15.6755191789        7.3137223715
  H        -6.1823474428       21.3357661290        9.5145447751
  H         4.5485179023       13.8341917122        5.1221737880
  H        -1.2338318482       19.0715474648        8.5797462136
  H        15.4971611855        1.9971182028        5.7751757640
  H        -1.8235500843       19.3631932891        7.1565557999
  O        12.4604053592       11.7072508259       12.9033632173
  H        11.8552963288       11.3105105724       13.5796710951
  H        12.6960403188       10.9476278550       12.3145074024
  O        11.1978777589       13.1385750390       11.1700185135
  H        11.6703184019       12.6355878718       11.9237326901
  H       -12.1095315742       13.5704023566       10.7085542719
  O        12.9513655739        9.5927138084       11.1830532864
  H        13.1543363827        8.7242871295       11.7233451185
  H        12.1005401788        9.3527157724       10.7546689800
  O         9.4333808710        4.7919293987       11.6260705936
  H        10.4477336804        4.8860427180       11.7509235515
  H         9.0974184844        5.6735303183       11.8720795169
  O         7.6848727458       13.2093257836       14.3445481770
  H         8.0986678723       12.5049315401       14.9305660072
  H         7.8763305307       14.0526211957       14.7769151336
  O        10.0395616118       11.0056105061       10.1852027377
  H        10.6200287927       11.8031578425       10.3845747638
  H        10.3528459001       10.5359523308        9.3675374247
  O         9.7051158899        3.0256358180       13.6601818350
  H        10.6034965697        2.6606560619       13.3715440339
  H         9.4416592797        3.6454264451       12.9315282115
  O       -14.9976916865       23.7263176820       11.1862864799
  H       -15.2691461199       23.3491700740       12.0457069046
  H       -14.1255541033       23.2866945116       10.8847022811
  O       -13.2038961066       24.9055459182       13.8421204601
  H        11.4427623427        0.4195332998       13.5993954201
  H       -12.7341702110       24.6234263000       14.6529641133
  O         6.8509688997       10.5548907308       11.9345771266
  H         8.5537728272        9.7345646026       12.4769948716
  H         6.1812838854       11.2104528775       12.2580956039
  O       -11.2571443743       24.3020109867       15.7147620740
  H       -11.1684927017       23.7055526984       16.4691818215
  H       -10.6553179328       25.1211352541       15.9342212372
  O       -16.7224672939       23.2782312557       13.4128684430
  H       -16.8491387167       22.3850812498       13.7645418090
  H       -17.5040076045       23.4474083413       12.8449518037
  O         8.5359553127       12.9926386501       11.7471136658
  H         8.3809349407       13.0110699570       12.7179673042
  H         9.4861243662       13.2029673108       11.5926870422
  O       -18.6317991448       23.9914636078       11.5080352000
  H       -19.2675052462       23.2589365617       11.2921591817
  H       -19.1201095037       24.8209349363       11.3509246253
  O         8.7626194336       11.2902627305       15.7861814960
  H         8.8264545873       11.3049357522       16.7486016437
  H         9.6315991903       10.8967697445       15.4487745128
  O         5.5046241906       12.8383173150       12.5168842935
  H         6.2064895101       13.0799482995       13.1550214555
  H         5.7449452403       13.2919802207       11.6848462557
  O       -20.1399620028       21.8396796796       10.8128756057
  H         3.0284353351       21.6725187907       11.1455018321
  H       -20.2979147458       22.0128428378        9.8455186294
  O        16.9904287953        5.7143936004       20.3729029693
  H        16.6713229242        5.6897819438       19.4571316509
  H        17.6823624619        6.3951961639       20.3962145200
  O        10.8712111271       10.3078268052       14.6386491926
  H        11.6644143855        9.7063386561       14.8940262060
  H        10.4035648018        9.8703625696       13.8848088245
  O         9.5051708877        9.5185708086       12.4037107326
  H         9.7951269551       10.0397140005       11.6097938636
  H        10.2598213472        8.0265485623       11.9172914982
  N        11.3649762860        4.6174576315       15.2528782090
  H        10.5616067260        4.0718544927       14.8952797021
  H        12.2494228887        4.0750828605       14.9715005187
  H        11.3028115467        4.7170425722       16.2610396918
  N       -10.3705794014       24.1548296578       12.9331494077
  H        -9.5022995960       23.6645219082       12.7300451561
  H       -11.0865367974       23.8429211544       12.2474610893
  H       -10.6891885320       23.9329428492       13.8874160337
  N        13.0461808368        8.8436188597       15.1240506489
  H        13.2078598132        8.3824013782       14.2117653608
  H        12.8897365896        8.0756199961       15.7726542029
  H        13.9156426761        9.3020445378       15.3884142428
  N         8.5175732543        0.6407974696       13.4893455681
  H         8.8031078559        1.6381316125       13.7013751398
  H         8.2383231320        0.6447689060       12.4739235243
  H         7.7510607270        0.2948492363       14.0597717170
  H         9.3779067304        0.0530314605       13.6530470018
  N        14.5035035777        1.0526443557       16.1173276043
  H        15.3253632946        0.8959723541       15.5348607575
  H        14.8290961107        1.3280041137       17.0405603941
  H       -10.1668756855       25.2600614958       12.9092145284
  H        14.0530763454        1.8785935517       15.6685971260
  N        10.9421344758        0.6468267470       10.7643495749
  H       -13.9887121401       25.3427690837       11.0305033055
  H        11.6913253138        0.1626052723       10.2608485056
  H        11.3963121036        1.0726095792       11.6116874007
  H        10.5654941840        1.4610451232       10.1963767320
  N        16.3045904480        3.9324976662       22.2051677609
  H        16.6308076231        4.6715454509       21.4922089604
  H        15.6145063686        3.3264336639       21.7519046206
  H        15.8647185782        4.3812999265       23.0127527804
  H        17.0971206965        3.3660123038       22.5167657971
  P        11.9139879346        6.7138181022       12.6305886422
  O        11.2159218147        6.8368560076       13.9858937437
  O        10.9109449010        7.3864044246       11.5274760137
  O        11.9707244730        5.2475262080       12.1413933845
  O        13.2410897344        7.4586387049       12.5573837251
  H        11.3236814796        5.6106059026       14.7319685197
  P        13.4040875953        2.3764151682       13.2353861944
  O        14.4490940671        1.2764477892       13.1487663823
  O        13.6941312202        3.3727798700       11.9894608806
  O        13.4792679515        3.1662146140       14.5410091314
  O        11.9565922708        1.8403673371       13.0117746847
  H        13.0620544128        4.2036426508       12.0456483997
