 DBCSR| CPU Multiplication driver                                           XSMM (U)
 DBCSR| Multrec recursion limit                                              512 (U)
 DBCSR| Multiplication stack size                                           1000 (D)
 DBCSR| Maximum elements for images                                    UNLIMITED (U)
 DBCSR| Multiplicative factor virtual images                                   1 (U)
 DBCSR| Use multiplication densification                                       T (D)
 DBCSR| Multiplication size stacks                                             3 (U)
 DBCSR| Use memory pool for CPU allocation                                     F (U)
 DBCSR| Number of 3D layers                                               SINGLE (U)
 DBCSR| Use MPI memory allocation                                              F (U)
 DBCSR| Use RMA algorithm                                                      F (U)
 DBCSR| Use Communication thread                                               T (U)
 DBCSR| Communication thread load                                             87 (D)
 DBCSR| MPI: My process id                                                     0
 DBCSR| MPI: Number of processes                                             192
 DBCSR| OMP: Current number of threads                                         1
 DBCSR| OMP: Max number of threads                                             1
 DBCSR| Split modifier for TAS multiplication algorithm                  1.0E+00 (U)


  **** **** ******  **  PROGRAM STARTED AT               2026-08-23 23:00:34.105
 ***** ** ***  *** **   PROGRAM STARTED ON                                 n0526
 **    ****   ******    PROGRAM STARTED BY                              tangsiqi
 ***** **    ** ** **   PROGRAM PROCESS ID                               1324688
  **** **  *******  **  PROGRAM STARTED IN /scratch/tangsiqi/liyi_folder/AI_phos
                                           phogypsum/2.CP2K_GeoOpt/2.2.3CSO+NH4

 CP2K| version string:                                       CP2K version 2026.2
 CP2K| source code revision number:                                  git:c92cc08
 CP2K| cp2kflags: omp libint fftw3 libxc elpa parallel scalapack mpi_f08 cosma l
 CP2K|            ibxs libxsmm plumed2 spglib libdftd4 dftd4_v4_2 s_dftd3 mctc-l
 CP2K|            lib tblite libvori libbqb mimic hdf5 trexio libsmeagol greenx
 CP2K| is freely available from                            https://www.cp2k.org/
 CP2K| Program compiled at                                   2026-08-15 22:43:53
 CP2K| Program compiled on                                                 n0529
 CP2K| Program compiled for                                               x86_64
 CP2K| Data directory path          /scratch/tangsiqi/CP2K_pkg/cp2k-v202602/data
 CP2K| Input file name                                               geo_opt.inp

 GLOBAL| Force Environment number                                              1
 GLOBAL| Basis set file name                                    BASIS_MOLOPT_UZH
 GLOBAL| Potential file name                                       POTENTIAL_UZH
 GLOBAL| MM Potential file name                                     MM_POTENTIAL
 GLOBAL| Coordinate file name                                   2.2.3CSO+NH4.xyz
 GLOBAL| Method name                                                        CP2K
 GLOBAL| Project name                                     gypsum_slab_nh4_geoopt
 GLOBAL| Run type                                                        GEO_OPT
 GLOBAL| FFT library                                                       FFTW3
 GLOBAL| Diagonalization library                                            ELPA
 GLOBAL| Cholesky decomposition library                                ScaLAPACK
 GLOBAL| DGEMM library                                                      BLAS
 GLOBAL| Minimum number of eigenvectors for ELPA usage                        64
 GLOBAL| Orthonormality check for eigenvectors                          DISABLED
 GLOBAL| Matrix multiplication library                                     COSMA
 GLOBAL| All-to-all communication in single precision                          F
 GLOBAL| FFTs using library dependent lengths                                  T
 GLOBAL| Grid backend                                                       AUTO
 GLOBAL| Global print level                                                  LOW
 GLOBAL| MPI I/O enabled                                                       T
 GLOBAL| Total number of message passing processes                           192
 GLOBAL| Number of distributed systems (nodes)                                 1
 GLOBAL| Number of threads for this process                                    1
 GLOBAL| This output is from process                                           0
 GLOBAL| OpenMP stack size per thread (OMP_STACKSIZE)                       128M
 GLOBAL| CPU model name                          AMD EPYC 9A14 96-Core Processor
 GLOBAL| CPUID                                                              1003

 MEMORY| system memory details [Kb]
 MEMORY|                        rank 0           min           max       average
 MEMORY| MemTotal            791724184     791724184     791724184     791724184
 MEMORY| MemFree             751155068     751144328     751156864     751155656
 MEMORY| Buffers                629200        629200        629200        629200
 MEMORY| Cached                1036460       1036460       1036460       1036460
 MEMORY| Slab                  2291764       2291716       2291768       2291765
 MEMORY| SReclaimable           879168        879168        879168        879168
 MEMORY| MemLikelyFree       753699896     753689156     753701692     753700484


 GENERATE|  Preliminary Number of Bonds generated:                             0
 GENERATE|  Achieved consistency in connectivity generation.

 *******************************************************************************
 *******************************************************************************
 **                                                                           **
 **     #####                         ##              ##                      **
 **    ##   ##            ##          ##              ##                      **
 **   ##     ##                       ##            ######                    **
 **   ##     ##  ##   ##  ##   #####  ##  ##   ####   ##    #####    #####    **
 **   ##     ##  ##   ##  ##  ##      ## ##   ##      ##   ##   ##  ##   ##   **
 **   ##  ## ##  ##   ##  ##  ##      ####     ###    ##   ######   ######    **
 **    ##  ###   ##   ##  ##  ##      ## ##      ##   ##   ##       ##        **
 **     #######   #####   ##   #####  ##  ##  ####    ##    #####   ##        **
 **           ##                                                    ##        **
 **                                                                           **
 **                                                ... make the atoms dance   **
 **                                                                           **
 **            Copyright (C) by CP2K developers group (2000-2026)             **
 **                      J. Chem. Phys. 152, 194103 (2020)                    **
 **                                                                           **
 *******************************************************************************


 TOTAL NUMBERS AND MAXIMUM NUMBERS

  Total number of            - Atomic kinds:                                   6
                             - Atoms:                                        200
                             - Shell sets:                                   200
                             - Shells:                                      1083
                             - Primitive Cartesian functions:                998
                             - Cartesian basis functions:                   2883
                             - Spherical basis functions:                   2683

  Maximum angular momentum of- Orbital basis functions:                        2
                             - Local part of the GTH pseudopotential:          2
                             - Non-local part of the GTH pseudopotential:      3


 SCF PARAMETERS         Density guess:                                    ATOMIC
                        --------------------------------------------------------
                        max_scf:                                             200
                        max_scf_history:                                       0
                        max_diis:                                              4
                        --------------------------------------------------------
                        eps_scf:                                        1.50E-06
                        eps_scf_history:                                0.00E+00
                        eps_diis:                                       0.00E+00
                        eps_eigval:                                     1.00E-05
                        --------------------------------------------------------
                        level_shift [a.u.]:                             0.000000
                        --------------------------------------------------------
                        Outer loop SCF in use 
                        No variables optimised in outer loop
                        eps_scf                                         1.50E-06
                        max_scf                                               30
                        No outer loop optimization
                        step_size                                       5.00E-01

 BFGS| Use rational function optimization for step estimation:                NO
 BFGS| Use model Hessian for initial guess:                                  YES
 BFGS| Restart Hessian:                                                       NO
 BFGS| Trust radius:                                                       0.378

 *******************************************************************************
 ***                     STARTING GEOMETRY OPTIMIZATION                      ***
 ***                                   BFGS                                  ***
 *******************************************************************************

 Extrapolation method: initial_guess

 Number of electrons:                                                        920
 Number of occupied orbitals:                                                460
 Number of molecular orbitals:                                               460

 Number of orbital functions:                                               2683
 Number of independent orbital functions:                                   2683


 SCF WAVEFUNCTION OPTIMIZATION

  ----------------------------------- OT ---------------------------------------
  Minimizer      : CG                  : conjugate gradient
  Preconditioner : FULL_ALL            : diagonalization, state selective
  Precond_solver : DEFAULT
  Line search    : 2PNT                : 2 energies, one gradient
  stepsize       :    0.15000000                  energy_gap     :    0.00100000
  eps_taylor     :   0.10000E-15                  max_taylor     :             4
  ----------------------------------- OT ---------------------------------------

  Step     Update method      Time    Convergence         Total energy    Change
  ------------------------------------------------------------------------------
     1 OT CG       0.15E+00    6.9     0.11573728     -2146.5572917176 -2.15E+03
     - OT LS       0.65E-01    0.8                    -1747.1096382365
     2 OT CG       0.65E-01    1.2     0.38849254     -1153.0896210899  9.93E+02
     - OT LS       0.34E-01    0.5                    -1808.4177449537
     3 OT CG       0.34E-01    1.2     0.37906366     -1368.3140971675 -2.15E+02
     - OT LS       0.26E-01    0.5                    -1949.1477250102
     4 OT CG       0.26E-01    1.0     0.16213782     -2013.4759945119 -6.45E+02
     - OT LS       0.16E-01    0.5                    -2156.1256884808
     5 OT CG       0.16E-01    1.0     0.02445234     -2221.9419476017 -2.08E+02
     - OT LS       0.63E-01    0.5                    -2230.7158491487
     6 OT CG       0.63E-01    1.0     0.01267846     -2247.3999809917 -2.55E+01
     - OT LS       0.99E-01    0.5                    -2256.7229740635
     7 OT CG       0.99E-01    0.9     0.02218783     -2258.6220971763 -1.12E+01
     - OT LS       0.38E-01    0.5                    -2237.8857309132
     8 OT CG       0.38E-01    0.9     0.00956644     -2273.7321795898 -1.51E+01
     - OT LS       0.15E+00    0.5                    -2278.2034603545
     9 OT CG       0.15E+00    0.9     0.00804094     -2286.9483154951 -1.32E+01
     - OT LS       0.11E+00    0.5                    -2290.9547052978
    10 OT CG       0.11E+00    0.9     0.01386528     -2291.4740763190 -4.53E+00
     - OT LS       0.26E-01    0.5                    -2263.6489225562
    11 OT CG       0.26E-01    1.0     0.00564252     -2294.4895616777 -3.02E+00
     - OT LS       0.10E+00    0.5                    -2295.4548854949
    12 OT CG       0.10E+00    0.9     0.00523371     -2297.9727880820 -3.48E+00
     - OT LS       0.12E+00    0.5                    -2300.0482039265
    13 OT CG       0.12E+00    0.9     0.00912784     -2300.1044919894 -2.13E+00
     - OT LS       0.31E-01    0.5                    -2289.8890733166
    14 OT CG       0.31E-01    0.9     0.00483030     -2301.7260121394 -1.62E+00
     - OT LS       0.12E+00    0.5                    -2302.5868918947
    15 OT CG       0.12E+00    0.9     0.00527730     -2304.6427037054 -2.92E+00
     - OT LS       0.14E+00    0.5                    -2307.6413794724
    16 OT CG       0.14E+00    0.9     0.00807773     -2307.7214222465 -3.08E+00
     - OT LS       0.37E-01    0.5                    -2298.1137016335
    17 OT CG       0.37E-01    0.9     0.00400266     -2309.3291747579 -1.61E+00
     - OT LS       0.15E+00    0.5                    -2310.0014075855
    18 OT CG       0.15E+00    0.9     0.00595351     -2310.9496807631 -1.62E+00
     - OT LS       0.45E+00    0.5                    -2316.8669910837
    19 OT CG       0.45E+00    0.9     0.01665436     -2315.5221551663 -4.57E+00
     - OT LS       0.45E-02    0.5                    -2053.3244083112
    20 OT CG       0.45E-02    0.9     0.01760884     -2314.7380926173  7.84E-01
     - OT LS       0.18E-01    0.5                    -2316.2975462609
    21 OT CG       0.18E-01    0.9     0.00847474     -2319.6064490109 -4.87E+00
     - OT LS       0.41E-01    0.5                    -2320.8614652562
    22 OT CG       0.41E-01    0.9     0.00319152     -2321.4863083999 -1.88E+00
     - OT LS       0.16E+00    0.5                    -2321.9991907776
    23 OT CG       0.16E+00    0.9     0.00243809     -2323.2611292863 -1.77E+00
     - OT LS       0.33E+00    0.5                    -2324.1698439115
    24 OT CG       0.33E+00    0.9     0.00514423     -2324.4936478190 -1.23E+00
     - OT LS       0.88E-01    0.5                    -2314.7721276059
    25 OT CG       0.88E-01    0.9     0.00287807     -2326.3757097094 -1.88E+00
     - OT LS       0.86E-01    0.5                    -2326.8363722711
    26 OT CG       0.86E-01    0.9     0.00209479     -2326.8363431028 -4.61E-01
     - OT LS       0.34E+00    0.5                    -2327.2506438261
    27 OT CG       0.34E+00    0.9     0.00383950     -2327.7739273033 -9.38E-01
     - OT LS       0.15E+00    0.5                    -2326.9800959260
    28 OT CG       0.15E+00    0.9     0.00419908     -2329.1739840550 -1.40E+00
     - OT LS       0.14E+00    0.5                    -2330.6712872848
    29 OT CG       0.14E+00    0.9     0.00366649     -2330.6891252822 -1.52E+00
     - OT LS       0.12E+00    0.5                    -2331.6822174337
    30 OT CG       0.12E+00    0.9     0.00335941     -2331.7012932869 -1.01E+00
     - OT LS       0.14E+00    0.5                    -2332.6701645151
    31 OT CG       0.14E+00    0.9     0.00351846     -2332.6926407695 -9.91E-01
     - OT LS       0.13E+00    0.5                    -2333.6844381780
    32 OT CG       0.13E+00    0.9     0.00290862     -2333.6902950640 -9.98E-01
     - OT LS       0.12E+00    0.5                    -2334.2905899532
    33 OT CG       0.12E+00    0.9     0.00266749     -2334.3020281060 -6.12E-01
     - OT LS       0.15E+00    0.5                    -2334.9201584259
    34 OT CG       0.15E+00    0.9     0.00291977     -2334.9466135735 -6.45E-01
     - OT LS       0.16E+00    0.5                    -2335.7853277310
    35 OT CG       0.16E+00    0.9     0.00304860     -2335.7929043184 -8.46E-01
     - OT LS       0.14E+00    0.5                    -2336.5515403485
    36 OT CG       0.14E+00    0.9     0.00270044     -2336.5767946558 -7.84E-01
     - OT LS       0.14E+00    0.5                    -2337.2258597627
    37 OT CG       0.14E+00    0.9     0.00271875     -2337.2272158676 -6.50E-01
     - OT LS       0.14E+00    0.5                    -2337.8749828539
    38 OT CG       0.14E+00    0.9     0.00277581     -2337.8751335547 -6.48E-01
     - OT LS       0.13E+00    0.5                    -2338.5058980189
    39 OT CG       0.13E+00    0.9     0.00252104     -2338.5084417821 -6.33E-01
     - OT LS       0.13E+00    0.5                    -2339.0213839372
    40 OT CG       0.13E+00    0.8     0.00230547     -2339.0216308258 -5.13E-01
     - OT LS       0.17E+00    0.5                    -2339.5438668139
    41 OT CG       0.17E+00    0.9     0.00255404     -2339.5676980411 -5.46E-01
     - OT LS       0.14E+00    0.5                    -2340.0864096939
    42 OT CG       0.14E+00    0.9     0.00250832     -2340.1139472200 -5.46E-01
     - OT LS       0.14E+00    0.5                    -2340.6390075014
    43 OT CG       0.14E+00    0.9     0.00229021     -2340.6390070952 -5.25E-01
     - OT LS       0.14E+00    0.5                    -2341.0861573326
    44 OT CG       0.14E+00    0.9     0.00220388     -2341.0863417857 -4.47E-01
     - OT LS       0.15E+00    0.5                    -2341.5265835939
    45 OT CG       0.15E+00    0.9     0.00221867     -2341.5281201949 -4.42E-01
     - OT LS       0.13E+00    0.5                    -2341.9294458481
    46 OT CG       0.13E+00    0.9     0.00206305     -2341.9336489410 -4.06E-01
     - OT LS       0.14E+00    0.5                    -2342.3102455227
    47 OT CG       0.14E+00    0.9     0.00200492     -2342.3125221290 -3.79E-01
     - OT LS       0.14E+00    0.5                    -2342.6674347155
    48 OT CG       0.14E+00    0.9     0.00197754     -2342.6674570484 -3.55E-01
     - OT LS       0.14E+00    0.5                    -2343.0154604671
    49 OT CG       0.14E+00    0.9     0.00192629     -2343.0154710663 -3.48E-01
     - OT LS       0.14E+00    0.5                    -2343.3303111199
    50 OT CG       0.14E+00    0.9     0.00182744     -2343.3309535415 -3.15E-01
     - OT LS       0.14E+00    0.5                    -2343.6254235497
    51 OT CG       0.14E+00    0.9     0.00179107     -2343.6258658899 -2.95E-01
     - OT LS       0.14E+00    0.5                    -2343.9078414703
    52 OT CG       0.14E+00    0.9     0.00174563     -2343.9078478706 -2.82E-01
     - OT LS       0.14E+00    0.5                    -2344.1733065142
    53 OT CG       0.14E+00    0.9     0.00169184     -2344.1733404963 -2.65E-01
     - OT LS       0.14E+00    0.5                    -2344.4257140460
    54 OT CG       0.14E+00    0.9     0.00164676     -2344.4257496531 -2.52E-01
     - OT LS       0.14E+00    0.5                    -2344.6661671117
    55 OT CG       0.14E+00    0.9     0.00160480     -2344.6661786508 -2.40E-01
     - OT LS       0.14E+00    0.5                    -2344.8935493713
    56 OT CG       0.14E+00    0.9     0.00157808     -2344.8935511615 -2.27E-01
     - OT LS       0.14E+00    0.5                    -2345.1074909917
    57 OT CG       0.14E+00    0.9     0.00152441     -2345.1076493390 -2.14E-01
     - OT LS       0.15E+00    0.5                    -2345.3187140392
    58 OT CG       0.15E+00    0.9     0.00150319     -2345.3193773290 -2.12E-01
     - OT LS       0.14E+00    0.5                    -2345.5211603962
    59 OT CG       0.14E+00    0.9     0.00147681     -2345.5212380922 -2.02E-01
     - OT LS       0.14E+00    0.5                    -2345.7088012944
    60 OT CG       0.14E+00    0.9     0.00143077     -2345.7090479874 -1.88E-01
     - OT LS       0.15E+00    0.5                    -2345.8923253035
    61 OT CG       0.15E+00    0.9     0.00139029     -2345.8926232967 -1.84E-01
     - OT LS       0.15E+00    0.5                    -2346.0686252177
    62 OT CG       0.15E+00    0.9     0.00137715     -2346.0686668086 -1.76E-01
     - OT LS       0.14E+00    0.5                    -2346.2374898234
    63 OT CG       0.14E+00    0.9     0.00135135     -2346.2375795045 -1.69E-01
     - OT LS       0.14E+00    0.5                    -2346.3998555502
    64 OT CG       0.14E+00    0.9     0.00131880     -2346.3998561592 -1.62E-01
     - OT LS       0.14E+00    0.5                    -2346.5544477030
    65 OT CG       0.14E+00    0.9     0.00129848     -2346.5544477779 -1.55E-01
     - OT LS       0.14E+00    0.5                    -2346.7043301155
    66 OT CG       0.14E+00    0.9     0.00127052     -2346.7043297862 -1.50E-01
     - OT LS       0.14E+00    0.5                    -2346.8460454567
    67 OT CG       0.14E+00    0.9     0.00123427     -2346.8460645497 -1.42E-01
     - OT LS       0.15E+00    0.5                    -2346.9827536609
    68 OT CG       0.15E+00    0.9     0.00121610     -2346.9828237215 -1.37E-01
     - OT LS       0.14E+00    0.5                    -2347.1135907343
    69 OT CG       0.14E+00    0.9     0.00117974     -2347.1136174279 -1.31E-01
     - OT LS       0.14E+00    0.5                    -2347.2378775639
    70 OT CG       0.14E+00    0.9     0.00114597     -2347.2378913107 -1.24E-01
     - OT LS       0.15E+00    0.5                    -2347.3566072603
    71 OT CG       0.15E+00    0.9     0.00112585     -2347.3566272231 -1.19E-01
     - OT LS       0.14E+00    0.5                    -2347.4693942420
    72 OT CG       0.14E+00    0.9     0.00109601     -2347.4694218712 -1.13E-01
     - OT LS       0.15E+00    0.5                    -2347.5775772348
    73 OT CG       0.15E+00    0.9     0.00107246     -2347.5775934713 -1.08E-01
     - OT LS       0.15E+00    0.5                    -2347.6811644176
    74 OT CG       0.15E+00    0.9     0.00105550     -2347.6811644540 -1.04E-01
     - OT LS       0.14E+00    0.5                    -2347.7799865138
    75 OT CG       0.14E+00    0.9     0.00103055     -2347.7800060981 -9.88E-02
     - OT LS       0.15E+00    0.5                    -2347.8756282254
    76 OT CG       0.15E+00    0.9     0.00100667     -2347.8756516188 -9.56E-02
     - OT LS       0.15E+00    0.5                    -2347.9669141965
    77 OT CG       0.15E+00    0.8     0.00099136     -2347.9669141012 -9.13E-02
     - OT LS       0.14E+00    0.5                    -2348.0537112489
    78 OT CG       0.14E+00    0.9     0.00097002     -2348.0537407851 -8.68E-02
     - OT LS       0.15E+00    0.5                    -2348.1387670439
    79 OT CG       0.15E+00    0.9     0.00094954     -2348.1388148356 -8.51E-02
     - OT LS       0.15E+00    0.5                    -2348.2202766338
    80 OT CG       0.15E+00    0.9     0.00093115     -2348.2202766221 -8.15E-02
     - OT LS       0.15E+00    0.5                    -2348.2987318750
    81 OT CG       0.15E+00    0.9     0.00091898     -2348.2987322708 -7.85E-02
     - OT LS       0.14E+00    0.5                    -2348.3741097746
    82 OT CG       0.14E+00    0.9     0.00090210     -2348.3741223997 -7.54E-02
     - OT LS       0.14E+00    0.5                    -2348.4468885391
    83 OT CG       0.14E+00    0.9     0.00088310     -2348.4468888294 -7.28E-02
     - OT LS       0.15E+00    0.5                    -2348.5174020670
    84 OT CG       0.15E+00    0.9     0.00086969     -2348.5174118680 -7.05E-02
     - OT LS       0.15E+00    0.5                    -2348.5859216447
    85 OT CG       0.15E+00    0.9     0.00085499     -2348.5859220186 -6.85E-02
     - OT LS       0.15E+00    0.5                    -2348.6518830457
    86 OT CG       0.15E+00    0.9     0.00084269     -2348.6518835575 -6.60E-02
     - OT LS       0.14E+00    0.5                    -2348.7154760791
    87 OT CG       0.14E+00    0.9     0.00082512     -2348.7154789312 -6.36E-02
     - OT LS       0.15E+00    0.5                    -2348.7773759670
    88 OT CG       0.15E+00    0.8     0.00080880     -2348.7773917240 -6.19E-02
     - OT LS       0.15E+00    0.5                    -2348.8368750189
    89 OT CG       0.15E+00    0.8     0.00079557     -2348.8368749870 -5.95E-02
     - OT LS       0.15E+00    0.5                    -2348.8944348557
    90 OT CG       0.15E+00    0.8     0.00078502     -2348.8944348825 -5.76E-02
     - OT LS       0.15E+00    0.5                    -2348.9500702798
    91 OT CG       0.15E+00    0.9     0.00077066     -2348.9500724692 -5.56E-02
     - OT LS       0.15E+00    0.5                    -2349.0036097791
    92 OT CG       0.15E+00    0.9     0.00076124     -2349.0036097563 -5.35E-02
     - OT LS       0.14E+00    0.5                    -2349.0553666007
    93 OT CG       0.14E+00    0.9     0.00074655     -2349.0553701121 -5.18E-02
     - OT LS       0.15E+00    0.5                    -2349.1055168942
    94 OT CG       0.15E+00    0.9     0.00073092     -2349.1055201852 -5.02E-02
     - OT LS       0.15E+00    0.5                    -2349.1540793873
    95 OT CG       0.15E+00    0.9     0.00072016     -2349.1540853479 -4.86E-02
     - OT LS       0.15E+00    0.5                    -2349.2011350365
    96 OT CG       0.15E+00    0.8     0.00070895     -2349.2011350140 -4.70E-02
     - OT LS       0.15E+00    0.5                    -2349.2468333372
    97 OT CG       0.15E+00    0.9     0.00069768     -2349.2468337844 -4.57E-02
     - OT LS       0.15E+00    0.5                    -2349.2910427022
    98 OT CG       0.15E+00    0.8     0.00068754     -2349.2910426393 -4.42E-02
     - OT LS       0.15E+00    0.5                    -2349.3338953285
    99 OT CG       0.15E+00    0.9     0.00067569     -2349.3338952959 -4.29E-02
     - OT LS       0.15E+00    0.5                    -2349.3755558624
   100 OT CG       0.15E+00    0.8     0.00066802     -2349.3755582600 -4.17E-02
     - OT LS       0.15E+00    0.5                    -2349.4155651798
   101 OT CG       0.15E+00    0.9     0.00065826     -2349.4155761177 -4.00E-02
     - OT LS       0.15E+00    0.5                    -2349.4547589281
   102 OT CG       0.15E+00    0.9     0.00064614     -2349.4547623987 -3.92E-02
     - OT LS       0.15E+00    0.5                    -2349.4929532087
   103 OT CG       0.15E+00    0.9     0.00064036     -2349.4929592204 -3.82E-02
     - OT LS       0.15E+00    0.5                    -2349.5300760170
   104 OT CG       0.15E+00    0.9     0.00063334     -2349.5300793376 -3.71E-02
     - OT LS       0.15E+00    0.5                    -2349.5661022977
   105 OT CG       0.15E+00    0.8     0.00062284     -2349.5661039731 -3.60E-02
     - OT LS       0.15E+00    0.5                    -2349.6014945601
   106 OT CG       0.15E+00    0.9     0.00061558     -2349.6015046550 -3.54E-02
     - OT LS       0.15E+00    0.5                    -2349.6359796918
   107 OT CG       0.15E+00    0.9     0.00060617     -2349.6359797498 -3.45E-02
     - OT LS       0.15E+00    0.5                    -2349.6694919522
   108 OT CG       0.15E+00    0.9     0.00059814     -2349.6694923716 -3.35E-02
     - OT LS       0.15E+00    0.5                    -2349.7020385366
   109 OT CG       0.15E+00    0.8     0.00058914     -2349.7020385498 -3.25E-02
     - OT LS       0.15E+00    0.5                    -2349.7335148054
   110 OT CG       0.15E+00    0.9     0.00058305     -2349.7335148731 -3.15E-02
     - OT LS       0.15E+00    0.5                    -2349.7641835416
   111 OT CG       0.15E+00    0.9     0.00057336     -2349.7641839836 -3.07E-02
     - OT LS       0.15E+00    0.5                    -2349.7941503300
   112 OT CG       0.15E+00    0.9     0.00056555     -2349.7941542834 -3.00E-02
     - OT LS       0.15E+00    0.5                    -2349.8233292953
   113 OT CG       0.15E+00    0.9     0.00055931     -2349.8233293202 -2.92E-02
     - OT LS       0.15E+00    0.5                    -2349.8516258960
   114 OT CG       0.15E+00    0.9     0.00055298     -2349.8516272506 -2.83E-02
     - OT LS       0.15E+00    0.5                    -2349.8791829284
   115 OT CG       0.15E+00    0.9     0.00054401     -2349.8791830458 -2.76E-02
     - OT LS       0.15E+00    0.5                    -2349.9062291579
   116 OT CG       0.15E+00    0.9     0.00053666     -2349.9062357036 -2.71E-02
     - OT LS       0.15E+00    0.5                    -2349.9325893315
   117 OT CG       0.15E+00    0.8     0.00052993     -2349.9325894326 -2.64E-02
     - OT LS       0.15E+00    0.5                    -2349.9581673169
   118 OT CG       0.15E+00    0.8     0.00052587     -2349.9581675183 -2.56E-02
     - OT LS       0.14E+00    0.5                    -2349.9829366817
   119 OT CG       0.14E+00    0.8     0.00051874     -2349.9829424055 -2.48E-02
     - OT LS       0.15E+00    0.5                    -2350.0073096301
   120 OT CG       0.15E+00    0.8     0.00050946     -2350.0073132032 -2.44E-02
     - OT LS       0.15E+00    0.5                    -2350.0313591133
   121 OT CG       0.15E+00    0.8     0.00050339     -2350.0313734446 -2.41E-02
     - OT LS       0.15E+00    0.5                    -2350.0544632520
   122 OT CG       0.15E+00    0.8     0.00050177     -2350.0544687566 -2.31E-02
     - OT LS       0.15E+00    0.5                    -2350.0770683871
   123 OT CG       0.15E+00    0.9     0.00049371     -2350.0770726257 -2.26E-02
     - OT LS       0.15E+00    0.5                    -2350.0991081060
   124 OT CG       0.15E+00    0.9     0.00048710     -2350.0991095891 -2.20E-02
     - OT LS       0.15E+00    0.5                    -2350.1207329632
   125 OT CG       0.15E+00    0.8     0.00048211     -2350.1207347772 -2.16E-02
     - OT LS       0.15E+00    0.5                    -2350.1418077049
   126 OT CG       0.15E+00    0.8     0.00047752     -2350.1418079987 -2.11E-02
     - OT LS       0.15E+00    0.5                    -2350.1626025855
   127 OT CG       0.15E+00    0.8     0.00047142     -2350.1626036322 -2.08E-02
     - OT LS       0.15E+00    0.5                    -2350.1828772698
   128 OT CG       0.15E+00    0.8     0.00046796     -2350.1828772862 -2.03E-02
     - OT LS       0.15E+00    0.5                    -2350.2026165492
   129 OT CG       0.15E+00    0.9     0.00046246     -2350.2026186269 -1.97E-02
     - OT LS       0.15E+00    0.5                    -2350.2220150212
   130 OT CG       0.15E+00    0.8     0.00045581     -2350.2220160756 -1.94E-02
     - OT LS       0.15E+00    0.5                    -2350.2411350252
   131 OT CG       0.15E+00    0.9     0.00045092     -2350.2411398688 -1.91E-02
     - OT LS       0.15E+00    0.5                    -2350.2596943501
   132 OT CG       0.15E+00    0.9     0.00044864     -2350.2596952686 -1.86E-02
     - OT LS       0.15E+00    0.5                    -2350.2778690435
   133 OT CG       0.15E+00    0.9     0.00044159     -2350.2778704756 -1.82E-02
     - OT LS       0.15E+00    0.5                    -2350.2956287301
   134 OT CG       0.15E+00    0.8     0.00043769     -2350.2956304591 -1.78E-02
     - OT LS       0.15E+00    0.5                    -2350.3130755520
   135 OT CG       0.15E+00    0.9     0.00043211     -2350.3130755426 -1.74E-02
     - OT LS       0.15E+00    0.5                    -2350.3300585466
   136 OT CG       0.15E+00    0.8     0.00042821     -2350.3300585046 -1.70E-02
     - OT LS       0.15E+00    0.5                    -2350.3466720287
   137 OT CG       0.15E+00    0.8     0.00042330     -2350.3466720864 -1.66E-02
     - OT LS       0.15E+00    0.5                    -2350.3630419177
   138 OT CG       0.15E+00    0.9     0.00041841     -2350.3630434307 -1.64E-02
     - OT LS       0.15E+00    0.5                    -2350.3790155258
   139 OT CG       0.15E+00    0.8     0.00041586     -2350.3790154936 -1.60E-02
     - OT LS       0.15E+00    0.5                    -2350.3946087951
   140 OT CG       0.15E+00    0.8     0.00041079     -2350.3946103653 -1.56E-02
     - OT LS       0.15E+00    0.5                    -2350.4099274465
   141 OT CG       0.15E+00    0.9     0.00040631     -2350.4099284319 -1.53E-02
     - OT LS       0.15E+00    0.5                    -2350.4250436983
   142 OT CG       0.15E+00    0.9     0.00040241     -2350.4250451702 -1.51E-02
     - OT LS       0.15E+00    0.5                    -2350.4397116471
   143 OT CG       0.15E+00    0.9     0.00039888     -2350.4397129898 -1.47E-02
     - OT LS       0.15E+00    0.5                    -2350.4541565894
   144 OT CG       0.15E+00    0.8     0.00039312     -2350.4541567441 -1.44E-02
     - OT LS       0.15E+00    0.5                    -2350.4683116615
   145 OT CG       0.15E+00    0.8     0.00038898     -2350.4683131045 -1.42E-02
     - OT LS       0.15E+00    0.5                    -2350.4820924086
   146 OT CG       0.15E+00    0.9     0.00038528     -2350.4820926727 -1.38E-02
     - OT LS       0.15E+00    0.5                    -2350.4955273398
   147 OT CG       0.15E+00    0.9     0.00038208     -2350.4955276272 -1.34E-02
     - OT LS       0.15E+00    0.5                    -2350.5086630381
   148 OT CG       0.15E+00    0.8     0.00037583     -2350.5086632931 -1.31E-02
     - OT LS       0.15E+00    0.5                    -2350.5216905252
   149 OT CG       0.15E+00    0.8     0.00037224     -2350.5216995149 -1.30E-02
     - OT LS       0.15E+00    0.5                    -2350.5342863770
   150 OT CG       0.15E+00    0.9     0.00037000     -2350.5342889220 -1.26E-02
     - OT LS       0.15E+00    0.5                    -2350.5467039198
   151 OT CG       0.15E+00    0.9     0.00036492     -2350.5467038992 -1.24E-02
     - OT LS       0.15E+00    0.5                    -2350.5587880776
   152 OT CG       0.15E+00    0.9     0.00036173     -2350.5587881015 -1.21E-02
     - OT LS       0.15E+00    0.5                    -2350.5707605135
   153 OT CG       0.15E+00    0.9     0.00035731     -2350.5707616207 -1.20E-02
     - OT LS       0.15E+00    0.5                    -2350.5824738424
   154 OT CG       0.15E+00    0.8     0.00035472     -2350.5824739936 -1.17E-02
     - OT LS       0.15E+00    0.5                    -2350.5938987800
   155 OT CG       0.15E+00    0.8     0.00035206     -2350.5938996760 -1.14E-02
     - OT LS       0.15E+00    0.5                    -2350.6051528110
   156 OT CG       0.15E+00    0.8     0.00034877     -2350.6051528084 -1.13E-02
     - OT LS       0.15E+00    0.5                    -2350.6161992048
   157 OT CG       0.15E+00    0.9     0.00034595     -2350.6161992145 -1.10E-02
     - OT LS       0.15E+00    0.5                    -2350.6270552841
   158 OT CG       0.15E+00    0.9     0.00034154     -2350.6270552678 -1.09E-02
     - OT LS       0.15E+00    0.5                    -2350.6377284506
   159 OT CG       0.15E+00    0.9     0.00033863     -2350.6377295000 -1.07E-02
     - OT LS       0.15E+00    0.5                    -2350.6482743858
   160 OT CG       0.15E+00    0.9     0.00033558     -2350.6482747623 -1.05E-02
     - OT LS       0.15E+00    0.5                    -2350.6585440228
   161 OT CG       0.15E+00    0.9     0.00033381     -2350.6585445009 -1.03E-02
     - OT LS       0.15E+00    0.5                    -2350.6686869645
   162 OT CG       0.15E+00    0.9     0.00033149     -2350.6686869467 -1.01E-02
     - OT LS       0.15E+00    0.5                    -2350.6786444712
   163 OT CG       0.15E+00    0.9     0.00032847     -2350.6786445456 -9.96E-03
     - OT LS       0.15E+00    0.5                    -2350.6884551608
   164 OT CG       0.15E+00    0.8     0.00032633     -2350.6884553881 -9.81E-03
     - OT LS       0.15E+00    0.5                    -2350.6980469077
   165 OT CG       0.15E+00    0.9     0.00032324     -2350.6980475304 -9.59E-03
     - OT LS       0.15E+00    0.5                    -2350.7075924218
   166 OT CG       0.15E+00    0.8     0.00031926     -2350.7075946813 -9.55E-03
     - OT LS       0.15E+00    0.5                    -2350.7169414912
   167 OT CG       0.15E+00    0.8     0.00031730     -2350.7169416844 -9.35E-03
     - OT LS       0.15E+00    0.5                    -2350.7261824083
   168 OT CG       0.15E+00    0.9     0.00031485     -2350.7261824284 -9.24E-03
     - OT LS       0.15E+00    0.5                    -2350.7352428849
   169 OT CG       0.15E+00    0.8     0.00031244     -2350.7352429249 -9.06E-03
     - OT LS       0.15E+00    0.5                    -2350.7441690219
   170 OT CG       0.15E+00    0.8     0.00031061     -2350.7441690255 -8.93E-03
     - OT LS       0.15E+00    0.5                    -2350.7529843249
   171 OT CG       0.15E+00    0.9     0.00030906     -2350.7529843025 -8.82E-03
     - OT LS       0.15E+00    0.5                    -2350.7616106176
   172 OT CG       0.15E+00    0.8     0.00030643     -2350.7616114411 -8.63E-03
     - OT LS       0.15E+00    0.5                    -2350.7701312207
   173 OT CG       0.15E+00    0.8     0.00030397     -2350.7701315416 -8.52E-03
     - OT LS       0.15E+00    0.5                    -2350.7785090145
   174 OT CG       0.15E+00    0.8     0.00030122     -2350.7785090019 -8.38E-03
     - OT LS       0.15E+00    0.5                    -2350.7868181710
   175 OT CG       0.15E+00    0.9     0.00029825     -2350.7868193126 -8.31E-03
     - OT LS       0.15E+00    0.5                    -2350.7949813897
   176 OT CG       0.15E+00    0.8     0.00029658     -2350.7949814678 -8.16E-03
     - OT LS       0.15E+00    0.5                    -2350.8030245989
   177 OT CG       0.15E+00    0.9     0.00029389     -2350.8030246037 -8.04E-03
     - OT LS       0.15E+00    0.5                    -2350.8108933363
   178 OT CG       0.15E+00    0.9     0.00029224     -2350.8108933517 -7.87E-03
     - OT LS       0.15E+00    0.5                    -2350.8186064881
   179 OT CG       0.15E+00    0.8     0.00028962     -2350.8186068498 -7.71E-03
     - OT LS       0.15E+00    0.5                    -2350.8262300185
   180 OT CG       0.15E+00    0.8     0.00028586     -2350.8262304838 -7.62E-03
     - OT LS       0.15E+00    0.5                    -2350.8337434687
   181 OT CG       0.15E+00    0.9     0.00028448     -2350.8337447605 -7.51E-03
     - OT LS       0.15E+00    0.5                    -2350.8410796734
   182 OT CG       0.15E+00    0.9     0.00028262     -2350.8410808370 -7.34E-03
     - OT LS       0.15E+00    0.5                    -2350.8482839923
   183 OT CG       0.15E+00    0.9     0.00027952     -2350.8482840605 -7.20E-03
     - OT LS       0.15E+00    0.5                    -2350.8554323365
   184 OT CG       0.15E+00    0.8     0.00027684     -2350.8554341520 -7.15E-03
     - OT LS       0.15E+00    0.5                    -2350.8624965027
   185 OT CG       0.15E+00    0.9     0.00027537     -2350.8624969711 -7.06E-03
     - OT LS       0.15E+00    0.5                    -2350.8694168354
   186 OT CG       0.15E+00    0.8     0.00027446     -2350.8694172946 -6.92E-03
     - OT LS       0.15E+00    0.5                    -2350.8761828498
   187 OT CG       0.15E+00    0.8     0.00027171     -2350.8761842539 -6.77E-03
     - OT LS       0.15E+00    0.5                    -2350.8829044625
   188 OT CG       0.15E+00    0.8     0.00026953     -2350.8829058534 -6.72E-03
     - OT LS       0.15E+00    0.5                    -2350.8895403224
   189 OT CG       0.15E+00    0.8     0.00026812     -2350.8895404356 -6.63E-03
     - OT LS       0.15E+00    0.5                    -2350.8960409107
   190 OT CG       0.15E+00    0.8     0.00026606     -2350.8960413447 -6.50E-03
     - OT LS       0.15E+00    0.5                    -2350.9024832291
   191 OT CG       0.15E+00    0.9     0.00026240     -2350.9024835975 -6.44E-03
     - OT LS       0.15E+00    0.5                    -2350.9088484823
   192 OT CG       0.15E+00    0.8     0.00026174     -2350.9088503157 -6.37E-03
     - OT LS       0.15E+00    0.5                    -2350.9150653329
   193 OT CG       0.15E+00    0.8     0.00025936     -2350.9150671459 -6.22E-03
     - OT LS       0.15E+00    0.5                    -2350.9212186441
   194 OT CG       0.15E+00    0.8     0.00025768     -2350.9212191935 -6.15E-03
     - OT LS       0.15E+00    0.5                    -2350.9272672996
   195 OT CG       0.15E+00    0.9     0.00025491     -2350.9272673260 -6.05E-03
     - OT LS       0.15E+00    0.5                    -2350.9332572674
   196 OT CG       0.15E+00    0.8     0.00025487     -2350.9332583593 -5.99E-03
     - OT LS       0.15E+00    0.5                    -2350.9390865809
   197 OT CG       0.15E+00    0.8     0.00025312     -2350.9390903214 -5.83E-03
     - OT LS       0.15E+00    0.5                    -2350.9448933650
   198 OT CG       0.15E+00    0.8     0.00024993     -2350.9448940034 -5.80E-03
     - OT LS       0.15E+00    0.5                    -2350.9506257365
   199 OT CG       0.15E+00    0.9     0.00024907     -2350.9506269253 -5.73E-03
     - OT LS       0.15E+00    0.5                    -2350.9562215098
   200 OT CG       0.15E+00    0.9     0.00024780     -2350.9562228880 -5.60E-03

  Leaving inner SCF loop after reaching   200 steps.


  Electronic density on regular grids:       -919.9999999946        0.0000000054
  Core density on regular grids:              919.9999999996       -0.0000000004
  Total charge density on r-space grids:        0.0000000051
  Total charge density g-space grids:           0.0000000051

  Overlap energy of the core charge distribution:               0.00000801939163
  Self energy of the core charge distribution:              -5810.55392127042705
  Core Hamiltonian energy:                                   1564.05775005739088
  Hartree energy:                                            2385.80515287045773
  Exchange-correlation energy:                               -490.07148285095047
  Dispersion energy:                                           -0.19372971391062

  Total energy:                                             -2350.95622288804816

  outer SCF iter =    1 RMS gradient =   0.25E-03 energy =      -2350.9562228880

  ----------------------------------- OT ---------------------------------------
  Minimizer      : CG                  : conjugate gradient
  Preconditioner : FULL_ALL            : diagonalization, state selective
  Precond_solver : DEFAULT
  Line search    : 2PNT                : 2 energies, one gradient
  stepsize       :    0.15000000                  energy_gap     :    0.00100000
  eps_taylor     :   0.10000E-15                  max_taylor     :             4
  ----------------------------------- OT ---------------------------------------

  Step     Update method      Time    Convergence         Total energy    Change
  ------------------------------------------------------------------------------
     1 OT CG       0.15E+00    3.1     0.00195695     -2350.9617597400 -5.54E-03
     - OT LS       0.16E+00    0.5                    -2351.3376812120
     2 OT CG       0.16E+00    1.1     0.00449725     -2351.3430000576 -3.81E-01
     - OT LS       0.31E-01    0.5                    -2344.5717766762
     3 OT CG       0.31E-01    1.0     0.00700308     -2351.2765427120  6.65E-02
     - OT LS       0.31E-03    0.5                    -2348.2799179775
     4 OT CG       0.31E-03    0.9     0.00668086     -2351.2764513148  9.14E-05
     - OT LS       0.13E-02    0.5                    -2351.2930362577
     5 OT CG       0.13E-02    0.9     0.00480441     -2351.3353594573 -5.89E-02
     - OT LS       0.46E-02    0.5                    -2351.3661924643
     6 OT CG       0.46E-02    0.9     0.00210668     -2351.4023880446 -6.70E-02
     - OT LS       0.11E-01    0.5                    -2351.4229513958
     7 OT CG       0.11E-01    0.9     0.00134754     -2351.4322563751 -2.99E-02
     - OT LS       0.17E-01    0.5                    -2351.4474632289
     8 OT CG       0.17E-01    0.9     0.00154427     -2351.4502009246 -1.79E-02
     - OT LS       0.17E-01    0.5                    -2351.4768325299
     9 OT CG       0.17E-01    0.9     0.00181031     -2351.4768325034 -2.66E-02
     - OT LS       0.11E-01    0.5                    -2351.4928049844
    10 OT CG       0.11E-01    0.9     0.00143744     -2351.4989740953 -2.21E-02
     - OT LS       0.14E-01    0.5                    -2351.5164498561
    11 OT CG       0.14E-01    0.9     0.00112765     -2351.5173939731 -1.84E-02
     - OT LS       0.18E-01    0.5                    -2351.5311421564
    12 OT CG       0.18E-01    0.9     0.00095881     -2351.5314429656 -1.40E-02
     - OT LS       0.92E-02    0.5                    -2351.5316694189
    13 OT CG       0.92E-02    0.9     0.00074670     -2351.5362105338 -4.77E-03
     - OT LS       0.11E-01    0.5                    -2351.5397944762
    14 OT CG       0.11E-01    0.9     0.00042754     -2351.5398340506 -3.62E-03
     - OT LS       0.24E-01    0.5                    -2351.5415889700
    15 OT CG       0.24E-01    0.9     0.00057725     -2351.5422257483 -2.39E-03
     - OT LS       0.12E-01    0.5                    -2351.5422572554
    16 OT CG       0.12E-01    0.9     0.00038339     -2351.5443794997 -2.15E-03
     - OT LS       0.16E-01    0.5                    -2351.5457192125
    17 OT CG       0.16E-01    0.9     0.00041125     -2351.5458054722 -1.43E-03
     - OT LS       0.14E-01    0.5                    -2351.5472992070
    18 OT CG       0.14E-01    0.9     0.00030446     -2351.5473050986 -1.50E-03
     - OT LS       0.22E-01    0.5                    -2351.5484517338
    19 OT CG       0.22E-01    0.9     0.00033884     -2351.5486565734 -1.35E-03
     - OT LS       0.14E-01    0.5                    -2351.5494894794
    20 OT CG       0.14E-01    0.9     0.00030221     -2351.5498406119 -1.18E-03
     - OT LS       0.21E-01    0.5                    -2351.5508857082
    21 OT CG       0.21E-01    0.9     0.00033770     -2351.5509878477 -1.15E-03
     - OT LS       0.97E-02    0.5                    -2351.5506783958
    22 OT CG       0.97E-02    0.9     0.00022712     -2351.5515982297 -6.10E-04
     - OT LS       0.23E-01    0.5                    -2351.5520872342
    23 OT CG       0.23E-01    0.9     0.00019415     -2351.5523262545 -7.28E-04
     - OT LS       0.29E-01    0.5                    -2351.5529712061
    24 OT CG       0.29E-01    0.9     0.00020115     -2351.5530104746 -6.84E-04
     - OT LS       0.17E-01    0.5                    -2351.5532318355
    25 OT CG       0.17E-01    0.9     0.00015625     -2351.5534572568 -4.47E-04
     - OT LS       0.16E-01    0.5                    -2351.5536861803
    26 OT CG       0.16E-01    0.9     0.00017257     -2351.5536888405 -2.32E-04
     - OT LS       0.29E-01    0.5                    -2351.5541089033
    27 OT CG       0.29E-01    0.9     0.00011538     -2351.5542299333 -5.41E-04
     - OT LS       0.25E-01    0.5                    -2351.5544362529
    28 OT CG       0.25E-01    0.9     0.00014348     -2351.5544417115 -2.12E-04
     - OT LS       0.21E-01    0.5                    -2351.5546839206
    29 OT CG       0.21E-01    0.9     0.00015071     -2351.5546883260 -2.47E-04
     - OT LS       0.25E-01    0.5                    -2351.5550579785
    30 OT CG       0.25E-01    0.9     0.00014613     -2351.5550610463 -3.73E-04
     - OT LS       0.16E-01    0.5                    -2351.5551809831
    31 OT CG       0.16E-01    0.9     0.00013313     -2351.5552470216 -1.86E-04
     - OT LS       0.14E-01    0.5                    -2351.5553910511
    32 OT CG       0.14E-01    0.9     0.00009632     -2351.5553945092 -1.47E-04
     - OT LS       0.28E-01    0.5                    -2351.5555180086
    33 OT CG       0.28E-01    0.9     0.00014629     -2351.5555414228 -1.47E-04
     - OT LS       0.14E-01    0.5                    -2351.5555445444
    34 OT CG       0.14E-01    0.9     0.00013924     -2351.5556661908 -1.25E-04
     - OT LS       0.97E-02    0.5                    -2351.5557592601
    35 OT CG       0.97E-02    0.9     0.00008912     -2351.5557769015 -1.11E-04
     - OT LS       0.20E-01    0.5                    -2351.5558550143
    36 OT CG       0.20E-01    0.9     0.00007415     -2351.5558751070 -9.82E-05
     - OT LS       0.13E-01    0.5                    -2351.5558989014
    37 OT CG       0.13E-01    0.9     0.00006220     -2351.5559070590 -3.20E-05
     - OT LS       0.24E-01    0.5                    -2351.5559536143
    38 OT CG       0.24E-01    0.8     0.00005291     -2351.5559672722 -6.02E-05
     - OT LS       0.21E-01    0.5                    -2351.5560039221
    39 OT CG       0.21E-01    0.9     0.00007633     -2351.5560063936 -3.91E-05
     - OT LS       0.21E-01    0.5                    -2351.5560611847
    40 OT CG       0.21E-01    0.9     0.00011178     -2351.5560611837 -5.48E-05
     - OT LS       0.11E-01    0.5                    -2351.5560853437
    41 OT CG       0.11E-01    0.9     0.00008523     -2351.5561397433 -7.86E-05
     - OT LS       0.22E-01    0.5                    -2351.5562206936
    42 OT CG       0.22E-01    0.9     0.00007871     -2351.5562374831 -9.77E-05
     - OT LS       0.22E-01    0.5                    -2351.5562954159
    43 OT CG       0.22E-01    0.9     0.00009283     -2351.5562954561 -5.80E-05
     - OT LS       0.12E-01    0.5                    -2351.5563154866
    44 OT CG       0.12E-01    0.9     0.00006777     -2351.5563536018 -5.81E-05
     - OT LS       0.20E-01    0.5                    -2351.5564040812
    45 OT CG       0.20E-01    0.8     0.00007267     -2351.5564053993 -5.18E-05
     - OT LS       0.72E-02    0.5                    -2351.5563827969
    46 OT CG       0.72E-02    0.9     0.00007133     -2351.5564167933 -1.14E-05
     - OT LS       0.71E-02    0.5                    -2351.5564391903
    47 OT CG       0.71E-02    0.9     0.00004060     -2351.5564391672 -2.24E-05
     - OT LS       0.29E-01    0.5                    -2351.5564527273
    48 OT CG       0.29E-01    0.9     0.00006568     -2351.5564542998 -1.51E-05
     - OT LS       0.59E-02    0.5                    -2351.5562410366
    49 OT CG       0.59E-02    0.9     0.00002556     -2351.5564649505 -1.07E-05
     - OT LS       0.24E-01    0.5                    -2351.5564696652
    50 OT CG       0.24E-01    0.9     0.00002368     -2351.5564779314 -1.30E-05
     - OT LS       0.39E-01    0.5                    -2351.5564913322
    51 OT CG       0.39E-01    0.9     0.00004266     -2351.5564957842 -1.79E-05
     - OT LS       0.38E-01    0.5                    -2351.5565550601
    52 OT CG       0.38E-01    0.9     0.00010524     -2351.5565553767 -5.96E-05
     - OT LS       0.55E-02    0.5                    -2351.5552845303
    53 OT CG       0.55E-02    0.9     0.00002719     -2351.5565842379 -2.89E-05
     - OT LS       0.13E-01    0.5                    -2351.5565882626
    54 OT CG       0.13E-01    0.8     0.00001628     -2351.5565910135 -6.78E-06
     - OT LS       0.30E-01    0.5                    -2351.5565946501
    55 OT CG       0.30E-01    0.9     0.00001728     -2351.5565986434 -7.63E-06
     - OT LS       0.86E-01    0.5                    -2351.5566109498
    56 OT CG       0.86E-01    0.9     0.00011216     -2351.5566026385 -4.00E-06
     - OT LS       0.54E-02    0.5                    -2351.5472759152
    57 OT CG       0.54E-02    0.9     0.00001733     -2351.5566311741 -2.85E-05
     - OT LS       0.22E-01    0.5                    -2351.5566327300
    58 OT CG       0.22E-01    0.9     0.00001880     -2351.5566362055 -5.03E-06
     - OT LS       0.45E-01    0.5                    -2351.5566448267
    59 OT CG       0.45E-01    0.8     0.00007757     -2351.5566401422 -3.94E-06
     - OT LS       0.53E-02    0.5                    -2351.5555361609
    60 OT CG       0.53E-02    0.9     0.00001560     -2351.5566533721 -1.32E-05
     - OT LS       0.21E-01    0.5                    -2351.5566549794
    61 OT CG       0.21E-01    0.9     0.00001786     -2351.5566581411 -4.77E-06
     - OT LS       0.31E-01    0.5                    -2351.5566650000
    62 OT CG       0.31E-01    0.9     0.00002731     -2351.5566670956 -8.95E-06
     - OT LS       0.36E-01    0.5                    -2351.5566938372
    63 OT CG       0.36E-01    0.9     0.00007176     -2351.5566936998 -2.66E-05
     - OT LS       0.18E-02    0.5                    -2351.5552858946
    64 OT CG       0.18E-02    0.9     0.00009002     -2351.5566991776 -5.48E-06
     - OT LS       0.45E-02    0.5                    -2351.5567141884
    65 OT CG       0.45E-02    0.9     0.00003658     -2351.5567305005 -3.13E-05
     - OT LS       0.49E-02    0.5                    -2351.5567345332
    66 OT CG       0.49E-02    0.9     0.00001722     -2351.5567346992 -4.20E-06
     - OT LS       0.20E-01    0.5                    -2351.5567363557
    67 OT CG       0.20E-01    0.9     0.00001704     -2351.5567383342 -3.64E-06
     - OT LS       0.79E-01    0.5                    -2351.5567439121
    68 OT CG       0.79E-01    0.9     0.00003773     -2351.5567524752 -1.41E-05
     - OT LS       0.24E-01    0.5                    -2351.5566521891
    69 OT CG       0.24E-01    0.9     0.00005624     -2351.5567761091 -2.36E-05
     - OT LS       0.32E-01    0.5                    -2351.5568338632
    70 OT CG       0.32E-01    0.9     0.00008380     -2351.5568364996 -6.04E-05
     - OT LS       0.12E-01    0.5                    -2351.5567587698
    71 OT CG       0.12E-01    0.9     0.00006020     -2351.5568783256 -4.18E-05
     - OT LS       0.12E-01    0.5                    -2351.5569059061
    72 OT CG       0.12E-01    0.8     0.00004472     -2351.5569059150 -2.76E-05
     - OT LS       0.11E-01    0.5                    -2351.5569205440
    73 OT CG       0.11E-01    0.9     0.00001858     -2351.5569202560 -1.43E-05
     - OT LS       0.72E-02    0.5                    -2351.5569214583
    74 OT CG       0.72E-02    0.9     0.00001223     -2351.5569214349 -1.18E-06
     - OT LS       0.11E-01    0.5                    -2351.5569223352
    75 OT CG       0.11E-01    0.9     0.00001014     -2351.5569226946 -1.26E-06
     - OT LS       0.58E-02    0.5                    -2351.5569227479
    76 OT CG       0.58E-02    0.9     0.00000912     -2351.5569227802 -8.55E-08
     - OT LS       0.86E-02    0.5                    -2351.5569231735
    77 OT CG       0.86E-02    0.8     0.00000865     -2351.5569233574 -5.77E-07
     - OT LS       0.84E-02    0.5                    -2351.5569237457
    78 OT CG       0.84E-02    0.8     0.00000838     -2351.5569237381 -3.81E-07
     - OT LS       0.16E-01    0.5                    -2351.5569242777
    79 OT CG       0.16E-01    0.8     0.00000816     -2351.5569247593 -1.02E-06
     - OT LS       0.16E-01    0.5                    -2351.5569253965
    80 OT CG       0.16E-01    0.9     0.00000831     -2351.5569253732 -6.14E-07
     - OT LS       0.62E-01    0.5                    -2351.5569270382
    81 OT CG       0.62E-01    0.8     0.00002789     -2351.5569301317 -4.76E-06
     - OT LS       0.72E-01    0.5                    -2351.5569682489
    82 OT CG       0.72E-01    0.9     0.00002087     -2351.5569722832 -4.22E-05
     - OT LS       0.84E-02    0.5                    -2351.5568424444
    83 OT CG       0.84E-02    0.8     0.00001744     -2351.5569729627 -6.80E-07
     - OT LS       0.33E-01    0.5                    -2351.5569771262
    84 OT CG       0.33E-01    0.9     0.00001936     -2351.5569849335 -1.20E-05
     - OT LS       0.21E-01    0.5                    -2351.5569883118
    85 OT CG       0.21E-01    0.9     0.00001943     -2351.5569899485 -5.02E-06
     - OT LS       0.21E-01    0.5                    -2351.5569951932
    86 OT CG       0.21E-01    0.9     0.00003339     -2351.5569952091 -5.26E-06
     - OT LS       0.12E-02    0.5                    -2351.5569627523
    87 OT CG       0.12E-02    0.8     0.00003579     -2351.5569952172 -8.07E-09
     - OT LS       0.11E-02    0.5                    -2351.5569960690
    88 OT CG       0.11E-02    0.9     0.00002958     -2351.5569959929 -7.76E-07
     - OT LS       0.88E-03    0.5                    -2351.5569964435
    89 OT CG       0.88E-03    0.8     0.00002574     -2351.5569963722 -3.79E-07
     - OT LS       0.68E-03    0.5                    -2351.5569966229
    90 OT CG       0.68E-03    0.8     0.00002343     -2351.5569965718 -2.00E-07
     - OT LS       0.50E-03    0.5                    -2351.5569967221
    91 OT CG       0.50E-03    0.9     0.00002199     -2351.5569966873 -1.15E-07
     - OT LS       0.37E-03    0.5                    -2351.5569967827
    92 OT CG       0.37E-03    0.9     0.00002106     -2351.5569967590 -7.17E-08
     - OT LS       0.27E-03    0.5                    -2351.5569968220
    93 OT CG       0.27E-03    0.8     0.00002044     -2351.5569968056 -4.67E-08
     - OT LS       0.19E-03    0.5                    -2351.5569968484
    94 OT CG       0.19E-03    0.8     0.00002002     -2351.5569968370 -3.14E-08
     - OT LS       0.14E-03    0.5                    -2351.5569968666
    95 OT CG       0.14E-03    0.9     0.00001973     -2351.5569968586 -2.15E-08
     - OT LS       0.10E-03    0.5                    -2351.5569968792
    96 OT CG       0.10E-03    0.8     0.00001953     -2351.5569968736 -1.50E-08
     - OT LS       0.73E-04    0.5                    -2351.5569968882
    97 OT CG       0.73E-04    0.8     0.00001939     -2351.5569968841 -1.06E-08
     - OT LS       0.53E-04    0.5                    -2351.5569968945
    98 OT CG       0.53E-04    0.9     0.00001929     -2351.5569968916 -7.48E-09
     - OT LS       0.38E-04    0.5                    -2351.5569968990
    99 OT CG       0.38E-04    0.8     0.00001922     -2351.5569968969 -5.32E-09
     - OT LS       0.27E-04    0.5                    -2351.5569969022
   100 OT CG       0.27E-04    0.9     0.00001917     -2351.5569969007 -3.80E-09
     - OT LS       0.20E-04    0.5                    -2351.5569969045
   101 OT CG       0.20E-04    0.8     0.00001913     -2351.5569969034 -2.72E-09
     - OT LS       0.14E-04    0.5                    -2351.5569969061
   102 OT CG       0.14E-04    0.9     0.00001911     -2351.5569969054 -1.95E-09
     - OT LS       0.10E-04    0.5                    -2351.5569969073
   103 OT CG       0.10E-04    0.8     0.00001909     -2351.5569969068 -1.40E-09
     - OT LS       0.73E-05    0.5                    -2351.5569969082
   104 OT CG       0.73E-05    0.9     0.00001908     -2351.5569969078 -1.00E-09
     - OT LS       0.53E-05    0.5                    -2351.5569969088
   105 OT CG       0.53E-05    0.8     0.00001907     -2351.5569969085 -7.20E-10
     - OT LS       0.38E-05    0.5                    -2351.5569969092
   106 OT CG       0.38E-05    0.8     0.00001906     -2351.5569969090 -5.18E-10
     - OT LS       0.27E-05    0.5                    -2351.5569969095
   107 OT CG       0.27E-05    0.9     0.00001905     -2351.5569969094 -3.74E-10
     - OT LS       0.20E-05    0.5                    -2351.5569969098
   108 OT CG       0.20E-05    0.8     0.00001905     -2351.5569969097 -2.68E-10
     - OT LS       0.14E-05    0.5                    -2351.5569969099
   109 OT CG       0.14E-05    0.8     0.00001905     -2351.5569969099 -1.94E-10
     - OT LS       0.10E-05    0.5                    -2351.5569969101
   110 OT CG       0.10E-05    0.9     0.00001905     -2351.5569969100 -1.39E-10
     - OT LS       0.73E-06    0.5                    -2351.5569969101
   111 OT CG       0.73E-06    0.9     0.00001904     -2351.5569969101 -1.00E-10
     - OT LS       0.53E-06    0.5                    -2351.5569969102
   112 OT CG       0.53E-06    0.8     0.00001904     -2351.5569969102 -7.23E-11
     - OT LS       0.38E-06    0.5                    -2351.5569969102
   113 OT CG       0.38E-06    0.8     0.00001904     -2351.5569969102 -5.09E-11
     - OT LS       0.27E-06    0.5                    -2351.5569969103
   114 OT CG       0.27E-06    0.9     0.00001904     -2351.5569969103 -3.87E-11
     - OT LS       0.20E-06    0.5                    -2351.5569969103
   115 OT CG       0.20E-06    0.8     0.00001904     -2351.5569969103 -2.68E-11
     - OT LS       0.14E-06    0.5                    -2351.5569969103
   116 OT CG       0.14E-06    0.8     0.00001904     -2351.5569969103 -1.86E-11
     - OT LS       0.10E-06    0.5                    -2351.5569969103
   117 OT CG       0.10E-06    0.8     0.00001904     -2351.5569969103 -1.41E-11
     - OT LS       0.70E-07    0.5                    -2351.5569969103
   118 OT CG       0.70E-07    0.8     0.00001904     -2351.5569969103 -9.55E-12
     - OT LS       0.49E-07    0.5                    -2351.5569969103
   119 OT CG       0.49E-07    0.8     0.00001904     -2351.5569969103 -6.82E-12
     - OT LS       0.34E-07    0.5                    -2351.5569969103
