     200
Lattice="12.7684200000        0.0000000000        0.0000000000        0.0000000000       14.1137400000        0.0000000000        0.0000000000        0.0000000000       46.1721071382" Properties=species:S:1:pos:R:3 pbc="T T F" Converged=F
 Ca         2.1193433836       -0.0156519558        2.9659593745
 Ca         4.2650395853        0.0258820819        6.7646013642
 Ca         5.3076084110        3.5097192823        2.9661197497
 Ca         1.0553333737        3.5126695699        6.7734680663
  S         1.1259484802       -0.0280693893        7.1324721944
  S         5.3088632022       -0.0183837675        2.9691501325
  S         4.3136271248        3.5177720660        7.1309892946
  S         2.1163080195        3.5226393157        2.9694207612
  O         0.2114215509        5.8646078262        6.9873300436
  O         6.1829019235        5.7673983019        2.9610578483
  O         6.1818277387        1.2530937315        2.9608888960
  O         0.1987827222        1.1697442198        7.0517183757
  O         3.3960376468        2.3133413126        7.0555199867
  O         2.9775822050        2.2408801936        2.9609195240
  O         2.9884717486        4.7945745075        2.9607782159
  O         3.3885997511        4.7181659660        7.0551725662
  O         1.9717329689       -0.0089990554        8.3321858212
  O         4.5191578615       -0.0160204447        1.3745047913
  O         2.0343106778       -0.0392793889        5.9365224329
  O         4.5816841044       -0.0129885603        4.4634964062
  O         5.1631829108        3.5435738865        8.3318230248
  O         1.3246767405        3.5307201013        1.3747008094
  O         5.2275427649        3.5101834925        5.9394357056
  O         1.3868719060        3.5356134044        4.4634270622
 Ca         2.1171788906        7.0466240684        2.9661523296
 Ca         4.2612927318        6.9850955726        6.7524140754
 Ca         5.3032125406       10.5702707212        2.9654438474
 Ca         1.1038302514       10.5837209192        6.7645112319
  S         1.1292254990        7.0642206976        7.1217518150
  S         5.3119329538        7.0385854422        2.9683554775
  S         4.3284908568       10.5538469657        7.1833519963
  S         2.1214357065       10.5733845787        2.9670432243
  O         0.2062094338       12.8776416738        7.0607363310
  O         6.1740299233       12.8159034827        2.9610381083
  O         6.1736683082        8.3208951552        2.9612671286
  O         0.2017204855        8.2664077135        7.0623021810
  O         3.4631479576        9.3214098456        7.2139701621
  O         2.9904312009        9.3010842136        2.9614573984
  O         2.9946808859       11.8415512532        2.9610914402
  O         3.3927535735       11.7308258038        7.0620010877
  O         1.9676540825        7.0203811899        8.3296221640
  O         4.5189665844        7.0352123235        1.3752879797
  O         2.0468851703        7.1227751120        5.9368733412
  O         4.5850070370        7.0285568596        4.4645464991
  O         5.1805866136       10.6433081445        8.4084768047
  O         1.3235425977       10.5794145848        1.3779944408
  O         5.2400071611       10.5194168866        6.0066327516
  O         1.3919796050       10.5730729999        4.4665361260
 Ca         8.4988467726       -0.0131895324        2.9661415264
 Ca        10.7061170553        0.0334469548        6.7633339746
 Ca        11.6932342379        3.5190723218        2.9664605235
 Ca         7.4609605011        3.5037245221        6.7793810386
  S         7.4621549637       -0.0116594391        7.1542424116
  S        11.6964181299       -0.0060621563        2.9678305778
  S        10.7363349095        3.5364787027        7.2222479982
  S         8.5040091792        3.5225875501        2.9677773879
  O         6.5853291230        5.8578582840        6.9842326132
  O        12.5652544460        5.7713860432        2.9608482898
  O        12.5664268838        1.2650791481        2.9609323081
  O         6.5112115473        1.1690957725        7.0556706870
  O         9.8485772548        2.3047325288        7.2144132517
  O         9.3642738277        2.2407722711        2.9612379633
  O         9.3736456022        4.7960015565        2.9609775957
  O         9.7828169109        4.7151557952        7.2832159598
  O         8.2178968716       -0.0093626297        8.4130902156
  O        10.9019044827       -0.0131526522        1.3767695330
  O         8.4316607822        0.0445511388        6.0092881802
  O        10.9681882246       -0.0086698878        4.4647763345
  O        11.7045735150        3.5429600082        8.3314420259
  O         7.7094339137        3.5262949792        1.3767256913
  O        11.5313425912        3.5836524651        5.9452475266
  O         7.7802606405        3.5357391659        4.4667875957
 Ca         8.5047104513        7.0471752575        2.9657691249
 Ca        10.7275547551        7.0329119043        6.7647924441
 Ca        11.7048557469       10.5873520912        2.9653662541
 Ca         7.5368031711       10.6220184636        6.6921876288
  S         7.4878748529        7.0558997029        7.1571964840
  S        11.6959688448        7.0434121378        2.9678018207
  S        10.6785069887       10.5911030157        7.2360419659
  S         8.5235536650       10.5740274185        2.9668008426
  O         6.5847014678       12.8735514862        6.9841897873
  O        12.5705459255       12.8385451131        2.9606425929
  O        12.5538924238        8.3267501014        2.9614288811
  O         6.5760594774        8.2689253049        7.1352503301
  O         9.7594048211        9.3904015465        7.1352718819
  O         9.3846998131        9.2995820869        2.9615174001
  O         9.3857230611       11.8481174147        2.9613856045
  O         9.7728863520       11.8059909863        7.1421121009
  O         8.2697450819        7.0196301780        8.4156250124
  O        10.9016290599        7.0357275602        1.3769673901
  O         8.4490323887        7.1116024170        6.0181517024
  O        10.9636545586        7.0349352756        4.4654329183
  O        11.4625112373       10.5685071528        8.4884430766
  O         7.7671102908       10.5749271738        1.3759514202
  O        11.6178343518       10.5933394463        6.0749806361
  O         7.7800875355       10.5729843061        4.4643491968
  O         7.9044298317        3.2970015208       10.9721667203
  H         8.6597503362        2.9195817397       10.5098273423
  H         7.1491852832        2.8148729316       10.6097663820
  O         2.0056294687       11.7718779127       12.0179882341
  H         2.8085877035       11.2796293997       11.7793837241
  H         1.8890612781       12.3887440784       11.2874895109
  O         4.5431505669        1.0590048103       16.4393663692
  H         4.9445686145        1.9573111945       16.3916722255
  H         3.6349569214        1.2250343700       16.7242406926
  O         0.5520251086        6.1028896678       27.5716249214
  H         1.0359648429        6.9952976842       27.5365625363
  H         1.2571249128        5.4159372353       27.5310480396
  O         3.5805801743       12.0209630820       20.9398503979
  H         2.9122637230       12.5105437621       21.4606282099
  H         3.1863948636       11.8972606187       20.0695428648
  O         4.2946725649        9.8362127575       10.8964845344
  H         4.4011919842       10.2116665718        9.9997325548
  H         3.6136582992        9.1618969123       10.7833696391
  O         9.4991325438        6.0457151090       15.8631663297
  H         8.9872368866        6.3332316206       15.0941968680
  H        10.0225006368        5.3124826467       15.5158417539
  O         7.5866910141       11.2124173703       16.1144710370
  H         7.3517996678       12.1484597597       16.0702928909
  H         8.4229486517       11.1983814159       16.5996865934
  O         9.1804431036       10.8155938560       10.2364422507
  H        10.0259611121       10.6375299301        9.7642276922
  H         8.9831147257       11.7371201716       10.0127126681
  O         2.7832658012        8.3061915259       26.0508374184
  H         5.6801489435        8.3142157114       27.5804240319
  H         0.8671350676        8.6116387784       26.0549865344
  O        13.9127621988        9.6439307993       22.6134616695
  H        11.7754286149       12.4915644737       22.5591410540
  H        14.1979597438       10.2190007079       21.8959876676
  O         9.3465907540        5.0022807985       22.7460459359
  H         9.2898034366        5.4802517347       21.9156541755
  H         5.0986666825        8.0114413548       24.4274672538
  O         0.8060430052        1.1297740327       22.5160604068
  H         1.3598176145        0.2148660059       22.5416063005
  H         0.8659664318        1.4372723764       21.6071078684
  O        11.5684221912        8.7174647780       22.5199050133
  H        11.0034648847        9.1982094352       21.8942361974
  H        12.5263574903        9.1471452528       22.3974042398
  O        10.7750606821        9.7581404945       17.6283514919
  H        10.5795548623        8.9314137634       17.1714440301
  H        11.5428057773       10.1100719583       17.1626657131
  O         5.2004929851        8.6372353885       18.6019001209
  H         5.6941503117        9.0349554595       19.3322174817
  H         5.6055775815        9.0385431141       17.8236380192
  O         7.3827802075       10.3069691154       22.0117644792
  H         7.6439218637       10.7738509872       23.4536614376
  H         6.5922720172       10.6583676781       21.5694807354
  O         3.0339762926        4.7583773193       12.0120889317
  H         3.4881780308        3.9737967460       11.6775316452
  H         2.6155482635        5.1258862315       11.2201738605
  O        10.7703287273        2.9916919254       22.5872550941
  H        10.1361891094        3.8719812412       22.4936117948
  H        10.9541031477        2.6802033036       21.6975915097
  O         4.6256633903        2.6618185060       22.7611639458
  H         1.9741393033       -0.8837499747       22.8126929844
  H         4.5149840367        2.2723211083       21.8868786170
  N         5.7415597714        3.7034308155       16.1062855502
  H         6.6480562992        3.8953005932       16.5288966797
  H         5.1756982616        4.5279857787       16.2710952671
  H         5.8994861160        3.6719233016       15.1022819899
  N         2.0024473712        6.9523708073       22.3640991646
  H         1.7123321093        7.9603925002       22.3175345944
  H         1.5584313156        6.5334423149       21.5519038028
  H         2.9899891232        6.9818172589       22.1079542626
  N         6.0107221401        5.0797996442       22.2933065184
  H         6.9783712579        4.8493354403       22.0407111494
  H         5.6830151634        5.6986381913       21.5525563921
  H         5.4667951327        4.1850248430       22.2401443366
  N         1.8369403509       11.6882770488       15.5475472112
  H         2.4396849956       10.8851762322       15.6802527521
  H        -0.1077427250       13.1923571630       13.2988573063
  H         1.6589890644       11.7195917093       14.5431283393
  H         2.4321424258       12.4893616580       15.7202201006
  N        10.0467252979        1.8556481478       13.6248066117
  H        10.9174275849        1.9441629322       13.1060027027
  H         9.9089487737        0.8542074182       13.7301995868
  H         9.3164599307        2.1767085925       13.0003087118
  H        12.4022949523       -0.4286561128       13.7950106483
  N         7.0943541925        9.0334424712        9.9656389458
  H         6.5978808210        8.8518792620       10.8368209383
  H         7.4874747606        8.1661558452        9.5422470805
  H         7.8768594904        9.7154428564       10.1202620498
  H         6.3984461288        9.4294125188        9.3172353943
  N         9.8289821708       11.1304492173       20.9524385329
  H         9.6529504995       12.0417463463       20.5315353710
  H        10.0481303322       10.5513994950       20.1418848888
  H         8.8730203387       10.8154406787       21.2904330922
  H        11.2484877155       12.0460257154       22.2139244661
