296
Lattice="11.358 0.0 0.0 -5.147950824045998 11.470885982880008 0.0 0.0 0.0 60.05492439424537" Properties=species:S:1:pos:R:3:spacegroup_kinds:I:1:tags:I:1:forces:R:3 stress="0.002700182964777512 -0.0008670481066641835 3.275938908099995e-09 -0.0008670481066641835 0.0060896802017248956 -3.959033666860133e-08 3.275938908099995e-09 -3.959033666860133e-08 2.0365049286687198e-08" energy=-1957.310639073963 pbc="T T T"
Ca       9.50831376       1.15444992       6.38245405        0        1      -0.00000247       0.00000015       0.00000289
Ca       2.53309341       4.03798915      13.55420710        0        1      -0.00000390       0.00000239       0.00000056
Ca      -0.30145562       4.08969255      18.02307718        0        1       0.00000058       0.00000162      -0.00000141
Ca       0.95148208       1.15463891      11.11907848        0        1      -0.00000166       0.00000251      -0.00000165
S        2.55086127       4.04227743       6.09752352        1        1      -0.00000083      -0.00000203      -0.00000060
S        9.44107398       1.10488673      13.47355968        1        1      -0.00000097       0.00000042       0.00000035
S        0.78720715       1.31038762      18.65257401        1        1      -0.00000144      -0.00000189      -0.00000002
S       -0.31153273       4.02307850      11.22532007        1        1      -0.00000008       0.00000018       0.00000109
O        7.66122608       2.93549562       6.97942447        2        1       0.00000133      -0.00000414       0.00000005
O        3.87978110      11.37660871      14.24387517        2        1      -0.00000761       0.00000454       0.00000305
O        1.21687914       2.23177797      17.54536106        2        1       0.00000024       0.00000163       0.00000149
O        0.12379775       5.17135723      10.39613668        2        1      -0.00000026      -0.00000014       0.00000179
O        3.10659186       5.13340102       6.96987276        2        1      -0.00000163      -0.00000259      -0.00000119
O        9.82082666       2.21248336      14.38156032        2        1       0.00000538      -0.00000333       0.00000204
O        0.88698401      11.20735339      17.71193291        2        1      -0.00000038       0.00000122       0.00000289
O       -0.71497118       2.87253012      10.38107414        2        1      -0.00000247       0.00000197      -0.00000022
O        9.23821177       3.35300053       5.28924492        3        1       0.00000311      -0.00000333       0.00000488
O       10.57339576       0.68934495      12.64250831        3        1       0.00000025      -0.00000060       0.00000224
O       -0.16889104       2.10449094      19.43483988        3        1      -0.00000201      -0.00000197       0.00000056
O       -1.44711182       4.48990639      12.02639468        3        1       0.00000049       0.00000616      -0.00000095
O        1.50975120       4.69823128       5.30358016        3        1      -0.00000199      -0.00000337       0.00000104
O        8.31837443       1.61965127      12.67953671        3        1      -0.00000023      -0.00000123      -0.00000114
O        7.58126636       0.29720735      19.40820652        3        1      -0.00000184      -0.00000243       0.00000172
O        0.78871832       3.55246542      12.07362048        3        1       0.00000035      -0.00000110       0.00000082
O       -0.54496091       2.44718134       7.71747053        4        1       0.00000156       0.00000007      -0.00000191
O       -1.59428177       5.15826609      14.90338779        4        1      -0.00000134       0.00000268       0.00000006
O        9.35575318       2.86277622      16.99032434        4        1      -0.00000289       0.00000338      -0.00000199
O        5.86034157      11.39374433       9.63134769        4        1      -0.00000428       0.00000524      -0.00000444
O        3.06471919      11.35368125       7.74386803        4        1       0.00000262      -0.00000078       0.00000057
O        1.07305479       2.87225349      14.94354317        4        1      -0.00000237       0.00000053       0.00000114
O        1.39941420       5.25679534      17.00650375        4        1      -0.00000313      -0.00000088       0.00000020
O        7.98810691       2.40306908       9.68530658        4        1      -0.00000296       0.00000035       0.00000120
H        0.32025499       2.77497811       7.38314916        5        1       0.00000165       0.00000339       0.00000167
H        2.16632060      11.21085593      14.70775330        5        1      -0.00000222      -0.00000212      -0.00000009
H        8.66424802       2.28862813      17.36875213        5        1       0.00000086      -0.00000270       0.00000273
H        1.89057877       5.41812316       9.99363471        5        1      -0.00000100       0.00000192       0.00000364
H       -0.90447101       5.28131839       7.39094507        5        1       0.00000355      -0.00000115       0.00000099
H        0.20499531       2.59349816      14.58981465        5        1      -0.00000063      -0.00000031      -0.00000205
H        4.92902752      11.44071630      17.29179618        5        1      -0.00000189      -0.00000216      -0.00000274
H        8.88669495       2.63723665       9.99253595        5        1      -0.00000057      -0.00000190      -0.00000578
H       -0.55162388       2.62065247       8.68195201        6        1       0.00000175       0.00000382      -0.00000293
H       -1.66330533       5.66797570      15.73424576        6        1       0.00000028       0.00000152      -0.00000243
H        9.51172560       2.53254480      16.08039120        6        1       0.00000096       0.00000095       0.00000240
H        5.93537075      11.12418253       8.69852836        6        1       0.00000007      -0.00000227      -0.00000277
H        3.07184826      11.18140503       8.70883323        6        1       0.00000042      -0.00000087       0.00000024
H        1.12648381       2.47632301      15.83335625        6        1      -0.00000163       0.00000363       0.00000289
H        1.31167691       5.63116758      16.10828063        6        1       0.00000325       0.00000133       0.00000198
H        7.93129172       2.65052582       8.74490563        6        1       0.00000419      -0.00000294       0.00000056
Ca       3.83762706       1.17845797       6.40077729        0        1      -0.00000161       0.00000057       0.00000082
Ca       8.22574186       4.02329120      13.57912139        0        1      -0.00000072       0.00000103      -0.00000123
Ca       5.31390114       4.10466087      17.25926001        0        1      -0.00000128       0.00000271       0.00000148
Ca       6.63378285       1.15790396      11.13555664        0        1       0.00000045       0.00000092      -0.00000030
S        8.20956857       4.01807076       6.09182158        1        1      -0.00000177      -0.00000293      -0.00000160
S        3.75684770       1.14844211      13.42627333        1        1       0.00000044       0.00000100       0.00000177
S        6.43705562       0.83422278      18.64691897        1        1       0.00000220      -0.00000033      -0.00000001
S        5.38673682       4.03633777      11.27336537        1        1      -0.00000127      -0.00000126      -0.00000016
O        1.98829725       2.94979428       6.96435825        2        1      -0.00000270       0.00000358       0.00000530
O        3.33218306       0.04309650      14.30960090        2        1      -0.00000082      -0.00000262      -0.00000153
O        6.83670762       2.03546628      17.87765992        2        1      -0.00000158      -0.00000188       0.00000085
O        5.84147000       5.16826914      10.43298381        2        1      -0.00000523       0.00000243       0.00000361
O        8.78611929       5.11537661       6.94301342        2        1      -0.00000342      -0.00000378      -0.00000154
O        4.20463256       2.31767535      14.23178297        2        1       0.00000045       0.00000409      -0.00000063
O        0.20946476       0.07036743      18.10053536        2        1      -0.00000008      -0.00000236      -0.00000197
O        4.93162829       2.89978325      10.43991530        2        1       0.00000006       0.00000050      -0.00000447
O        3.59825540       3.38660369       5.31190125        3        1       0.00000053       0.00000054      -0.00000277
O        4.85650977       0.63874557      12.59787164        3        1      -0.00000230       0.00000199      -0.00000292
O        5.32322148       1.17014565      19.53833409        3        1       0.00000083      -0.00000016      -0.00000449
O        4.28956953       4.55572759      12.09961662        3        1      -0.00000147       0.00000330      -0.00000261
O        7.15437190       4.67094834       5.31417743        3        1      -0.00000094       0.00000144      -0.00000095
O        2.64709205       1.64743806      12.61060804        3        1      -0.00000048       0.00000398       0.00000532
O        1.97154738       0.89907121      19.41779930        3        1      -0.00000370      -0.00000334      -0.00000025
O        6.48304695       3.52285193      12.10397989        3        1      -0.00000366      -0.00000234       0.00000310
O        5.12598404       2.46451448       7.76249016        4        1       0.00000400       0.00000003       0.00000419
O        4.18022277       5.09783240      15.17965947        4        1       0.00000011       0.00000332       0.00000115
O        3.82891658       2.38882368      16.89083453        4        1      -0.00000044       0.00000364      -0.00000117
O        0.16923258      11.41795059       9.64300935        4        1       0.00000026       0.00000516       0.00000215
O       -2.61728994      11.35529560       7.73449603        4        1      -0.00000083      -0.00000587      -0.00000056
O        6.56771275       3.03506131      15.24174640        4        1       0.00000092       0.00000408      -0.00000168
O        6.92801840       5.72294736      16.94564649        4        1      -0.00000002      -0.00000049      -0.00000045
O        2.31283869       2.38450459       9.66327357        4        1      -0.00000259       0.00000027       0.00000374
H        5.99295077       2.78866079       7.42940160        5        1       0.00000290      -0.00000040      -0.00000039
H       -3.61094642      11.25427269      14.74794320        5        1      -0.00000108       0.00000067      -0.00000211
H        2.91352827       2.29742945      17.23720381        5        1       0.00000127      -0.00000156       0.00000277
H        7.57017049       5.40232436       9.96680172        5        1       0.00000205       0.00000106      -0.00000313
H        4.77366939       5.28347024       7.42493322        5        1       0.00000176      -0.00000226       0.00000054
H        5.80906411       2.69445883      14.70092790        5        1       0.00000150      -0.00000091       0.00000297
H       -0.77492804      10.87776382      17.29333040        5        1       0.00000212      -0.00000014      -0.00000133
H        3.19312550       2.65169982       9.99419786        5        1      -0.00000350       0.00000472       0.00000004
H        5.11409700       2.63477050       8.72655074        6        1       0.00000187      -0.00000071       0.00000526
H        3.88291830       5.94694372      15.54839468        6        1       0.00000319       0.00000224      -0.00000184
H        3.79314090       2.21507756      15.92755076        6        1       0.00000013      -0.00000069      -0.00000510
H        0.24350073      11.14098647       8.71244658        6        1      -0.00000270       0.00000292       0.00000318
H       -2.61816927      11.18406420       8.69905050        6        1       0.00000807       0.00000063       0.00000165
H        6.87046003       2.26121935      15.74652122        6        1      -0.00000109      -0.00000218       0.00000049
H        6.90824596       5.87349313      15.97528130        6        1       0.00000176      -0.00000028      -0.00000073
H        2.25253279       2.66280427       8.73233546        6        1       0.00000673      -0.00000032       0.00000344
Ca       1.25419194       6.90736308       6.38869837        0        1      -0.00000254       0.00000328      -0.00000240
Ca       5.64883180       9.73536163      13.52268775        0        1      -0.00000089       0.00000129      -0.00000299
Ca       2.79682793       9.78213977      18.20191347        0        1       0.00000405       0.00000168      -0.00000278
Ca       4.13389834       6.91297691      11.11675683        0        1      -0.00000367      -0.00000386       0.00000090
S        5.64738786       9.75599737       6.07699482        1        1      -0.00000072       0.00000020      -0.00000081
S        1.31797585       6.95079403      13.41725459        1        1      -0.00000189       0.00000036       0.00000007
S        4.19192232       7.19245675      18.68079738        1        1       0.00000031       0.00000034       0.00000029
S        2.80859045       9.77353857      11.22597720        1        1       0.00000250      -0.00000099       0.00000002
O       -0.59132067       8.68833486       6.95492238        2        1       0.00000070      -0.00000528       0.00000310
O        1.00732703       5.87540128      14.38794193        2        1      -0.00000321      -0.00000186      -0.00000287
O        4.61638336       8.30245288      17.75195716        2        1       0.00000005       0.00000192       0.00000176
O        3.26200505      10.91688898      10.40013985        2        1       0.00000267      -0.00000103       0.00000082
O        6.21571732      10.84693539       6.94152518        2        1      -0.00000167      -0.00000342       0.00000460
O        1.77287691       8.17845547      14.11385451        2        1      -0.00000124       0.00000076      -0.00000018
O       -1.80060971       5.99739644      17.40448970        2        1       0.00000129      -0.00000395       0.00000135
O        2.37029951       8.63608751      10.38389154        2        1       0.00000265       0.00000059      -0.00000072
O        1.01351274       9.11975341       5.29597122        3        1       0.00000086       0.00000063       0.00000221
O        2.38743197       6.41214658      12.56950347        3        1       0.00000013       0.00000568      -0.00000018
O        2.96779259       7.68863344      19.33115762        3        1      -0.00000015      -0.00000243       0.00000004
O        1.69556549      10.28164618      12.03650537        3        1      -0.00000237      -0.00000238      -0.00000549
O        4.59917542      10.41399809       5.29441359        3        1      -0.00000019       0.00000049      -0.00000218
O        0.13004991       7.33473752      12.65415269        3        1      -0.00000082      -0.00000441      -0.00000152
O       -0.58101504       6.00727142      19.40707401        3        1      -0.00000125       0.00000218       0.00000358
O        3.90615148       9.26002963      12.05539592        3        1       0.00000386      -0.00000522      -0.00000275
O        2.55959709       8.18615564       7.73272041        4        1       0.00000358       0.00000066      -0.00000014
O        1.23016289      11.13193216      14.98487479        4        1      -0.00000342      -0.00000029      -0.00000244
O        1.74927237       8.36041449      16.74845118        4        1       0.00000026       0.00000019       0.00000353
O        2.78072769       5.66197821       9.67133792        4        1      -0.00000073      -0.00000262       0.00000051
O       -0.04689531       5.61961357       7.73344213        4        1       0.00000333      -0.00000080      -0.00000089
O        4.38112459       8.37235393      15.00273351        4        1      -0.00000235       0.00000160      -0.00000160
O        4.04691142      11.22276750      16.90743877        4        1      -0.00000219       0.00000362      -0.00000275
O       -0.23993760       8.14265849       9.64596094        4        1       0.00000313       0.00000019      -0.00000050
H        3.42361345       8.51078824       7.39262685        5        1       0.00000415       0.00000223       0.00000167
H       -0.72526308       5.40709590      14.53255097        5        1      -0.00000128      -0.00000069       0.00000026
H        0.89700321       8.05260719      17.14412755        5        1      -0.00000059      -0.00000290       0.00000165
H        4.97365554      11.12478714       9.94718079        5        1      -0.00000099       0.00000000       0.00000051
H        2.20123393      11.02467649       7.40634798        5        1      -0.00000048       0.00000416       0.00000507
H        3.46394493       8.32107383      14.66224000        5        1       0.00000147       0.00000092      -0.00000472
H        2.18774559       5.66201698      17.41934590        5        1      -0.00000202      -0.00000262      -0.00000440
H        0.65006998       8.40564788       9.95689828        5        1       0.00000258       0.00000029       0.00000318
H        2.55260543       8.37018149       8.69544465        6        1      -0.00000415      -0.00000130       0.00000051
H        1.19336412      11.18076633      15.95929580        6        1       0.00000106      -0.00000116      -0.00000089
H        1.63048105       8.32757132      15.77778826        6        1      -0.00000127       0.00000346       0.00000298
H        2.83163041       5.40825451       8.73231641        6        1       0.00000266      -0.00000089      -0.00000011
H       -0.03919641       5.43633861       8.69600417        6        1       0.00000219       0.00000062      -0.00000060
H        4.33796434       8.35416597      15.97903001        6        1       0.00000504      -0.00000189      -0.00000081
H        4.13289001      11.28304293      15.93366912        6        1       0.00000236       0.00000611      -0.00000112
H       -0.31500898       8.41075426       8.71252813        6        1      -0.00000505      -0.00000618      -0.00000240
Ca       6.92821840       6.88823887       6.39007414        0        1      -0.00000203      -0.00000112      -0.00000209
Ca      -0.04586240       9.80182039      13.51001025        0        1       0.00000249      -0.00000126       0.00000094
Ca      -3.08341762       9.91959636      18.76332557        0        1       0.00000154      -0.00000039       0.00000124
Ca      -1.56918318       6.89906468      11.10245670        0        1      -0.00000183      -0.00000299       0.00000052
S       -0.02755900       9.77917469       6.08635848        1        1       0.00000026      -0.00000224       0.00000308
S        7.00334122       6.92034025      13.43759265        1        1       0.00000045      -0.00000015       0.00000065
S       -1.32553671       6.90401467      18.50845201        1        1      -0.00000222      -0.00000116       0.00000064
S       -2.87824960       9.76556560      11.22929853        1        1      -0.00000109      -0.00000299       0.00000041
O        5.08923244       8.66728623       6.95259819        2        1       0.00000272      -0.00000169      -0.00000186
O        6.57956758       5.75561785      14.26550339        2        1       0.00000045      -0.00000052       0.00000092
O       -0.51825228       8.00233717      17.99458276        2        1      -0.00000282      -0.00000315      -0.00000318
O       -2.43659696      10.90961005      10.40029887        2        1      -0.00000258      -0.00000025       0.00000479
O        0.53700744      10.86691968       6.95846336        2        1       0.00000252       0.00000050      -0.00000261
O        7.43188585       8.03628837      14.30524269        2        1      -0.00000363       0.00000039       0.00000195
O        3.90016259       5.98234948      17.88971914        2        1       0.00000077      -0.00000124      -0.00000064
O       -3.31244336       8.62666468      10.38784093        2        1      -0.00000059      -0.00000171      -0.00000402
O        6.68309231       9.09354348       5.28234005        3        1      -0.00000137      -0.00000384       0.00000201
O        8.10116681       6.42136461      12.60897412        3        1       0.00000081       0.00000166      -0.00000065
O       -2.51700976       7.49080547      19.16146252        3        1      -0.00000245      -0.00000256      -0.00000124
O       -3.98913077      10.26479583      12.05071400        3        1       0.00000048      -0.00000050       0.00000060
O       -1.06928837      10.44174089       5.29941680        3        1       0.00000428      -0.00000292      -0.00000090
O        5.88332839       7.41167673      12.62459378        3        1      -0.00000035       0.00000128       0.00000218
O        5.26821860       6.94913623      19.63406311        3        1      -0.00000037       0.00000817       0.00000152
O       -1.77778485       9.25928031      12.05858685        3        1       0.00000036       0.00000586       0.00000353
O       -3.12389460       8.18877829       7.71930423        4        1       0.00000192       0.00000115      -0.00000237
O       -4.50159198      11.02691707      15.08401950        4        1      -0.00000074       0.00000374      -0.00000066
O        7.08098510       8.96660428      16.92793505        4        1      -0.00000121       0.00000232       0.00000117
O        8.44074103       5.68988194       9.62698077        4        1       0.00000375      -0.00000102       0.00000013
O        5.63747937       5.61378826       7.76005710        4        1       0.00000070      -0.00000030      -0.00000013
O       -1.25534215       8.54597302      15.09721903        4        1       0.00000017      -0.00000064       0.00000155
O       -1.66833613      10.61986937      16.96642673        4        1      -0.00000042       0.00000073       0.00000046
O        5.44316375       8.14323657       9.64312586        4        1       0.00000220      -0.00000168      -0.00000297
H       -2.26170296       8.52013487       7.38115063        5        1       0.00000341       0.00000128       0.00000194
H        4.97828299       5.35413737      14.64583936        5        1       0.00000282      -0.00000135      -0.00000113
H        6.20658822       8.64100851      17.25317441        5        1      -0.00000177       0.00000085      -0.00000203
H       -0.71543546      11.14876735       9.96338172        5        1       0.00000145      -0.00000182      -0.00000346
H       -3.47336372      11.01662646       7.38876744        5        1      -0.00000481       0.00000169      -0.00000103
H       -2.13890586       8.31141747      14.74697127        5        1       0.00000108       0.00000037      -0.00000185
H        7.87012417       5.83991511      17.20753489        5        1      -0.00000321      -0.00000290       0.00000260
H        6.33439269       8.40173902       9.95540298        5        1       0.00000127      -0.00000411       0.00000488
H       -3.12698160       8.35686773       8.68422925        6        1       0.00000169      -0.00000266      -0.00000168
H       -4.37535413      10.51057092      15.90616310        6        1      -0.00000027      -0.00000256       0.00000185
H        7.29531723       8.40897355      16.15792210        6        1      -0.00000108       0.00000330      -0.00000242
H        8.50698126       5.40149868       8.69940575        6        1      -0.00000186      -0.00000140       0.00000043
H        5.65248433       5.43416081       8.72230830        6        1       0.00000274      -0.00000217      -0.00000020
H       -1.40651704       9.02562002      15.93568880        6        1      -0.00000544       0.00000269       0.00000000
H       -1.80563126      11.14848757      16.15746382        6        1       0.00000249       0.00000047      -0.00000126
H        5.37210247       8.40381054       8.70733009        6        1      -0.00000464       0.00000013      -0.00000245
O       -1.58630260       5.32856908      27.51331283        0        0      -0.00000094       0.00000180      -0.00000480
H       -1.09381156       4.88079882      28.23420938        0        0       0.00000007       0.00000239       0.00000428
H       -1.53698293       6.26374048      27.79744816        0        0      -0.00000125       0.00000332       0.00000008
O        7.36921440       4.36691552      28.14039325        0        0      -0.00000033      -0.00000201       0.00000154
H        8.25366203       4.75728865      27.87768090        0        0       0.00000411      -0.00000057      -0.00000049
H        7.56832178       3.68052942      28.78801175        0        0       0.00000013      -0.00000094      -0.00000340
O       -1.37394545       6.97619534      22.04148006        0        0      -0.00000020       0.00000045      -0.00000351
H       -0.60694494       7.41283600      21.60924178        0        0       0.00000027      -0.00000261       0.00000414
H       -2.59190609       7.52967964      22.02680702        0        0       0.00000190       0.00000036      -0.00000307
O        6.36288510       7.93024122      24.77491048        0        0       0.00000484       0.00000419      -0.00000041
H        6.01798524       8.49235068      24.01019426        0        0      -0.00000186       0.00000205       0.00000055
H        5.65426358       7.78187898      25.42247113        0        0      -0.00000139      -0.00000033       0.00000210
O       -0.79532041       4.45844967      30.05358534        0        0      -0.00000351       0.00000049      -0.00000002
H       -1.49752352       5.14679166      30.29669668        0        0      -0.00000013       0.00000103      -0.00000026
H        0.03534704       4.83000018      30.37498538        0        0       0.00000155       0.00000097      -0.00000163
O        5.12716215       3.78401426      19.60173684        0        0      -0.00000336       0.00000022       0.00000261
H        5.29857494       2.80304911      19.61372893        0        0       0.00000167      -0.00000066       0.00000229
H        4.22061602       3.75708586      20.01985966        0        0       0.00000066       0.00000230      -0.00000033
O       10.19326484       1.68355780      30.36904634        0        0      -0.00000417      -0.00000361      -0.00000009
H       -0.96071253       2.63520031      30.24042094        0        0       0.00000567       0.00000015      -0.00000332
H        9.68992910       1.65130336      31.18824637        0        0       0.00000642       0.00000325       0.00000281
O        5.19717666       2.02619599      24.36646838        0        0      -0.00000350      -0.00000337      -0.00000264
H        4.29994321       1.74871022      24.08964895        0        0       0.00000743       0.00000168       0.00000046
H        5.13291662       2.69167327      25.07813863        0        0       0.00000631       0.00000212       0.00000080
O        3.02291943       2.94374901      20.88595910        0        0      -0.00000613       0.00000094      -0.00000150
H        3.31545537       2.33761524      21.60321648        0        0       0.00000140       0.00000250       0.00000026
H        2.62759769       2.29453014      20.26852382        0        0       0.00000318      -0.00000453      -0.00000154
O        4.60687058       6.70110106      26.68474277        0        0       0.00000005      -0.00000529      -0.00000233
H        3.67575959       6.91534409      26.80146982        0        0       0.00000559       0.00000199       0.00000124
H        5.03476779       6.76954713      27.58894326        0        0      -0.00000303      -0.00000172       0.00000166
O        5.84005847      10.35496955      30.35610816        0        0      -0.00000289      -0.00000135       0.00000181
H        6.55155180       9.95772094      29.81890647        0        0       0.00000082      -0.00000258       0.00000246
H        5.77586413      11.30164946      30.14203839        0        0       0.00000107      -0.00000115       0.00000025
O        0.68395432       8.43918496      20.91624001        0        0       0.00000202      -0.00000297       0.00000264
H        0.13595835       8.96683712      20.30370603        0        0      -0.00000171       0.00000119      -0.00000237
H        1.31970180       7.92004833      20.39817786        0        0       0.00000179       0.00000396      -0.00000399
O        0.90066705       7.84966928      30.41391437        0        0      -0.00000228       0.00000142       0.00000541
H        0.44304220       8.33467143      31.11497269        0        0       0.00000097      -0.00000029       0.00000073
H        1.88660228       8.06774018      30.46016248        0        0       0.00000088      -0.00000115       0.00000016
O       -1.15949612      10.30051630      20.13566939        0        0       0.00000077       0.00000310      -0.00000106
H       -0.77569418      11.20242156      20.04308348        0        0      -0.00000349      -0.00000503       0.00000158
H       -1.73217585      10.30646670      20.94858586        0        0      -0.00000162      -0.00000199       0.00000005
O        5.83052527       6.60590172      28.99981603        0        0      -0.00000373      -0.00000253       0.00000354
H        6.34176330       5.78304700      28.86049043        0        0      -0.00000072      -0.00000401      -0.00000305
H        6.54032320       7.30908996      29.16214796        0        0      -0.00000006       0.00000005      -0.00000069
O        5.63900772       4.20302986      26.03931410        0        0      -0.00000161      -0.00000056      -0.00000222
H        5.09212860       4.99074573      26.24345127        0        0       0.00000269       0.00000430       0.00000141
H        6.24119722       4.10514942      26.80955864        0        0       0.00000036      -0.00000076       0.00000266
O        6.65911759       6.16504201      32.15267379        0        0      -0.00000118       0.00000016       0.00000569
H        7.45635439       6.08094487      31.58220429        0        0       0.00000159      -0.00000326      -0.00000349
H        5.93466579       6.07790270      31.52204780        0        0      -0.00000103       0.00000196      -0.00000039
O        7.08237031       5.45810806      24.02634620        0        0       0.00000080       0.00000078       0.00000631
H        6.67036841       4.99583298      24.78764986        0        0       0.00000357       0.00000304      -0.00000090
H        6.80868141       6.40758886      24.15214856        0        0       0.00000228       0.00000125      -0.00000121
O        3.44888829       0.91659190      22.67438877        0        0      -0.00000436       0.00000166      -0.00000159
H        4.12388617       0.16632648      22.76726870        0        0       0.00000097      -0.00000242       0.00000274
H        2.61826541       0.44010686      22.49622873        0        0       0.00000141       0.00000018       0.00000183
O       -2.57436599       9.44290469      24.73523589        0        0      -0.00000043      -0.00000403       0.00000261
H       -2.71068089       9.84571956      23.86191434        0        0       0.00000073      -0.00000386      -0.00000071
H       -3.43710908       9.03275881      24.94194532        0        0      -0.00000003       0.00000121      -0.00000247
N        8.53450879       2.82508557      20.46210096        0        0      -0.00000050       0.00000282      -0.00000013
H        9.53956454       2.83780243      20.61430042        0        0       0.00000107       0.00000237       0.00000122
H        8.38682805       3.07554028      19.48754334        0        0       0.00000203       0.00000036      -0.00000626
H        8.30124848       1.82854749      20.43884840        0        0       0.00000053      -0.00000116       0.00000097
N        0.05063535      10.44132523      23.19370449        0        0       0.00000502       0.00000235      -0.00000330
H        0.80675652      10.93855187      23.65251060        0        0       0.00000211      -0.00000269      -0.00000277
H        0.44244037       9.82774450      22.48109282        0        0       0.00000065      -0.00000475      -0.00000337
H       -0.40786442       9.86559245      23.89734935        0        0      -0.00000211       0.00000138       0.00000084
N        3.62099739       8.20167193      30.60865232        0        0       0.00000508       0.00000096      -0.00000041
H        4.15029538       9.05216516      30.39484952        0        0      -0.00000268      -0.00000633      -0.00000068
H        4.08355334       7.46005268      30.08254121        0        0      -0.00000297       0.00000226       0.00000152
H        3.82866179       8.00466588      31.58493985        0        0       0.00000101       0.00000297      -0.00000488
N       -3.94109241       9.01077694      32.61211046        0        0      -0.00000018       0.00000335      -0.00000217
H        6.98748644       8.07810893      32.64258253        0        0      -0.00000379      -0.00000012      -0.00000087
H       -2.62088923       8.82806459      31.83659995        0        0      -0.00000037       0.00000089       0.00000069
H       -3.84591265       9.36431991      33.55338822        0        0      -0.00000115      -0.00000160       0.00000036
H        6.80841643       9.63518182      32.07996930        0        0      -0.00000133       0.00000127       0.00000200
N       -1.52869697       6.64750795      24.61799128        0        0       0.00000363      -0.00000028       0.00000291
H       -2.38290717       6.09233396      24.60601816        0        0       0.00000307      -0.00000323      -0.00000037
H       -0.90138737       6.23203410      25.29332928        0        0      -0.00000169       0.00000209      -0.00000228
H       -1.77674199       7.59801206      24.89874971        0        0      -0.00000167      -0.00000283      -0.00000237
H       -1.21293565       6.84461204      23.03876250        0        0      -0.00000070      -0.00000023      -0.00000090
N        7.43708060       5.58870156      20.53322210        0        0      -0.00000267       0.00000053      -0.00000015
H        7.97722862       4.73510530      20.72103814        0        0       0.00000071      -0.00000203       0.00000089
H        7.32886834       6.18878237      21.37093359        0        0      -0.00000087       0.00000101       0.00000014
H        6.51892372       5.36640143      20.14198552        0        0       0.00000060       0.00000006      -0.00000068
H        7.94845134       6.22572458      19.88745855        0        0      -0.00000251      -0.00000091      -0.00000443
N        6.29258154       3.50803744      22.31992833        0        0       0.00000033      -0.00000047       0.00000144
H        6.56939751       4.36009454      22.87013084        0        0       0.00000076       0.00000126      -0.00000141
H        5.59875305       3.73725886      21.60345526        0        0      -0.00000208       0.00000028       0.00000114
H        5.89062294       2.82720237      23.00657563        0        0      -0.00000105       0.00000092      -0.00000126
H        7.11792001       3.13254541      21.81290670        0        0       0.00000061       0.00000127      -0.00000139
P        7.08661831       9.14171873      21.82481733        0        0      -0.00000010      -0.00000137      -0.00000316
O       -3.17213693      10.17703350      21.84315124        0        0      -0.00000030      -0.00000030       0.00000197
O        5.89999021       9.35081613      22.69390691        0        0       0.00000077       0.00000029      -0.00000203
O        7.70056200       7.72520604      22.11610258        0        0       0.00000038       0.00000450       0.00000306
O        6.63302969       9.08610366      20.27201498        0        0       0.00000464       0.00000521       0.00000150
H        6.04868230       8.29948937      20.05423545        0        0      -0.00000162      -0.00000433      -0.00000195
P       -2.40900138       7.73280197      30.00231967        0        0       0.00000030       0.00000134      -0.00000083
O       -3.66804280       8.34518027      29.45028639        0        0      -0.00000123       0.00000078       0.00000019
O       -2.58848835       6.27766290      30.41472899        0        0       0.00000142      -0.00000024      -0.00000130
O       -1.82843303       8.58451790      31.17927653        0        0      -0.00000051       0.00000026       0.00000299
O       -1.26083174       7.79526031      28.89393073        0        0      -0.00000113       0.00000167       0.00000123
H       -0.34483808       7.85694370      29.29281397        0        0       0.00000112       0.00000157       0.00000013
