 DBCSR| CPU Multiplication driver                                           XSMM (U)
 DBCSR| Multrec recursion limit                                              512 (U)
 DBCSR| Multiplication stack size                                           1000 (D)
 DBCSR| Maximum elements for images                                    UNLIMITED (U)
 DBCSR| Multiplicative factor virtual images                                   1 (U)
 DBCSR| Use multiplication densification                                       T (D)
 DBCSR| Multiplication size stacks                                             3 (U)
 DBCSR| Use memory pool for CPU allocation                                     F (U)
 DBCSR| Number of 3D layers                                               SINGLE (U)
 DBCSR| Use MPI memory allocation                                              F (U)
 DBCSR| Use RMA algorithm                                                      F (U)
 DBCSR| Use Communication thread                                               T (U)
 DBCSR| Communication thread load                                             87 (D)
 DBCSR| MPI: My process id                                                     0
 DBCSR| MPI: Number of processes                                             192
 DBCSR| OMP: Current number of threads                                         1
 DBCSR| OMP: Max number of threads                                             1
 DBCSR| Split modifier for TAS multiplication algorithm                  1.0E+00 (U)


  **** **** ******  **  PROGRAM STARTED AT               2026-08-23 23:00:34.307
 ***** ** ***  *** **   PROGRAM STARTED ON                                 n0522
 **    ****   ******    PROGRAM STARTED BY                              tangsiqi
 ***** **    ** ** **   PROGRAM PROCESS ID                               2812924
  **** **  *******  **  PROGRAM STARTED IN /scratch/tangsiqi/liyi_folder/AI_phos
                                           phogypsum/2.CP2K_GeoOpt/2.2.1CSO-2H2O
                                           +NH4

 CP2K| version string:                                       CP2K version 2026.2
 CP2K| source code revision number:                                  git:c92cc08
 CP2K| cp2kflags: omp libint fftw3 libxc elpa parallel scalapack mpi_f08 cosma l
 CP2K|            ibxs libxsmm plumed2 spglib libdftd4 dftd4_v4_2 s_dftd3 mctc-l
 CP2K|            lib tblite libvori libbqb mimic hdf5 trexio libsmeagol greenx
 CP2K| is freely available from                            https://www.cp2k.org/
 CP2K| Program compiled at                                   2026-08-15 22:43:53
 CP2K| Program compiled on                                                 n0529
 CP2K| Program compiled for                                               x86_64
 CP2K| Data directory path          /scratch/tangsiqi/CP2K_pkg/cp2k-v202602/data
 CP2K| Input file name                                               geo_opt.inp

 GLOBAL| Force Environment number                                              1
 GLOBAL| Basis set file name                                    BASIS_MOLOPT_UZH
 GLOBAL| Potential file name                                       POTENTIAL_UZH
 GLOBAL| MM Potential file name                                     MM_POTENTIAL
 GLOBAL| Coordinate file name                              2.2.1CSO-2H2O+NH4.xyz
 GLOBAL| Method name                                                        CP2K
 GLOBAL| Project name                                     gypsum_slab_nh4_geoopt
 GLOBAL| Run type                                                        GEO_OPT
 GLOBAL| FFT library                                                       FFTW3
 GLOBAL| Diagonalization library                                            ELPA
 GLOBAL| Cholesky decomposition library                                ScaLAPACK
 GLOBAL| DGEMM library                                                      BLAS
 GLOBAL| Minimum number of eigenvectors for ELPA usage                        64
 GLOBAL| Orthonormality check for eigenvectors                          DISABLED
 GLOBAL| Matrix multiplication library                                     COSMA
 GLOBAL| All-to-all communication in single precision                          F
 GLOBAL| FFTs using library dependent lengths                                  T
 GLOBAL| Grid backend                                                       AUTO
 GLOBAL| Global print level                                                  LOW
 GLOBAL| MPI I/O enabled                                                       T
 GLOBAL| Total number of message passing processes                           192
 GLOBAL| Number of distributed systems (nodes)                                 1
 GLOBAL| Number of threads for this process                                    1
 GLOBAL| This output is from process                                           0
 GLOBAL| OpenMP stack size per thread (OMP_STACKSIZE)                       128M
 GLOBAL| CPU model name                          AMD EPYC 9A14 96-Core Processor
 GLOBAL| CPUID                                                              1003

 MEMORY| system memory details [Kb]
 MEMORY|                        rank 0           min           max       average
 MEMORY| MemTotal            791724240     791724240     791724240     791724240
 MEMORY| MemFree             718936360     718926932     718936868     718935905
 MEMORY| Buffers                299228        299228        299228        299228
 MEMORY| Cached               33949912      33949912      33949912      33949912
 MEMORY| Slab                  1895144       1895112       1895144       1895141
 MEMORY| SReclaimable           630024        630024        630024        630024
 MEMORY| MemLikelyFree       753815524     753806096     753816032     753815069


 GENERATE|  Preliminary Number of Bonds generated:                             0
 GENERATE|  Achieved consistency in connectivity generation.

 *******************************************************************************
 *******************************************************************************
 **                                                                           **
 **     #####                         ##              ##                      **
 **    ##   ##            ##          ##              ##                      **
 **   ##     ##                       ##            ######                    **
 **   ##     ##  ##   ##  ##   #####  ##  ##   ####   ##    #####    #####    **
 **   ##     ##  ##   ##  ##  ##      ## ##   ##      ##   ##   ##  ##   ##   **
 **   ##  ## ##  ##   ##  ##  ##      ####     ###    ##   ######   ######    **
 **    ##  ###   ##   ##  ##  ##      ## ##      ##   ##   ##       ##        **
 **     #######   #####   ##   #####  ##  ##  ####    ##    #####   ##        **
 **           ##                                                    ##        **
 **                                                                           **
 **                                                ... make the atoms dance   **
 **                                                                           **
 **            Copyright (C) by CP2K developers group (2000-2026)             **
 **                      J. Chem. Phys. 152, 194103 (2020)                    **
 **                                                                           **
 *******************************************************************************


 TOTAL NUMBERS AND MAXIMUM NUMBERS

  Total number of            - Atomic kinds:                                   6
                             - Atoms:                                        296
                             - Shell sets:                                   296
                             - Shells:                                      1627
                             - Primitive Cartesian functions:               1478
                             - Cartesian basis functions:                   4291
                             - Spherical basis functions:                   3995

  Maximum angular momentum of- Orbital basis functions:                        2
                             - Local part of the GTH pseudopotential:          2
                             - Non-local part of the GTH pseudopotential:      3


 SCF PARAMETERS         Density guess:                                    ATOMIC
                        --------------------------------------------------------
                        max_scf:                                             200
                        max_scf_history:                                       0
                        max_diis:                                              4
                        --------------------------------------------------------
                        eps_scf:                                        1.50E-06
                        eps_scf_history:                                0.00E+00
                        eps_diis:                                       0.00E+00
                        eps_eigval:                                     1.00E-05
                        --------------------------------------------------------
                        level_shift [a.u.]:                             0.000000
                        --------------------------------------------------------
                        Outer loop SCF in use 
                        No variables optimised in outer loop
                        eps_scf                                         1.50E-06
                        max_scf                                               30
                        No outer loop optimization
                        step_size                                       5.00E-01

 BFGS| Use rational function optimization for step estimation:                NO
 BFGS| Use model Hessian for initial guess:                                  YES
 BFGS| Restart Hessian:                                                       NO
 BFGS| Trust radius:                                                       0.378

 *******************************************************************************
 ***                     STARTING GEOMETRY OPTIMIZATION                      ***
 ***                                   BFGS                                  ***
 *******************************************************************************

 Extrapolation method: initial_guess

 Number of electrons:                                                       1176
 Number of occupied orbitals:                                                588
 Number of molecular orbitals:                                               588

 Number of orbital functions:                                               3995
 Number of independent orbital functions:                                   3995


 SCF WAVEFUNCTION OPTIMIZATION

  ----------------------------------- OT ---------------------------------------
  Minimizer      : CG                  : conjugate gradient
  Preconditioner : FULL_ALL            : diagonalization, state selective
  Precond_solver : DEFAULT
  Line search    : 2PNT                : 2 energies, one gradient
  stepsize       :    0.15000000                  energy_gap     :    0.00100000
  eps_taylor     :   0.10000E-15                  max_taylor     :             4
  ----------------------------------- OT ---------------------------------------

  Step     Update method      Time    Convergence         Total energy    Change
  ------------------------------------------------------------------------------
     1 OT CG       0.15E+00   10.9     0.10710921     -2631.7016739597 -2.63E+03
     - OT LS       0.50E-01    1.4                     -563.9790026826
     2 OT CG       0.50E-01    2.2     0.42611193      -850.3193826634  1.78E+03
     - OT LS       0.23E-01    1.2                      477.5987861156
     3 OT CG       0.23E-01    2.3     0.28392669     -2191.8482536696 -1.34E+03
     - OT LS       0.11E-01    1.2                    -2165.3212283483
     4 OT CG       0.11E-01    2.1     0.21786186     -2413.1266021815 -2.21E+02
     - OT LS       0.67E-02    1.2                    -2608.7858267322
     5 OT CG       0.67E-02    2.1     0.02437768     -2763.3985193494 -3.50E+02
     - OT LS       0.27E-01    1.2                    -2770.9711620515
     6 OT CG       0.27E-01    2.0     0.01323016     -2782.5245084196 -1.91E+01
     - OT LS       0.65E-01    1.2                    -2791.7570292989
     7 OT CG       0.65E-01    2.0     0.02766198     -2796.0418850714 -1.35E+01
     - OT LS       0.28E-01    1.2                    -2779.0266672187
     8 OT CG       0.28E-01    2.0     0.01773389     -2810.3916211892 -1.43E+01
     - OT LS       0.40E-01    1.2                    -2822.0048047408
     9 OT CG       0.40E-01    2.0     0.01347826     -2823.4394708813 -1.30E+01
     - OT LS       0.33E-01    1.2                    -2830.5506303194
    10 OT CG       0.33E-01    2.0     0.01894329     -2830.8648974757 -7.43E+00
     - OT LS       0.41E-01    1.2                    -2847.4146355304
    11 OT CG       0.41E-01    2.0     0.01200550     -2848.4213576942 -1.76E+01
     - OT LS       0.15E-01    1.2                    -2842.7906037219
    12 OT CG       0.15E-01    2.0     0.00648075     -2850.7760335401 -2.35E+00
     - OT LS       0.58E-01    1.2                    -2852.0856692077
    13 OT CG       0.58E-01    1.9     0.00471463     -2855.0909918356 -4.31E+00
     - OT LS       0.65E-01    1.2                    -2856.7682784984
    14 OT CG       0.65E-01    1.9     0.00880979     -2856.7825015138 -1.69E+00
     - OT LS       0.16E-01    1.2                    -2844.1479189571
    15 OT CG       0.16E-01    1.9     0.00456106     -2858.1045657686 -1.32E+00
     - OT LS       0.63E-01    1.2                    -2858.7984932965
    16 OT CG       0.63E-01    1.9     0.00448579     -2860.7381166003 -2.63E+00
     - OT LS       0.37E-01    1.2                    -2861.2011705066
    17 OT CG       0.37E-01    1.9     0.00602284     -2861.6427562503 -9.05E-01
     - OT LS       0.15E+00    1.2                    -2864.5163700958
    18 OT CG       0.15E+00    1.9     0.00894152     -2870.0941664280 -8.45E+00
     - OT LS       0.71E-01    1.2                    -2868.9394021070
    19 OT CG       0.71E-01    1.9     0.01168367     -2874.1994273248 -4.11E+00
     - OT LS       0.24E-01    1.2                    -2862.3781292521
    20 OT CG       0.24E-01    1.9     0.00240739     -2878.1181433245 -3.92E+00
     - OT LS       0.94E-01    1.2                    -2878.4329058842
    21 OT CG       0.94E-01    1.9     0.00224964     -2879.2782117402 -1.16E+00
     - OT LS       0.38E+00    1.2                    -2880.3417509840
    22 OT CG       0.38E+00    1.9     0.00595307     -2881.7591188853 -2.48E+00
     - OT LS       0.82E-01    1.2                    -2841.5537454132
    23 OT CG       0.82E-01    1.9     0.00443893     -2886.4138419493 -4.65E+00
     - OT LS       0.53E-01    1.2                    -2887.2446299022
    24 OT CG       0.53E-01    1.9     0.00229700     -2887.5969806622 -1.18E+00
     - OT LS       0.20E+00    1.2                    -2888.1603626387
    25 OT CG       0.20E+00    1.9     0.00214199     -2888.8208426842 -1.22E+00
     - OT LS       0.18E+00    1.2                    -2889.7956638580
    26 OT CG       0.18E+00    1.9     0.00244071     -2889.8043351114 -9.83E-01
     - OT LS       0.13E+00    1.2                    -2890.6359638899
    27 OT CG       0.13E+00    1.9     0.00287913     -2890.7390216248 -9.35E-01
     - OT LS       0.25E+00    1.2                    -2892.6443914210
    28 OT CG       0.25E+00    1.9     0.00309851     -2892.9519693900 -2.21E+00
     - OT LS       0.69E-01    1.2                    -2889.3539347762
    29 OT CG       0.69E-01    1.9     0.00202707     -2893.5902602706 -6.38E-01
     - OT LS       0.13E+00    1.2                    -2894.0803743337
    30 OT CG       0.13E+00    1.9     0.00157044     -2894.2425893416 -6.52E-01
     - OT LS       0.10E+00    1.2                    -2894.5405862594
    31 OT CG       0.10E+00    1.9     0.00139243     -2894.5619657501 -3.19E-01
     - OT LS       0.17E+00    1.2                    -2894.8938280929
    32 OT CG       0.17E+00    1.9     0.00122974     -2894.9536986972 -3.92E-01
     - OT LS       0.14E+00    1.2                    -2895.1796317350
    33 OT CG       0.14E+00    1.9     0.00147800     -2895.1956058763 -2.42E-01
     - OT LS       0.16E+00    1.2                    -2895.5920771015
    34 OT CG       0.16E+00    1.9     0.00126034     -2895.5978597210 -4.02E-01
     - OT LS       0.12E+00    1.2                    -2895.8116312150
    35 OT CG       0.12E+00    1.9     0.00115208     -2895.8276658101 -2.30E-01
     - OT LS       0.15E+00    1.2                    -2896.0542375961
    36 OT CG       0.15E+00    1.9     0.00105737     -2896.0614365002 -2.34E-01
     - OT LS       0.10E+00    1.2                    -2896.1630154073
    37 OT CG       0.10E+00    1.9     0.00079923     -2896.1945261939 -1.33E-01
     - OT LS       0.18E+00    1.2                    -2896.3035015939
    38 OT CG       0.18E+00    1.9     0.00092133     -2896.3301548561 -1.36E-01
     - OT LS       0.12E+00    1.2                    -2896.4169891374
    39 OT CG       0.12E+00    1.9     0.00078490     -2896.4489092543 -1.19E-01
     - OT LS       0.15E+00    1.2                    -2896.5523297335
    40 OT CG       0.15E+00    1.9     0.00082951     -2896.5565053988 -1.08E-01
     - OT LS       0.13E+00    1.2                    -2896.6614708088
    41 OT CG       0.13E+00    1.9     0.00068231     -2896.6631426069 -1.07E-01
     - OT LS       0.14E+00    1.2                    -2896.7383927370
    42 OT CG       0.14E+00    1.9     0.00073936     -2896.7385386265 -7.54E-02
     - OT LS       0.15E+00    1.2                    -2896.8361885405
    43 OT CG       0.15E+00    1.9     0.00066164     -2896.8372209947 -9.87E-02
     - OT LS       0.12E+00    1.2                    -2896.8978764666
    44 OT CG       0.12E+00    1.9     0.00061425     -2896.9013029843 -6.41E-02
     - OT LS       0.15E+00    1.2                    -2896.9665447091
    45 OT CG       0.15E+00    1.9     0.00062716     -2896.9687528064 -6.74E-02
     - OT LS       0.13E+00    1.2                    -2897.0253310917
    46 OT CG       0.13E+00    1.9     0.00055692     -2897.0275637593 -5.88E-02
     - OT LS       0.15E+00    1.2                    -2897.0800714257
    47 OT CG       0.15E+00    1.9     0.00056588     -2897.0810035279 -5.34E-02
     - OT LS       0.13E+00    1.2                    -2897.1289799122
    48 OT CG       0.13E+00    1.9     0.00050701     -2897.1298064542 -4.88E-02
     - OT LS       0.14E+00    1.2                    -2897.1728513037
    49 OT CG       0.14E+00    1.9     0.00051288     -2897.1732846343 -4.35E-02
     - OT LS       0.15E+00    1.2                    -2897.2208536285
    50 OT CG       0.15E+00    1.9     0.00050165     -2897.2210829829 -4.78E-02
     - OT LS       0.13E+00    1.2                    -2897.2569515535
    51 OT CG       0.13E+00    1.9     0.00045419     -2897.2586740814 -3.76E-02
     - OT LS       0.15E+00    1.2                    -2897.2936376247
    52 OT CG       0.15E+00    1.9     0.00044450     -2897.2943004094 -3.56E-02
     - OT LS       0.14E+00    1.2                    -2897.3263689464
    53 OT CG       0.14E+00    1.9     0.00042041     -2897.3264805620 -3.22E-02
     - OT LS       0.14E+00    1.2                    -2897.3557077023
    54 OT CG       0.14E+00    1.9     0.00041518     -2897.3557163101 -2.92E-02
     - OT LS       0.14E+00    1.2                    -2897.3848841932
    55 OT CG       0.14E+00    1.9     0.00039328     -2897.3849014161 -2.92E-02
     - OT LS       0.14E+00    1.2                    -2897.4096289113
    56 OT CG       0.14E+00    1.9     0.00037852     -2897.4097004802 -2.48E-02
     - OT LS       0.15E+00    1.2                    -2897.4343953163
    57 OT CG       0.15E+00    1.9     0.00037489     -2897.4345444355 -2.48E-02
     - OT LS       0.14E+00    1.2                    -2897.4570144242
    58 OT CG       0.14E+00    1.9     0.00035023     -2897.4571447276 -2.26E-02
     - OT LS       0.14E+00    1.2                    -2897.4776980173
    59 OT CG       0.14E+00    1.9     0.00033838     -2897.4777402951 -2.06E-02
     - OT LS       0.14E+00    1.2                    -2897.4963635278
    60 OT CG       0.14E+00    1.9     0.00032323     -2897.4963792914 -1.86E-02
     - OT LS       0.14E+00    1.2                    -2897.5141312361
    61 OT CG       0.14E+00    1.8     0.00031750     -2897.5141692377 -1.78E-02
     - OT LS       0.14E+00    1.2                    -2897.5310740318
    62 OT CG       0.14E+00    1.9     0.00030667     -2897.5310767992 -1.69E-02
     - OT LS       0.14E+00    1.2                    -2897.5462620326
    63 OT CG       0.14E+00    1.9     0.00028882     -2897.5462801092 -1.52E-02
     - OT LS       0.14E+00    1.2                    -2897.5602916166
    64 OT CG       0.14E+00    1.9     0.00028250     -2897.5603161767 -1.40E-02
     - OT LS       0.14E+00    1.2                    -2897.5738026917
    65 OT CG       0.14E+00    1.9     0.00027555     -2897.5738032972 -1.35E-02
     - OT LS       0.14E+00    1.2                    -2897.5861881074
    66 OT CG       0.14E+00    1.9     0.00026152     -2897.5862000289 -1.24E-02
     - OT LS       0.14E+00    1.2                    -2897.5976745428
    67 OT CG       0.14E+00    1.9     0.00025250     -2897.5976855650 -1.15E-02
     - OT LS       0.14E+00    1.2                    -2897.6083953027
    68 OT CG       0.14E+00    1.9     0.00024641     -2897.6083952717 -1.07E-02
     - OT LS       0.14E+00    1.2                    -2897.6185893030
    69 OT CG       0.14E+00    1.9     0.00023776     -2897.6185891987 -1.02E-02
     - OT LS       0.14E+00    1.2                    -2897.6281136730
    70 OT CG       0.14E+00    1.9     0.00022837     -2897.6281139391 -9.52E-03
     - OT LS       0.14E+00    1.2                    -2897.6366954629
    71 OT CG       0.14E+00    1.9     0.00021942     -2897.6366987334 -8.58E-03
     - OT LS       0.14E+00    1.2                    -2897.6448897537
    72 OT CG       0.14E+00    1.9     0.00021443     -2897.6449014045 -8.20E-03
     - OT LS       0.14E+00    1.2                    -2897.6525109464
    73 OT CG       0.14E+00    1.9     0.00020579     -2897.6525156265 -7.61E-03
     - OT LS       0.14E+00    1.2                    -2897.6596200998
    74 OT CG       0.14E+00    1.9     0.00019779     -2897.6596220760 -7.11E-03
     - OT LS       0.14E+00    1.2                    -2897.6661707044
    75 OT CG       0.14E+00    1.9     0.00019107     -2897.6661705710 -6.55E-03
     - OT LS       0.14E+00    1.2                    -2897.6724041507
    76 OT CG       0.14E+00    1.9     0.00018558     -2897.6724074713 -6.24E-03
     - OT LS       0.14E+00    1.2                    -2897.6781968982
    77 OT CG       0.14E+00    1.9     0.00018006     -2897.6781976410 -5.79E-03
     - OT LS       0.14E+00    1.2                    -2897.6836594589
    78 OT CG       0.14E+00    1.9     0.00017279     -2897.6836596255 -5.46E-03
     - OT LS       0.14E+00    1.2                    -2897.6886499468
    79 OT CG       0.14E+00    1.9     0.00016786     -2897.6886499482 -4.99E-03
     - OT LS       0.14E+00    1.2                    -2897.6934280006
    80 OT CG       0.14E+00    1.9     0.00016303     -2897.6934297150 -4.78E-03
     - OT LS       0.14E+00    1.2                    -2897.6978548003
    81 OT CG       0.14E+00    1.8     0.00015721     -2897.6978556617 -4.43E-03
     - OT LS       0.14E+00    1.2                    -2897.7020125066
    82 OT CG       0.14E+00    1.9     0.00015222     -2897.7020131668 -4.16E-03
     - OT LS       0.14E+00    1.2                    -2897.7058551856
    83 OT CG       0.14E+00    1.9     0.00014649     -2897.7058554965 -3.84E-03
     - OT LS       0.14E+00    1.2                    -2897.7095416231
    84 OT CG       0.14E+00    1.9     0.00014357     -2897.7095476131 -3.69E-03
     - OT LS       0.14E+00    1.2                    -2897.7129987684
    85 OT CG       0.14E+00    1.9     0.00013891     -2897.7130003490 -3.45E-03
     - OT LS       0.14E+00    1.2                    -2897.7162578136
    86 OT CG       0.14E+00    1.9     0.00013422     -2897.7162584378 -3.26E-03
     - OT LS       0.14E+00    1.2                    -2897.7192798629
    87 OT CG       0.14E+00    1.9     0.00013023     -2897.7192798428 -3.02E-03
     - OT LS       0.14E+00    1.2                    -2897.7221634765
    88 OT CG       0.14E+00    1.9     0.00012633     -2897.7221644016 -2.88E-03
     - OT LS       0.14E+00    1.2                    -2897.7248367751
    89 OT CG       0.14E+00    1.9     0.00012243     -2897.7248370925 -2.67E-03
     - OT LS       0.14E+00    1.2                    -2897.7273655666
    90 OT CG       0.14E+00    1.9     0.00011810     -2897.7273657627 -2.53E-03
     - OT LS       0.14E+00    1.2                    -2897.7297495937
    91 OT CG       0.14E+00    1.8     0.00011553     -2897.7297502272 -2.38E-03
     - OT LS       0.14E+00    1.2                    -2897.7320323143
    92 OT CG       0.14E+00    1.9     0.00011303     -2897.7320323466 -2.28E-03
     - OT LS       0.14E+00    1.2                    -2897.7341784973
    93 OT CG       0.14E+00    1.9     0.00010957     -2897.7341788093 -2.15E-03
     - OT LS       0.14E+00    1.2                    -2897.7362066688
    94 OT CG       0.14E+00    1.9     0.00010669     -2897.7362068767 -2.03E-03
     - OT LS       0.14E+00    1.2                    -2897.7381250459
    95 OT CG       0.14E+00    1.9     0.00010409     -2897.7381250306 -1.92E-03
     - OT LS       0.14E+00    1.2                    -2897.7399455434
    96 OT CG       0.14E+00    1.9     0.00010098     -2897.7399455055 -1.82E-03
     - OT LS       0.14E+00    1.2                    -2897.7416825871
    97 OT CG       0.14E+00    1.9     0.00009837     -2897.7416829954 -1.74E-03
     - OT LS       0.14E+00    1.2                    -2897.7433303171
    98 OT CG       0.14E+00    1.9     0.00009674     -2897.7433302850 -1.65E-03
     - OT LS       0.14E+00    1.2                    -2897.7449319161
    99 OT CG       0.14E+00    1.9     0.00009493     -2897.7449320544 -1.60E-03
     - OT LS       0.14E+00    1.2                    -2897.7464652554
   100 OT CG       0.14E+00    1.9     0.00009295     -2897.7464652416 -1.53E-03
     - OT LS       0.14E+00    1.2                    -2897.7479324618
   101 OT CG       0.14E+00    1.9     0.00009071     -2897.7479324615 -1.47E-03
     - OT LS       0.14E+00    1.2                    -2897.7493318502
   102 OT CG       0.14E+00    1.9     0.00008918     -2897.7493318756 -1.40E-03
     - OT LS       0.14E+00    1.2                    -2897.7506732167
   103 OT CG       0.14E+00    1.9     0.00008693     -2897.7506732365 -1.34E-03
     - OT LS       0.14E+00    1.2                    -2897.7519680212
   104 OT CG       0.14E+00    1.9     0.00008558     -2897.7519684622 -1.30E-03
     - OT LS       0.14E+00    1.2                    -2897.7532035883
   105 OT CG       0.14E+00    1.9     0.00008396     -2897.7532037832 -1.24E-03
     - OT LS       0.14E+00    1.2                    -2897.7544104035
   106 OT CG       0.14E+00    1.9     0.00008243     -2897.7544108165 -1.21E-03
     - OT LS       0.14E+00    1.2                    -2897.7555745946
   107 OT CG       0.14E+00    1.9     0.00008150     -2897.7555746042 -1.16E-03
     - OT LS       0.14E+00    1.2                    -2897.7566930169
   108 OT CG       0.14E+00    1.9     0.00007979     -2897.7566931918 -1.12E-03
     - OT LS       0.14E+00    1.2                    -2897.7577706480
   109 OT CG       0.14E+00    1.9     0.00007845     -2897.7577706986 -1.08E-03
     - OT LS       0.14E+00    1.2                    -2897.7588133466
   110 OT CG       0.14E+00    1.9     0.00007664     -2897.7588133467 -1.04E-03
     - OT LS       0.15E+00    1.2                    -2897.7598281039
   111 OT CG       0.15E+00    1.8     0.00007580     -2897.7598286648 -1.02E-03
     - OT LS       0.14E+00    1.2                    -2897.7608069047
   112 OT CG       0.14E+00    1.9     0.00007436     -2897.7608070225 -9.78E-04
     - OT LS       0.15E+00    1.2                    -2897.7617510804
   113 OT CG       0.15E+00    1.9     0.00007339     -2897.7617511246 -9.44E-04
     - OT LS       0.14E+00    1.2                    -2897.7626594066
   114 OT CG       0.14E+00    1.9     0.00007162     -2897.7626594846 -9.08E-04
     - OT LS       0.14E+00    1.2                    -2897.7635303369
   115 OT CG       0.14E+00    1.9     0.00007056     -2897.7635303988 -8.71E-04
     - OT LS       0.14E+00    1.2                    -2897.7643624976
   116 OT CG       0.14E+00    1.9     0.00006846     -2897.7643626523 -8.32E-04
     - OT LS       0.15E+00    1.2                    -2897.7651733555
   117 OT CG       0.15E+00    1.9     0.00006758     -2897.7651744398 -8.12E-04
     - OT LS       0.14E+00    1.2                    -2897.7659505865
   118 OT CG       0.14E+00    1.9     0.00006646     -2897.7659507620 -7.76E-04
     - OT LS       0.15E+00    1.2                    -2897.7667132172
   119 OT CG       0.15E+00    1.9     0.00006553     -2897.7667135331 -7.63E-04
     - OT LS       0.14E+00    1.2                    -2897.7674374900
   120 OT CG       0.14E+00    1.9     0.00006439     -2897.7674377519 -7.24E-04
