     296
Lattice="11.3580000000        0.0000000000        0.0000000000       -5.1479508240       11.4708859829        0.0000000000        0.0000000000        0.0000000000       60.0549243942" Properties=species:S:1:pos:R:3 pbc="T T F" Converged=F
 Ca         9.3072826489        1.4317701268        1.8593977563
 Ca         2.2386961250        4.2653005546       11.4299851978
 Ca        -0.4724018926        4.4191257137       16.8174552310
 Ca         0.9147956964        1.4963664044        7.7693378306
  S         2.4073897904        4.3339680678        1.6614396500
  S         8.9220112688        1.3346299616       11.4025326395
  S         0.7166044058        1.6448371653       16.9730061501
  S        -0.4843470506        4.3369505595        7.6737914294
  O         7.0434123767        3.1963361495        1.8919281928
  O         8.3830597332       -0.2124239566       11.4290969019
  O         1.3713711280        2.8414275783       16.3091352561
  O        -0.2838423476        5.6274983090        6.3573362286
  O         3.3934609834        5.4279594310        1.8894444261
  O        10.3755768702        3.7203465417       11.4274719038
  O         6.1580602649        0.4898118263       16.0717393839
  O        -0.6873872706        3.0499895975        6.3511498291
  O         8.9153161731        3.4070447438        0.4839643751
  O         9.9925160338        1.0893914626        9.9426593062
  O        -0.3117567148        2.2315720550       17.8871917930
  O        -1.9430098328        4.6290224011        7.7988104305
  O         1.5111030254        5.2512172269        0.4841556267
  O         7.9456091983        1.9526335618        9.9390204840
  O         7.3726508373        0.7320159821       18.1101465502
  O         0.9731002626        4.0447914405        7.7986274773
  O        -1.1264437613        2.7643432158        3.7100944911
  O        -2.6353199675        5.5331704649       13.5669799229
  O         9.4766758186        3.5663866886       15.2599789596
  O        10.6606650542        0.3682227304        6.3262099699
  O         8.4316961860        0.1045229902        3.7114638413
  O         1.3175464201        3.4741683401       13.5698475508
  O         0.8246000535        5.4716028963       15.2554208070
  O         8.0287211349        2.6214630870        6.3199044443
  H        -0.2441533799        3.1632885786        3.6166865259
  H         7.3459956633       -0.1692957345       11.4311719800
  H         8.6740063439        3.1804278669       15.6698114643
  H         1.3871303206        5.9860023737        6.3682576968
  H        -0.6903494710        5.3589028911        3.6145911730
  H        -0.2072524064        3.0261133835       11.4311260171
  H         9.9198623758        0.0452119090       15.5511879336
  H         9.0242613927        2.6947507855        6.3753861341
  H        -0.8809354339        3.1783052665        5.2808702600
  H        -2.1200938963        6.3576934964       13.6057098565
  H         9.1483432516        4.3419195278       14.6985212354
  H        10.7758213466        0.4666049856        5.3339212249
  H         8.1890711815       -0.2305863735        5.2790750661
  H         1.4215240167        2.8462582258       14.2955299665
  H         1.0762344539        4.7263407922       14.6189691978
  H         7.9036044136        2.5122066750        5.3282033358
 Ca         3.6265756506        1.4364518903        1.8600118927
 Ca         7.9431604870        4.3440791677       11.4298752149
 Ca         5.1920761475        4.3058059005       16.8926358612
 Ca         6.5794091095        1.5014113875        7.7693477125
  S         8.0139844122        4.3036933723        1.6608839218
  S         3.3669355674        1.3111472239       11.4029759024
  S         6.5010485169        1.4850572490       17.1443562567
  S         5.1956385327        4.3375101177        7.6680956343
  O         1.4060442137        3.2530982169        1.8930401000
  O         2.8617681714       -0.2339153362       11.4284710160
  O         7.1914419931        2.6782696300       16.5385609290
  O         5.3963896760        5.6266982697        6.3551908889
  O         8.9874953856        5.4110911250        1.8907613393
  O         4.7155226993        3.7169805124       11.4268310386
  O         0.0568205997        0.8072868570       15.9011895698
  O         4.9895985263        3.0444008368        6.3548678797
  O         3.2865215751        3.4273245078        0.4844532926
  O         4.4016989330        1.1246586179        9.9449148862
  O         5.2727113457        2.0467195631       17.7974663358
  O         3.7437082879        4.6275605663        7.7990196972
  O         7.1071237865        5.1957481226        0.4844308383
  O         2.3526161563        1.9014263548        9.9386162948
  O         1.7161890436        0.7627331191       17.6264320204
  O         6.6495688473        4.0492073974        7.7989295642
  O         4.5511417880        2.7666664099        3.7174130888
  O         3.3100271736        5.5126752489       13.5598819358
  O         3.8433367950        3.5059722458       15.2645285354
  O         4.9777740761        0.3564523082        6.3229485393
  O         2.7538755399        0.0974632002        3.7169095784
  O         7.0168971360        3.2928095748       13.5682706654
  O         6.5083014144        5.2573947899       15.3331189954
  O         2.3620529564        2.6038385372        6.3169231394
  H         5.4352249873        3.1554345237        3.6160298517
  H         1.8117456396       -0.1911153065       11.4352114823
  H         3.0024132132        3.1649335076       15.6362832727
  H         7.0559307036        5.9859367110        6.3706731773
  H         5.0433794759        5.3342719997        3.6136585053
  H         5.4965765403        3.0216261159       11.4314464987
  H         4.4813307839        0.1725536890       15.5457190980
  H         3.3515002210        2.7010374819        6.3723976641
  H         4.7998876993        3.1787892811        5.2857570612
  H         2.7151307760        6.1336786581       13.9729818619
  H         3.5823103981        4.2690972995       14.6577941617
  H         5.0979231752        0.4622170785        5.3301618638
  H         2.5118875174       -0.2361260137        5.2817215369
  H         7.1211362511        2.6218778834       14.2602133176
  H         6.7239034690        4.5393125159       14.6358683602
  H         2.2352884677        2.5258930553        5.3328490353
 Ca         1.0317896525        7.1809803888        1.8594855899
 Ca         5.5753973712       10.0497072626       11.4295010832
 Ca         2.5392981538       10.0842259968       16.8098797663
 Ca         3.8739365708        7.1821934479        7.7705637975
  S         5.4755596029       10.0393580686        1.6622712101
  S         1.5405985130        7.2744813916       11.4032423641
  S         3.7549400033        7.1485668783       17.3048245436
  S         2.6127566842       10.0693814751        7.6725657211
  O        -1.2712641115        8.9469810537        1.8921141939
  O        -0.1841872437        5.0266857322       11.4281686056
  O         4.1675008500        8.1447244129       16.2871182407
  O         2.8295730984       11.3611279157        6.3517736841
  O         6.4624839013       11.1293509741        1.8911194035
  O         2.5387040951        8.5811442700       11.4294985584
  O        -2.3987884999        6.0096649943       16.6274993017
  O         2.4036527729        8.7900773067        6.3545944334
  O         0.6004294735        9.1334037203        0.4821480552
  O         2.2340390940        6.4217451234        9.9443007087
  O         2.7892283911        7.9185839644       18.1877708165
  O         1.1659783430       10.4117775088        7.7999076079
  O         4.5876332604       10.9448211160        0.4850048799
  O         0.4911871443        7.9230838706        9.9400362557
  O        -0.4651003458        6.6437531385       17.9027492366
  O         4.0692045734        9.7628777587        7.7993185360
  O         1.9431152571        8.5631821099        3.7197219607
  O         0.8573279508       10.6052295197       13.5669425618
  O         1.0567874435        8.9943421936       15.4991141320
  O         2.3810766159        6.0783378812        6.3229763856
  O         0.1279353491        5.8738943431        3.7160780251
  O         5.0517281074        8.9774569662       13.5725860599
  O         4.0522934269       10.9009613696       15.2662784848
  O        -0.2711937214        8.3173724312        6.3278379013
  H         2.8446430263        8.9101492917        3.6193518394
  H        -0.9681558314        5.7147956124       11.4297712867
  H         0.1678762051        8.7072583725       15.7880905241
  H         4.5226876026       11.7247086683        6.3727526861
  H         2.4689822043       11.0513458064        3.6165273834
  H         3.4887431367        8.1042130913       11.4277695132
  H         1.6452349169        5.7361096233       15.7298983489
  H         0.7195630692        8.4159816208        6.3752778320
  H         2.1828866582        8.9280384412        5.2865532896
  H         1.5259087457       11.3200757051       13.6097108012
  H         0.9148271680        9.6876101457       14.7232425137
  H         2.5015138055        6.1771403209        5.3338021583
  H        -0.0939214125        5.5077825626        5.2818517492
  H         4.3392489116        8.3223556860       13.5910214070
  H         4.4986968647       10.1901211787       14.7316083332
  H        -0.3903565016        8.2110686333        5.3360986753
 Ca         6.7320876671        7.1645883500        1.8594802822
 Ca        -0.1926674513        9.8599890626       11.4302750687
 Ca        -3.5081298936       10.4963409482       15.6999718792
 Ca        -1.8389338315        7.1775074374        7.7686443178
  S        -0.2845652285       10.0403114577        1.6608502565
  S         6.9936534537        7.2762029431       11.4006474739
  S        -1.7306468664        7.1564378077       17.2889704275
  S        -3.0655640661       10.0674006143        7.6727899766
  O         4.4863887368        8.9488061489        1.8926528212
  O         5.4744192010        5.0216212691       11.4287919557
  O        -1.5306500803        8.3189348951       16.4128289453
  O        -2.8475881341       11.3683202533        6.3571836715
  O         0.7046375702       11.1298090518        1.8920378833
  O         7.7809125468        8.7119612032       11.4292452153
  O         3.1352755453        5.9267340131       16.7001186807
  O        -3.2730967559        8.7862061190        6.3548031587
  O         6.3559958039        9.1318444797        0.4823990736
  O         7.8299227021        6.5551868769        9.9441680573
  O        -2.6803747593        7.6285143698       18.4413458393
  O        -4.5190655269       10.3955046928        7.8000410212
  O        -1.1676551362       10.9440764301        0.4842299285
  O         5.8666685641        7.7814907246        9.9417128621
  O         4.9361309340        6.6286839418       18.0960349361
  O        -1.6096806754        9.7535540501        7.8003907624
  O        -3.7448151711        8.5593444308        3.7190182918
  O        -4.4934761264       11.0055503291       13.5755319137
  O         6.7228005028        8.5071182833       15.5907453545
  O         8.0494572951        6.0694196261        6.3208628640
  O         5.8666357470        5.8386463290        3.7204873559
  O        -1.4007997671        9.0990797006       13.5539478789
  O        -1.4699789988       11.2837359740       15.1132006275
  O         5.4108442228        8.3271802284        6.3191357218
  H        -2.8573081069        8.9402317542        3.6166547553
  H         4.6768870772        5.6961838675       11.4303217806
  H         6.3077449683        7.9712998951       16.2782842349
  H        -1.1587730920       11.7152335919        6.3741883446
  H        -3.2240672354       11.0722316702        3.6158763480
  H        -2.5589516035        8.4598884717       11.4336664408
  H         7.3591838659        5.7161826711       15.4600775723
  H         6.3993629863        8.4235806616        6.3742022237
  H        -3.4977751627        8.9175355135        5.2840197774
  H        -4.5776595973       11.9747099552       13.5945453538
  H         6.0229756487        8.5795217053       14.8594335844
  H         8.1716768560        6.1676974925        5.3310446018
  H         5.6119501298        5.5000627746        5.2847729252
  H        -1.0450640468        8.2033109666       13.6277083169
  H        -1.1431455532       10.5123696861       14.5698892421
  H         5.2889423332        8.2351898234        5.3279278205
  O        11.5634482103        3.3033486487       36.3628641178
  H        11.1101221102        2.3714143378       36.3666562495
  H        10.7400557968        3.9325097539       36.3646919695
  O         8.0017130105        0.2960308445       31.8806877652
  H         8.7299445337        1.1173912692       31.8750736606
  H         6.9268845481        0.5441547238       31.8770826849
  O         0.6095754993        5.7748381760       26.0638886208
  H         1.1914791501        6.1844302225       25.4026386346
  H         0.1355876435        6.5126378716       26.5181136122
  O         6.7416693448        7.3544261557       28.1227728486
  H         7.5838703017        7.9846806676       28.2441390060
  H         6.0130044940        7.9481963673       27.9067714563
  O         6.1499676134        0.7301016174       41.4552172618
  H         5.2497103808        1.6164919098       41.4564989254
  H         7.4323647302        0.8431338909       41.4602845725
  O         7.8253585670        4.2661954452       22.0807779068
  H         7.8595769681        3.6199194831       21.3676648939
  H         7.2175959297        4.9342273985       21.7349356466
  O         0.4173129824       10.6751166249       41.4552306546
  H         1.2889032300        9.7696275332       41.4547855700
  H        -0.8280209083       10.5964754964       41.4548809588
  O         6.1060939643        4.7435351162       28.4340570966
  H         6.3052035593        5.6733876023       28.1543869170
  H         5.6326993992        4.3194377428       27.6737579717
  O         3.9833933800        6.0714232095       20.7259105279
  H         4.3456335077        6.3112877571       19.8486264687
  H         3.1379864246        6.5479658562       20.7381205946
  O         3.7582153016        9.2969413125       30.4989058550
  H         3.8586050953        9.0144042913       31.8177829427
  H         3.2435320925       10.6844788379       31.8620583441
  O         4.4264122869        8.2291093008       37.8052339984
  H         4.3570967599        7.1076235118       37.8037366890
  H         3.3275456732        8.4453307470       37.8043472900
  O         1.5530400643        7.8324284153       20.4248146974
  H         1.9932740158        8.6723236721       20.6152464411
  H         1.8731985734        7.6593478919       19.4896685703
  O        -2.6681107352        6.9515149875       37.8028307340
  H        -2.8589074829        9.0555526110       39.9575350141
  H        -1.6040802601        6.7013864107       37.8008235281
  O        -2.1820582841        9.7326099520       23.2071092333
  H        -2.0416063707       10.6776620558       23.0294094331
  H        -1.9832955727        9.6121553512       24.1421467914
  O         4.9937251553        1.6010611865       35.2599030278
  H         5.0413153434        1.5285206488       36.3307469433
  H         2.2079285562       -3.4413923037       37.8059050542
  O        -1.8984162705        5.7906255586       33.7287418495
  H        -2.8088695526        6.2137404159       33.7305254045
  H        -1.8220681498        5.7637446111       31.8716378518
  O         3.9823725708        3.9104716762       35.2640028780
  H         3.9386542193        3.9912614035       36.3316133849
  H         4.4558174438        2.8111541251       35.2632009831
  O        -2.0927586843        5.4995926531       30.4988153861
  H        -2.0194843793        4.4938014739       30.5001827363
  H        -3.0760987787        5.6387987620       30.5089606378
  O         3.2574101744        1.9606555911       22.2329876743
  H         2.5735411918        2.4033257820       21.7135375776
  H         3.9233849914        1.7793372620       21.5565444328
  O         4.4861278056       11.0052103697       25.4953728681
  H         5.1490451647       10.8498072144       24.8003178919
  H         3.6829929725       10.6217782954       25.1165248584
