     296
Lattice="11.3580000000        0.0000000000        0.0000000000       -5.1479508240       11.4708859829        0.0000000000        0.0000000000        0.0000000000       60.0549243942" Properties=species:S:1:pos:R:3 pbc="T T F" Converged=F
 Ca         9.5346854380        2.0859963855        1.6229229154
 Ca         1.3084249140        4.0406905533       11.4494036553
 Ca        -0.4585931355        4.6037350999       17.1510088433
 Ca         0.1139112287        0.9913132400        7.7514971726
  S         2.6887288022        4.0950680344        1.4345806771
  S         8.1469762081        0.5562948446       11.4428026783
  S         0.8136466257        1.9325127913       17.3641625077
  S        -0.1204442906        4.8547987883        7.7332102357
  O         7.1262535269        4.1686517768        1.6466251652
  O         8.9478871191       -0.8053041852       11.4492111992
  O         1.6072762299        3.1772534195       17.0698779410
  O         0.4007696407        4.9865799459        6.0390468080
  O         3.6820606823        5.1667512398        1.6544479007
  O         9.5356651437        3.1375095418       11.4495032917
  O         6.2307305166        0.8267161974       16.0536153264
  O        -0.9378550854        2.5318172977        6.0303808095
  O         8.9906459982        3.9752344407        0.2328772932
  O        10.1591643757        1.1689751336        9.8642154358
  O        -0.4021412809        2.3976786454       18.1022061179
  O        -1.5758841165        5.1979535365        7.7668085935
  O         1.7537606363        4.9809501770        0.2390309794
  O         7.6671510388        0.7541892107        9.9081577530
  O         7.4756483882        0.9856730953       18.0956553373
  O         0.2357084097        3.3780376663        7.7693940313
  O        -0.6190936292        2.7976497575        3.4606902007
  O        -2.2888549117        5.8237835567       13.7237225559
  O         9.5861078529        3.8366619962       15.4226281096
  O        11.3390318590       -1.1016105288        6.0212695133
  O         8.4355698273        1.0840519764        3.4623793176
  O         1.1322703211        3.8078109308       13.7204587058
  O         0.9762796943        5.6409706949       15.6532337938
  O         7.9773550735        2.9150288618        6.0161748224
  H         0.3457426562        2.8789443570        3.4068017713
  H         8.2960395423       -1.6577990420       11.4489407404
  H         8.7493113924        3.4369280421       15.7571803238
  H         1.7612684228        5.7120728649        6.0392341470
  H        -0.2524658055        4.6478842669        3.4119828463
  H        -1.1086107798        2.3737368300       11.4469501506
  H        10.1484731359        0.3438606159       16.0379298240
  H         9.0081322642        3.0104999203        6.0424219953
  H        -0.7314289148        2.6895611087        4.9896317814
  H        -1.4325685045        6.2848295613       13.7522778607
  H         9.2965745147        4.6060052928       14.8261184535
  H        11.2894096831       -0.9733314513        5.0169009818
  H         8.8349621459        0.5834085857        5.0067633422
  H         0.1803695994        3.6060739643       13.7698727317
  H         1.2005685983        4.8782293242       15.0495111132
  H         7.8693766230        2.6617936590        5.0428304250
 Ca         3.7735487629        1.2099425270        1.6227478332
 Ca         7.3770286074        4.2661425596       11.4509120747
 Ca         5.3248805521        4.6112374534       17.1098073087
 Ca         7.4211551481        1.4167258464        7.7493133690
  S         8.2687360941        5.1214428037        1.4820108498
  S         2.7390734453        1.2384304001       11.4430356092
  S         6.5897382573        1.7695700702       17.2021125349
  S         4.2546211732        2.9275792433        7.7352937245
  O         1.7096083222        2.9880424202        1.6549938066
  O         3.4966101516       -0.2179355184       11.4488648904
  O         7.2376031136        3.0079539205       16.6309815362
  O         5.1821780811        5.1549400850        6.0182181888
  O         9.5681052290        5.8477576530        1.6412436191
  O         4.5121359117        1.9471470805       11.4496350397
  O         0.4185824896        1.2726263076       16.0553119598
  O         3.9134742930        2.6152532001        6.0337951951
  O         3.5748145114        3.1881311204        0.2358355437
  O         2.4195542361        1.5417600532        9.9080871054
  O         5.3373083512        2.2671807581       17.8706239355
  O         3.3207018465        4.1268197684        7.7727462768
  O         7.6187864214        6.1465326608        0.2413239135
  O        -0.2906938354        0.1517558124        9.8593465378
  O         1.6042405202        0.9027696125       18.1035871980
  O         5.7481164504        3.2558703019        7.7693785661
  O         4.5885182940        2.4347962673        3.4701111213
  O         3.4697581354        5.8032894588       13.7127182822
  O         3.8691074757        3.7632154118       15.5023484225
  O         6.0232338228        0.8897216635        6.0132200808
  O         2.9583065372       -0.0739569006        3.4604858052
  O         6.9030487511        3.9606191111       13.7232133054
  O         6.6144769104        5.7056651951       15.5828615940
  O         1.5603073878        1.5446213015        6.0133657979
  H         5.2763855967        3.1170549774        3.4106293291
  H         2.7568080381       -0.9612374808       11.4527825381
  H         3.0482369131        3.4567008161       15.9535661366
  H         6.6549146083        5.6737140270        6.0408106385
  H         6.7287208423        5.7095217531        3.4357821750
  H         5.3347955747        1.3024131483       11.4495404545
  H         4.7490256761        0.1942885001       15.8824075983
  H         2.4913651626        1.9275472710        6.0343177386
  H         4.3745607492        2.4823072625        4.9906840437
  H         2.5218654017        6.0058741966       13.7768159618
  H         3.6016538908        4.5217636664       14.9185622706
  H         6.0885551280        1.1249015133        5.0415936182
  H         3.2828270809       -0.2681855158        5.0319555804
  H         6.0511051512        3.4988410853       13.7626780902
  H         6.8395236553        5.0208542598       14.8587853929
  H         1.3228967716        1.6243500667        5.0472730782
 Ca         0.6922930219        6.7013031411        1.6219103580
 Ca         6.3037535874       10.0038215300       11.4531351490
 Ca         2.4025308045       10.2586545034       16.3288539167
 Ca         4.0352487040        6.3749295404        7.7509665506
  S         5.6059266772       10.6841764224        1.4491811228
  S         2.9910717290        6.8338050073       11.4434760468
  S         3.7812384151        7.4053589554       17.4359121140
  S         1.7564140780        9.1459674592        7.7593192321
  O        -1.4152998698        8.7502564458        1.6520957062
  O        -0.9409961423        4.3652601636       11.4495027597
  O         3.8049541213        8.1744819715       16.1576154416
  O         3.8177662981       11.7807642925        6.0245632844
  O         6.6761686939       11.7031882136        1.6515473009
  O         4.2815282838        7.7757400211       11.4502810153
  O        -2.3805714731        6.1541532744       17.0403728493
  O         1.1159562142        8.8571462032        6.0417712286
  O         0.4710711872        8.7115849047        0.2389926720
  O         2.9351589857        6.3024773758        9.9043192883
  O         3.0401915240        8.2258789489       18.4393740158
  O         1.3619007810       10.5709877503        7.7670079127
  O         4.7965615583       11.7007733583        0.2330211474
  O         1.5286272151        8.7794731001        9.8341330746
  O        -0.5434202106        6.5624857876       18.5136505096
  O         3.1790857541        8.7205744666        7.7624421335
  O         1.4630830909        8.1743533989        3.4726592178
  O         2.2039377268       10.2911431893       13.7347595489
  O         0.6685734879        8.7805634185       16.0633229141
  O         2.5162902595        6.3864204707        6.0156678263
  O         0.2723408269        5.4770034719        3.4853758148
  O         5.7953737024        8.6708913872       13.7205264988
  O         4.5064173543       11.0004523382       15.8160063700
  O        -1.2884226953        7.4502330385        6.0114158678
  H         2.0167145595        8.9679234505        3.3936258812
  H        -1.6302675405        5.1298950773       11.4504495868
  H        -0.0918195258        8.6313124319       16.6626617477
  H         3.8793778396       10.8049993879        6.0310389998
  H         2.5078055471       11.9811227250        3.4079611705
  H         5.1609364512        7.1817321699       11.4495231222
  H         1.7961055162        5.8877222318       16.1521019980
  H        -0.5763824723        8.1390846693        6.0394667700
  H         1.4032113373        8.3862532594        5.0039539003
  H         3.1747838588       10.3486184423       13.7371328318
  H         0.2520437102        8.8152959071       15.1517605473
  H         2.5425298256        6.6126136865        5.0398105782
  H         0.1692396978        5.4008230144        4.9557023803
  H         5.1541898060        7.9425784431       13.7688207129
  H         5.1957545214       10.2671738466       15.9171371723
  H        -1.3288707500        7.2094867845        5.0405152582
 Ca         7.5007787789        8.0929351145        1.6209095935
 Ca         0.2089509241        9.4743385407       11.4526613553
 Ca        -3.3661545581       10.8178864313       16.1667263856
 Ca        -2.9283398251        7.4267146976        7.7601285287
  S        -0.2909336582        9.7145130265        1.4320529695
  S         7.9527309097        7.3492494294       11.4247638593
  S        -1.8808097602        7.1360080870       18.0429388847
  S        -1.8114253303       10.7388315025        7.7428104836
  O         4.4633265289        9.7692343294        1.6529906759
  O         5.0276720395        3.3665826665       11.4494710229
  O        -1.7141373525        8.4976779094       17.4875498472
  O        -1.3711341993       11.0737617631        6.0299289188
  O         0.8165819243       10.6770095035        1.6558512742
  O         9.4885696884        7.9153974666       11.4494718228
  O         3.1640698306        6.0392442594       17.2363932937
  O        -4.3007484696        9.1605749968        6.0245131487
  O         6.4135755683        9.7130957424        0.2392609444
  O         8.0464679388        6.1621591775        9.8965426295
  O        -2.8045462009        7.1940999856       19.2349933360
  O        -3.3115990999       10.8693446883        7.7684327621
  O        -1.0685066655       10.7151734405        0.2377999588
  O         7.3809751963        8.4005635794        9.8948910351
  O         5.1906789974        7.0940842273       17.9195320048
  O        -1.3631702602        9.2817046600        7.7697250471
  O        -4.2948209545        9.4022971322        3.4616221888
  O        -3.8736879815       10.9956907564       13.7304358848
  O         6.4755279543        9.2197948096       15.9882347311
  O         7.4802685301        6.2745471955        6.0233153417
  O         7.5358337790        6.2513264841        3.4328230609
  O        -0.5079408399        9.1353899440       13.7326768201
  O        -1.1927093625       11.1552961181       15.5667176290
  O         4.8557822097        7.8341591957        6.0157353240
  H        -3.5160647053       10.0086701039        3.4304706501
  H         4.1606123389        3.9355060922       11.4513417357
  H         6.1930778692        8.4996256073       16.5744771229
  H         0.0319124722       11.7916992219        6.0352791802
  H        -3.0935996374       11.7571910718        3.4408316366
  H        -1.2428144625        7.0692086122       11.4520490756
  H         7.4666201084        6.0419522951       15.9190529407
  H         5.7753909642        8.2438325536        6.0409789344
  H        -4.1543657479        9.0896180121        4.9710424060
  H        -3.9872374980       11.9612363756       13.7488394429
  H         6.1129291983        8.8701825235       14.7733779864
  H         7.6615610222        6.3188987743        5.0104052809
  H         4.9139935677        5.0440474057        5.0554713230
  H        -1.3506727803        8.6541569106       13.7470493861
  H        -0.8494279277       10.4609328783       14.9534021988
  H         4.7856761304        7.5956809836        5.0474253185
  O        12.7557425216        4.7774353597       36.0510279407
  H        13.6715512399        4.2359546045       36.0423732705
  H        12.0647066507        3.9976108178       36.0477929287
  O         6.5671766249        0.4257878846       31.6442364214
  H         7.6813555787        0.4723061029       31.6320908833
  H         5.9066393827        1.3052344783       31.6416393285
  O         0.5410595949        5.9209665727       26.0651500702
  H         0.8133430043        6.4469346625       25.3034471006
  H        -0.0040441853        6.5284646182       26.6212429159
  O         5.9924200860        7.4974816246       28.1038648999
  H         6.9216345044        7.9375342694       27.9847081434
  H         5.4371652753        7.9244193861       27.4370737041
  O         5.8607620950        0.6450744229       41.4769138884
  H         4.7419055249        1.2553665633       41.4774997841
  H         7.1410959932        1.0396041782       41.4824286531
  O         7.8986688006        5.8042789276       21.7964169090
  H         8.2915796512        5.7532584087       20.9057738420
  H         7.0030013239        6.1412884192       21.5509849126
  O         0.5098292829       10.4743883902       41.4771027760
  H         1.6080151742        9.8461068388       41.4779402400
  H        -0.6977300635       10.0505518099       41.4777220356
  O         6.4073662470        4.7717134062       28.1248128019
  H         6.1410466858        5.7003610084       27.9014747796
  H         5.5600113220        4.2196682366       27.9558732907
  O         5.6044498235        6.7007797841       20.6361075381
  H         5.6642402767        6.9837208908       19.6909228803
  H         4.6508441177        6.6124359599       20.7548405524
  O         3.4326294434       10.3580544352       30.2528390569
  H         3.5558285434       10.2069332322       31.5826855733
  H         0.9861188780       10.8879801711       31.6371701564
  O         4.7293354250        7.7256915858       37.7880733840
  H         3.6162641093        7.6625467478       37.7888296770
  H         4.9536197248        8.8198098358       37.7897264274
  O         1.2319022365        7.4412087440       20.4608095861
  H         1.9463171944        7.8392193323       19.9123185389
  H         0.7061924610        7.0177831912       19.7435688548
  O        -4.1513868481        6.4554697265       37.7878098960
  H        -3.6899416040        8.4914541332       39.8946808030
  H        -3.4920660037        7.3609426462       37.7929285877
  O        -2.0860090838        9.9066222310       23.2242527176
  H        -2.1626375586       10.8212609106       22.8594085654
  H        -1.3896970933        9.9765516981       23.8894025211
  O         5.0333581632        1.1542227729       34.9696266895
  H         5.0880261184        1.0271735934       36.0173706928
  H        -0.1361625997       -4.7906073053       37.7891089927
  O        -2.4689717555        5.1729876500       33.4835053836
  H        -3.4150661321        4.8367428736       33.4877191438
  H        -2.3678612668        5.2705356898       31.6370453303
  O         3.9682044405        3.5462689941       34.9700397664
  H         4.0909347694        3.5749464515       36.0163472595
  H         4.5929035607        2.1060609412       34.9705879719
  O        -2.5186933588        4.9801492386       30.2527416488
  H        -2.1102349955        4.0495951246       30.2493117371
  H        -3.4908053618        4.7825484304       30.2588637256
  O         2.9176438226        0.9689730105       22.2244473759
  H         2.2272824275        1.0054805130       21.5431375689
  H         3.7128523590        1.1749505036       21.7113280688
  O         4.4891624178       11.0041684716       25.4899844196
  H         5.2512430383       11.0777767180       24.9007933165
  H         3.7731632383       10.7819527551       24.8817592653
