296
Lattice="11.358 0.0 0.0 -5.147950824045998 11.470885982880008 0.0 0.0 0.0 60.05492439424537" Properties=species:S:1:pos:R:3 pbc="T T F"
Ca         9.2947561500       1.4338607500       2.8725948000
Ca         2.3287684400       4.3015822400      10.4735948000
Ca        -0.5107315600       4.3015822400      15.6544364000
Ca         0.7762561500       1.4338607500       8.0534364000
S          2.3287684400       4.3015822400       2.8330696000
S          9.2947561500       1.4338607500      10.4340696000
S          0.7762561500       1.4338607500      15.6939616000
S         -0.5107315600       4.3015822400       8.0929616000
O          7.5969927300       3.1567878200       3.6676594000
O          8.8839804400       0.2890663300      11.2686594000
O          1.1870318500       2.5786551700      14.8593718000
O         -0.0999558500       5.4463766600       7.2583718000
O          2.7395441500       5.4463766600       3.6676594000
O          9.7055318500       2.5786551700      11.2686594000
O          6.0444804400       0.2890663300      14.8593718000
O         -0.9215072700       3.1567878200       7.2583718000
O          9.1232336000       3.8255404800       2.0000000000
O         10.4102213100       0.9578189800       9.6010000000
O         -0.3392090100       1.9099025200      16.5270312000
O         -1.6261967200       4.7776240100       8.9260312000
O          1.2133032800       4.7776240100       2.0000000000
O          8.1792909900       1.9099025200       9.6010000000
O          7.5707213100       0.9578189800      16.5270312000
O          0.6047336000       3.8255404800       8.9260312000
O         -0.7311631200       2.6314212400       4.4307998000
O         -2.0181508300       5.4991427400      12.0317998000
O          9.5151877100       3.1040217500      14.0962314000
O         10.8021754100       0.2363002500       6.4952314000
O          7.9626754100       0.2363002500       4.4307998000
O          0.9966877100       3.1040217500      12.0317998000
O          0.8213491700       5.4991427400      14.0962314000
O          7.7873368800       2.6314212400       6.4952314000
H          0.1380039800       2.8889426300       4.1176386000
H          7.1039916900       0.0212211400      11.7186386000
H          8.6460206000       2.8465003600      14.4093926000
H          1.6800329000       5.7142218500       6.8083926000
H         -1.1594671000       5.7142218500       4.1176386000
H          0.1275206000       2.8465003600      11.7186386000
H          9.9434916900       0.0212211400      14.4093926000
H          8.6565039800       2.8889426300       6.8083926000
H         -0.7691729000       2.8224115000       5.3520410000
H         -2.0561606100       5.6901329900      12.9530410000
H          9.5531974900       2.9130315000      13.1749902000
H         10.8401851900       0.0453100000       5.5739902000
H          8.0006851900       0.0453100000       5.3520410000
H          1.0346974900       2.9130315000      12.9530410000
H          0.7833393900       5.6901329900      13.1749902000
H          7.7493271000       2.8224115000       5.5739902000
Ca         3.6157561500       1.4338607500       2.8725948000
Ca         8.0077684400       4.3015822400      10.4735948000
Ca         5.1682684400       4.3015822400      15.6544364000
Ca         6.4552561500       1.4338607500       8.0534364000
S          8.0077684400       4.3015822400       2.8330696000
S          3.6157561500       1.4338607500      10.4340696000
S          6.4552561500       1.4338607500      15.6939616000
S          5.1682684400       4.3015822400       8.0929616000
O          1.9179927300       3.1567878200       3.6676594000
O          3.2049804400       0.2890663300      11.2686594000
O          6.8660318500       2.5786551700      14.8593718000
O          5.5790441500       5.4463766600       7.2583718000
O          8.4185441500       5.4463766600       3.6676594000
O          4.0265318500       2.5786551700      11.2686594000
O          0.3654804400       0.2890663300      14.8593718000
O          4.7574927300       3.1567878200       7.2583718000
O          3.4442336000       3.8255404800       2.0000000000
O          4.7312213100       0.9578189800       9.6010000000
O          5.3397909900       1.9099025200      16.5270312000
O          4.0528032800       4.7776240100       8.9260312000
O          6.8923032800       4.7776240100       2.0000000000
O          2.5002909900       1.9099025200       9.6010000000
O          1.8917213100       0.9578189800      16.5270312000
O          6.2837336000       3.8255404800       8.9260312000
O          4.9478368800       2.6314212400       4.4307998000
O          3.6608491700       5.4991427400      12.0317998000
O          3.8361877100       3.1040217500      14.0962314000
O          5.1231754100       0.2363002500       6.4952314000
O          2.2836754100       0.2363002500       4.4307998000
O          6.6756877100       3.1040217500      12.0317998000
O          6.5003491700       5.4991427400      14.0962314000
O          2.1083368800       2.6314212400       6.4952314000
H          5.8170039800       2.8889426300       4.1176386000
H          1.4249916900       0.0212211400      11.7186386000
H          2.9670206000       2.8465003600      14.4093926000
H          7.3590329000       5.7142218500       6.8083926000
H          4.5195329000       5.7142218500       4.1176386000
H          5.8065206000       2.8465003600      11.7186386000
H          4.2644916900       0.0212211400      14.4093926000
H          2.9775039800       2.8889426300       6.8083926000
H          4.9098271000       2.8224115000       5.3520410000
H          3.6228393900       5.6901329900      12.9530410000
H          3.8741974900       2.9130315000      13.1749902000
H          5.1611851900       0.0453100000       5.5739902000
H          2.3216851900       0.0453100000       5.3520410000
H          6.7136974900       2.9130315000      12.9530410000
H          6.4623393900       5.6901329900      13.1749902000
H          2.0703271000       2.8224115000       5.5739902000
Ca         1.0417807300       7.1693037400       2.8725948000
Ca         5.4337930300      10.0370252400      10.4735948000
Ca         2.5942930300      10.0370252400      15.6544364000
Ca         3.8812807300       7.1693037400       8.0534364000
S          5.4337930300      10.0370252400       2.8330696000
S          1.0417807300       7.1693037400      10.4340696000
S          3.8812807300       7.1693037400      15.6939616000
S          2.5942930300      10.0370252400       8.0929616000
O         -0.6559826800       8.8922308100       3.6676594000
O          0.6310050300       6.0245093200      11.2686594000
O          4.2920564400       8.3140981600      14.8593718000
O          3.0050687400      11.1818196600       7.2583718000
O          5.8445687400      11.1818196600       3.6676594000
O          1.4525564400       8.3140981600      11.2686594000
O         -2.2084949700       6.0245093200      14.8593718000
O          2.1835173200       8.8922308100       7.2583718000
O          0.8702581900       9.5609834700       2.0000000000
O          2.1572458900       6.6932619700       9.6010000000
O          2.7658155800       7.6453455100      16.5270312000
O          1.4788278700      10.5130670000       8.9260312000
O          4.3183278700      10.5130670000       2.0000000000
O         -0.0736844200       7.6453455100       9.6010000000
O         -0.6822541100       6.6932619700      16.5270312000
O          3.7097581900       9.5609834700       8.9260312000
O          2.3738614700       8.3668642400       4.4307998000
O          1.0868737600      11.2345857300      12.0317998000
O          1.2622122900       8.8394647400      14.0962314000
O          2.5492000000       5.9717432400       6.4952314000
O         -0.2903000000       5.9717432400       4.4307998000
O          4.1017122900       8.8394647400      12.0317998000
O          3.9263737600      11.2345857300      14.0962314000
O         -0.4656385300       8.3668642400       6.4952314000
H          3.2430285700       8.6243856300       4.1176386000
H         -1.1489837200       5.7566641300      11.7186386000
H          0.3930451900       8.5819433500      14.4093926000
H          4.7850574800      11.4496648400       6.8083926000
H          1.9455574800      11.4496648400       4.1176386000
H          3.2325451900       8.5819433500      11.7186386000
H          1.6905162800       5.7566641300      14.4093926000
H          0.4035285700       8.6243856300       6.8083926000
H          2.3358516900       8.5578544900       5.3520410000
H          1.0488639800      11.4255759800      12.9530410000
H          1.3002220800       8.6484744900      13.1749902000
H          2.5872097800       5.7807529900       5.5739902000
H         -0.2522902200       5.7807529900       5.3520410000
H          4.1397220800       8.6484744900      12.9530410000
H          3.8883639800      11.4255759800      13.1749902000
H         -0.5036483100       8.5578544900       5.5739902000
Ca         6.7207807300       7.1693037400       2.8725948000
Ca        -0.2452069700      10.0370252400      10.4735948000
Ca        -3.0847069700      10.0370252400      15.6544364000
Ca        -1.7977192700       7.1693037400       8.0534364000
S         -0.2452069700      10.0370252400       2.8330696000
S          6.7207807300       7.1693037400      10.4340696000
S         -1.7977192700       7.1693037400      15.6939616000
S         -3.0847069700      10.0370252400       8.0929616000
O          5.0230173200       8.8922308100       3.6676594000
O          6.3100050300       6.0245093200      11.2686594000
O         -1.3869435600       8.3140981600      14.8593718000
O         -2.6739312600      11.1818196600       7.2583718000
O          0.1655687400      11.1818196600       3.6676594000
O          7.1315564400       8.3140981600      11.2686594000
O          3.4705050300       6.0245093200      14.8593718000
O         -3.4954826800       8.8922308100       7.2583718000
O          6.5492581900       9.5609834700       2.0000000000
O          7.8362458900       6.6932619700       9.6010000000
O         -2.9131844200       7.6453455100      16.5270312000
O         -4.2001721300      10.5130670000       8.9260312000
O         -1.3606721300      10.5130670000       2.0000000000
O          5.6053155800       7.6453455100       9.6010000000
O          4.9967458900       6.6932619700      16.5270312000
O         -1.9692418100       9.5609834700       8.9260312000
O         -3.3051385300       8.3668642400       4.4307998000
O         -4.5921262400      11.2345857300      12.0317998000
O          6.9412122900       8.8394647400      14.0962314000
O          8.2282000000       5.9717432400       6.4952314000
O          5.3887000000       5.9717432400       4.4307998000
O         -1.5772877100       8.8394647400      12.0317998000
O         -1.7526262400      11.2345857300      14.0962314000
O          5.2133614700       8.3668642400       6.4952314000
H         -2.4359714300       8.6243856300       4.1176386000
H          4.5300162800       5.7566641300      11.7186386000
H          6.0720451900       8.5819433500      14.4093926000
H         -0.8939425200      11.4496648400       6.8083926000
H         -3.7334425200      11.4496648400       4.1176386000
H         -2.4464548100       8.5819433500      11.7186386000
H          7.3695162800       5.7566641300      14.4093926000
H          6.0825285700       8.6243856300       6.8083926000
H         -3.3431483100       8.5578544900       5.3520410000
H         -4.6301360200      11.4255759800      12.9530410000
H          6.9792220800       8.6484744900      13.1749902000
H          8.2662097800       5.7807529900       5.5739902000
H          5.4267097800       5.7807529900       5.3520410000
H         -1.5392779200       8.6484744900      12.9530410000
H         -1.7906360200      11.4255759800      13.1749902000
H          5.1753516900       8.5578544900       5.5739902000
O          9.6315409600       2.4314006500      36.7110190600
H          8.7043183900       2.1957809300      36.7422199700
H          9.6395592700       3.3852818200      36.7902546100
O          7.3620892300       1.2514569000      33.1726142300
H          8.2100412000       1.1266298100      33.5987920100
H          6.7780109300       1.5309336600      33.8775802700
O          1.7867162500       5.2245406500      26.3351523900
H          2.4870353500       5.0660934900      26.9681448900
H          1.0120230100       5.3930447600      26.8715184800
O          6.9714117300       7.7186137400      30.6521023800
H          7.8533458100       7.7369300400      31.0237051600
H          6.4576618000       8.2877230200      31.2251708500
O          6.8645602700       1.6899976300      41.0065127200
H          6.0534729400       2.1413185000      40.7726780700
H          7.5541088800       2.2000379000      40.5815262900
O          7.7521692800       4.0975143800      21.8840829900
H          7.4036402700       3.2093117400      21.9606039000
H          6.9869188500       4.6400070900      21.6934910400
O          0.8440578300       9.8123823200      40.8911127000
H          1.4817979800      10.0854618200      40.2316076400
H          0.5599467900      10.6285636900      41.3026473000
O          5.5348302000       5.8302685800      28.9834931500
H          5.2866395000       6.1523585000      28.1169533100
H          5.1573205500       4.9518983000      29.0302260700
O          3.7828798500       6.2992326600      20.9350716500
H          4.6302374700       6.4596510800      21.3503821700
H          3.1548183700       6.3151646600      21.6572328500
O          3.7043649400       7.6094309600      32.2123360800
H          4.4687292300       7.6206246300      32.7884035900
H          2.9550998000       7.5996566800      32.8079349800
O          3.7253370900       7.1486542900      38.4573722500
H          3.8834349300       6.4464030800      39.0883081800
H          3.1108164600       7.7345236300      38.8993601900
O          2.5220972400       8.6493641000      20.9907340200
H          1.8247466300       8.9164278200      21.5895753500
H          2.9622258500       9.4661494400      20.7554036900
O         -2.1876236400       7.1331493000      38.8750162300
H         -1.8787606700       6.5420838600      39.5616581600
H         -1.3946806000       7.3883960600      38.4035056100
O         -2.5784926200      10.9514677800      23.5896723600
H         -1.7907479500      11.2991248600      24.0077928300
H         -2.9060151700      10.2942987300      24.2037486400
O          5.3492809300       0.5591603500      35.9170851500
H          4.8703344100       0.7550621200      36.7223581200
H          6.1448846500       0.1165894800      36.2126821600
O         -2.5622508200       8.3345307100      34.6308493200
H         -3.4532787700       8.5389757600      34.9145802600
H         -2.6609883700       8.0346894800      33.7272022800
O          3.8740411100       3.4486694000      35.5589299900
H          4.4430913900       3.2986636600      36.3138550900
H          3.0784930700       2.9542272100      35.7560646700
O         -1.1111196900       5.6551975400      32.1871929300
H         -0.7191890300       4.7968879600      32.3482111100
H         -2.0400949400       5.5356590400      32.3845438000
O          3.0227401700       1.8688684400      22.2400320600
H          2.3311519600       2.5306311200      22.2428145800
H          3.4283835900       1.9492968100      21.3767728100
O          4.4337414200      10.8914968900      25.5846227700
H          5.2829480900      10.5577870500      25.8739627200
H          3.8583699900      10.7706201900      26.3399825500
N          9.9954670300       2.6493480500      25.5109300600
H         -0.3938910400       2.6438970700      25.2011041400
H          9.6300352900       3.5787217500      25.3185419800
H          9.4901753500       2.0038732000      24.9089902500
N          5.6508747500       1.1669951300      26.5992212500
H          6.4804688500       0.5789764000      26.5819990200
H          5.9716041200       2.1303908900      26.5418601900
H          5.1369673300       0.9762702000      25.7425928800
N          1.1446129700       3.9424296300      39.4855749100
H          0.7092514800       4.8615321200      39.4855437000
H          0.4672559400       3.2958048300      39.8822521400
H          1.2706472600       3.6763095900      38.5121354000
N         -4.7191626000      10.6450774900      41.1693764800
H         -4.1696217300      11.1619946400      41.8558176700
H          6.7151290200       9.6452069800      41.3560273700
H         -4.3674167900      10.8439299400      40.2328229100
H          5.6612591100      10.9291784000      41.2328379900
N          1.1656303600       3.0698236500      29.5204037400
H          0.2850375700       3.2691152500      29.9949974500
H          1.5022971400       2.1488104800      29.8010997000
H          1.8562125600       3.7762105500      29.7743993800
H          1.0189741800       3.0851583200      28.5111184500
N         -1.3346239700       7.9233248900      21.4239845500
H         -0.4570805300       8.1742221600      21.8793613900
H         -1.4544395400       6.9107522500      21.4512039400
H         -1.3161933200       8.2375572000      20.4537689200
H         -2.1107824900       8.3707679300      21.9116039400
N          8.9613601800       5.2872181400      28.6382798300
H         -1.7332563000       5.8256088100      29.1954672300
H         -1.8927473600       4.7608995400      27.9245003600
H          8.3004301900       5.9215926600      28.1897929100
H          8.4550142100       4.6407715600      29.2433588000
P         -1.5130165400       8.2155119000      26.6670844200
O         -0.8427483000       9.0587721200      25.5946793300
O         -0.8713455100       8.5183829200      28.0338790000
O         -1.3316624900       6.7228712100      26.3343165200
O         -3.0443911300       8.5574598500      26.7205959400
H          7.3674729900       8.7687270600      26.7536572000
P          6.7502002400       5.3742542100      40.9942013200
O          5.2971219800       5.0522887700      41.3029112700
O          7.6568763000       4.7227904000      42.0549243900
O          6.9529660600       6.9007299200      41.0131199600
O          7.1200227400       4.8147530300      39.5746627600
H          7.3485118000       4.4690739600      38.6976230000
