 DBCSR| CPU Multiplication driver                                           XSMM (U)
 DBCSR| Multrec recursion limit                                              512 (U)
 DBCSR| Multiplication stack size                                           1000 (D)
 DBCSR| Maximum elements for images                                    UNLIMITED (U)
 DBCSR| Multiplicative factor virtual images                                   1 (U)
 DBCSR| Use multiplication densification                                       T (D)
 DBCSR| Multiplication size stacks                                             3 (U)
 DBCSR| Use memory pool for CPU allocation                                     F (U)
 DBCSR| Number of 3D layers                                               SINGLE (U)
 DBCSR| Use MPI memory allocation                                              F (U)
 DBCSR| Use RMA algorithm                                                      F (U)
 DBCSR| Use Communication thread                                               T (U)
 DBCSR| Communication thread load                                             30 (D)
 DBCSR| MPI: My process id                                                     0
 DBCSR| MPI: Number of processes                                               1
 DBCSR| OMP: Current number of threads                                        16
 DBCSR| OMP: Max number of threads                                            16
 DBCSR| Split modifier for TAS multiplication algorithm                  1.0E+00 (U)


  **** **** ******  **  PROGRAM STARTED AT               2026-02-12 08:27:20.543
 ***** ** ***  *** **   PROGRAM STARTED ON                          fcc487caf976
 **    ****   ******    PROGRAM STARTED BY                             <unknown>
 ***** **    ** ** **   PROGRAM PROCESS ID                                   678
  **** **  *******  **  PROGRAM STARTED IN                             /mnt/cp2k

 CP2K| version string:                 CP2K version 2026.1 (Development Version)
 CP2K| source code revision number:                                   4e96ea1a00
 CP2K| cp2kflags: omp libint fftw3 libxc elpa parallel scalapack mpi_f08 cosma a
 CP2K|            ce deepmd xsmm dbcsr_acc plumed2 spglib libdftd4 mctc-lib tbli
 CP2K|            ite sirius libvori libbqb libtorch mimic offload_cuda libvdwxc
 CP2K|            c hdf5 trexio libsmeagol greenx
 CP2K| is freely available from                            https://www.cp2k.org/
 CP2K| Program compiled at                                   2026-01-16 05:48:39
 CP2K| Program compiled on                                                      
 CP2K| Program compiled for                                               x86_64
 CP2K| Data directory path                     /opt/cp2k/install/share/cp2k/data
 CP2K| Input file name                                               geo_opt.inp

 GLOBAL| Force Environment number                                              1
 GLOBAL| Basis set file name                                    BASIS_MOLOPT_UZH
 GLOBAL| Potential file name                                       POTENTIAL_UZH
 GLOBAL| MM Potential file name                                     MM_POTENTIAL
 GLOBAL| Coordinate file name                optimized_structure_extxyz_wrap.xyz
 GLOBAL| Method name                                                        CP2K
 GLOBAL| Project name                                     gypsum_slab_nh4_geoopt
 GLOBAL| Run type                                                        GEO_OPT
 GLOBAL| FFT library                                                       FFTW3
 GLOBAL| Diagonalization library                                            ELPA
 GLOBAL| Cholesky decomposition library                                ScaLAPACK
 GLOBAL| DGEMM library                                                      BLAS
 GLOBAL| Minimum number of eigenvectors for ELPA usage                        16
 GLOBAL| Orthonormality check for eigenvectors                          DISABLED
 GLOBAL| Matrix multiplication library                                     COSMA
 GLOBAL| All-to-all communication in single precision                          F
 GLOBAL| FFTs using library dependent lengths                                  T
 GLOBAL| Grid backend                                                       AUTO
 GLOBAL| Global print level                                                  LOW
 GLOBAL| MPI I/O enabled                                                       T
 GLOBAL| Total number of message passing processes                             1
 GLOBAL| Number of distributed systems (nodes)                                 1
 GLOBAL| Number of threads for this process                                   16
 GLOBAL| This output is from process                                           0
 GLOBAL| OpenMP stack size per thread (OMP_STACKSIZE)                        16M
 GLOBAL| CPU model name                           Intel(R) Core(TM) Ultra 7 265K
 GLOBAL| CPUID                                                              1002

 MEMORY| system memory details [Kb]
 MEMORY|                        rank 0           min           max       average
 MEMORY| MemTotal             45202616      45202616      45202616      45202616
 MEMORY| MemFree              43294472      43294472      43294472      43294472
 MEMORY| Buffers                 13612         13612         13612         13612
 MEMORY| Cached                 802112        802112        802112        802112
 MEMORY| Slab                   127940        127940        127940        127940
 MEMORY| SReclaimable            46172         46172         46172         46172
 MEMORY| MemLikelyFree        44156368      44156368      44156368      44156368


 GENERATE|  Preliminary Number of Bonds generated:                             0
 GENERATE|  Achieved consistency in connectivity generation.

 *******************************************************************************
 *******************************************************************************
 **                                                                           **
 **     #####                         ##              ##                      **
 **    ##   ##            ##          ##              ##                      **
 **   ##     ##                       ##            ######                    **
 **   ##     ##  ##   ##  ##   #####  ##  ##   ####   ##    #####    #####    **
 **   ##     ##  ##   ##  ##  ##      ## ##   ##      ##   ##   ##  ##   ##   **
 **   ##  ## ##  ##   ##  ##  ##      ####     ###    ##   ######   ######    **
 **    ##  ###   ##   ##  ##  ##      ## ##      ##   ##   ##       ##        **
 **     #######   #####   ##   #####  ##  ##  ####    ##    #####   ##        **
 **           ##                                                    ##        **
 **                                                                           **
 **                                                ... make the atoms dance   **
 **                                                                           **
 **            Copyright (C) by CP2K developers group (2000-2026)             **
 **                      J. Chem. Phys. 152, 194103 (2020)                    **
 **                                                                           **
 *******************************************************************************


 TOTAL NUMBERS AND MAXIMUM NUMBERS

  Total number of            - Atomic kinds:                                   6
                             - Atoms:                                        488
                             - Shell sets:                                   488
                             - Shells:                                      2619
                             - Primitive Cartesian functions:               2438
                             - Cartesian basis functions:                   7011
                             - Spherical basis functions:                   6523

  Maximum angular momentum of- Orbital basis functions:                        2
                             - Local part of the GTH pseudopotential:          2
                             - Non-local part of the GTH pseudopotential:      3


 SCF PARAMETERS         Density guess:                                    ATOMIC
                        --------------------------------------------------------
                        max_scf:                                             180
                        max_scf_history:                                       0
                        max_diis:                                              4
                        --------------------------------------------------------
                        eps_scf:                                        1.50E-06
                        eps_scf_history:                                0.00E+00
                        eps_diis:                                       0.00E+00
                        eps_eigval:                                     1.00E-05
                        --------------------------------------------------------
                        level_shift [a.u.]:                             0.000000
                        --------------------------------------------------------
                        Outer loop SCF in use 
                        No variables optimised in outer loop
                        eps_scf                                         1.50E-06
                        max_scf                                               30
                        No outer loop optimization
                        step_size                                       5.00E-01

 BFGS| Use rational function optimization for step estimation:                NO
 BFGS| Use model Hessian for initial guess:                                  YES
 BFGS| Restart Hessian:                                                       NO
 BFGS| Trust radius:                                                       0.472

 *******************************************************************************
 ***                     STARTING GEOMETRY OPTIMIZATION                      ***
 ***                                   BFGS                                  ***
 *******************************************************************************

 Extrapolation method: initial_guess

 Spin 1

 Number of electrons:                                                       1228
 Number of occupied orbitals:                                               1228
 Number of molecular orbitals:                                              1228

 Spin 2

 Number of electrons:                                                       1228
 Number of occupied orbitals:                                               1228
 Number of molecular orbitals:                                              1228

 Number of orbital functions:                                               6523
 Number of independent orbital functions:                                   6523


 SCF WAVEFUNCTION OPTIMIZATION

  ----------------------------------- OT ---------------------------------------
  Minimizer      : DIIS                : direct inversion
                                         in the iterative subspace
                                         using   7 DIIS vectors
                                         safer DIIS on
  Preconditioner : FULL_SINGLE_INVERSE : inversion of 
                                         H + eS - 2*(Sc)(c^T*H*c+const)(Sc)^T
  Precond_solver : INVERSE_UPDATE
  stepsize       :    0.10000000                  energy_gap     :    0.10000000
  eps_taylor     :   0.10000E-15                  max_taylor     :             4
  ----------------------------------- OT ---------------------------------------

  Step     Update method      Time    Convergence         Total energy    Change
  ------------------------------------------------------------------------------
     1 OT DIIS     0.10E+00  254.6     0.00940611     -6184.5807627364 -6.18E+03
     2 OT DIIS     0.10E+00   36.9     0.00725431     -6258.7336737198 -7.42E+01
     3 OT DIIS     0.10E+00   35.0     0.00461077     -6291.1137843251 -3.24E+01
     4 OT DIIS     0.10E+00   35.3     0.00356126     -6329.9841392477 -3.89E+01
     5 OT DIIS     0.10E+00   34.3     0.00282756     -6356.5272109718 -2.65E+01
     6 OT DIIS     0.10E+00   34.5     0.00212057     -6383.0697385672 -2.65E+01
     7 OT DIIS     0.10E+00   35.0     0.00158341     -6402.4344940335 -1.94E+01
     8 OT DIIS     0.10E+00   34.7     0.00118300     -6415.5167995793 -1.31E+01
     9 OT DIIS     0.10E+00   34.8     0.00094462     -6422.7049858435 -7.19E+00
    10 OT DIIS     0.10E+00   34.5     0.00074893     -6428.0552622554 -5.35E+00
    11 OT DIIS     0.10E+00   34.9     0.00056531     -6432.3843392402 -4.33E+00
    12 OT DIIS     0.10E+00   34.5     0.00052803     -6433.3631072415 -9.79E-01
    13 OT DIIS     0.10E+00   34.6     0.00043799     -6435.0350232984 -1.67E+00
    14 OT DIIS     0.10E+00   34.5     0.00036827     -6436.1774052054 -1.14E+00
    15 OT DIIS     0.10E+00   34.4     0.00029518     -6437.3596976754 -1.18E+00
    16 OT DIIS     0.10E+00   34.6     0.00025408     -6437.8584754864 -4.99E-01
    17 OT DIIS     0.10E+00   34.4     0.00019585     -6438.5901843013 -7.32E-01
    18 OT DIIS     0.10E+00   34.5     0.00016722     -6438.8932142626 -3.03E-01
    19 OT DIIS     0.10E+00   34.5     0.00013390     -6439.2275520073 -3.34E-01
    20 OT DIIS     0.10E+00   34.4     0.00012237     -6439.3384382947 -1.11E-01
    21 OT DIIS     0.10E+00   34.5     0.00010370     -6439.4894378082 -1.51E-01
    22 OT DIIS     0.10E+00   34.2     0.00008755     -6439.6141002384 -1.25E-01
    23 OT DIIS     0.10E+00   34.5     0.00007701     -6439.6879431688 -7.38E-02
    24 OT DIIS     0.10E+00   34.4     0.00006263     -6439.7743666750 -8.64E-02
    25 OT DIIS     0.10E+00   34.5     0.00005488     -6439.8218378204 -4.75E-02
    26 OT DIIS     0.10E+00   34.6     0.00004937     -6439.8525255568 -3.07E-02
    27 OT DIIS     0.10E+00   34.2     0.00004438     -6439.8789217556 -2.64E-02
    28 OT DIIS     0.10E+00   34.1     0.00003935     -6439.9070686330 -2.81E-02
    29 OT DIIS     0.10E+00   34.1     0.00003639     -6439.9244657521 -1.74E-02
    30 OT DIIS     0.10E+00   34.3     0.00003209     -6439.9474443196 -2.30E-02
    31 OT DIIS     0.10E+00   34.4     0.00002906     -6439.9646212838 -1.72E-02
    32 OT DIIS     0.10E+00   34.5     0.00002690     -6439.9750329424 -1.04E-02
    33 OT DIIS     0.10E+00   34.2     0.00002494     -6439.9861145887 -1.11E-02
    34 OT DIIS     0.10E+00   34.1     0.00002348     -6439.9930662801 -6.95E-03
    35 OT DIIS     0.10E+00   34.1     0.00002101     -6440.0042877429 -1.12E-02
    36 OT DIIS     0.10E+00   34.5     0.00001926     -6440.0124851654 -8.20E-03
    37 OT DIIS     0.10E+00   34.4     0.00001789     -6440.0191926139 -6.71E-03
    38 OT DIIS     0.10E+00   34.5     0.00001699     -6440.0235009973 -4.31E-03
    39 OT DIIS     0.10E+00   34.1     0.00001591     -6440.0290040389 -5.50E-03
    40 OT DIIS     0.10E+00   34.6     0.00001511     -6440.0324740378 -3.47E-03
    41 OT DIIS     0.10E+00   34.3     0.00001352     -6440.0390861375 -6.61E-03
    42 OT DIIS     0.10E+00   34.1     0.00001249     -6440.0433923544 -4.31E-03
    43 OT DIIS     0.10E+00   34.1     0.00001177     -6440.0469059946 -3.51E-03
    44 OT DIIS     0.10E+00   34.4     0.00001132     -6440.0491668523 -2.26E-03
    45 OT DIIS     0.10E+00   34.6     0.00001002     -6440.0535604670 -4.39E-03
    46 OT DIIS     0.10E+00   34.2     0.00000972     -6440.0547470936 -1.19E-03
    47 OT DIIS     0.10E+00   34.5     0.00000911     -6440.0573081518 -2.56E-03
    48 OT DIIS     0.10E+00   34.2     0.00000865     -6440.0598777150 -2.57E-03
    49 OT DIIS     0.10E+00   34.3     0.00000824     -6440.0616865883 -1.81E-03
    50 OT DIIS     0.10E+00   34.2     0.00000778     -6440.0641107031 -2.42E-03
    51 OT DIIS     0.10E+00   34.3     0.00000738     -6440.0664720971 -2.36E-03
    52 OT DIIS     0.10E+00   34.5     0.00000709     -6440.0678840341 -1.41E-03
    53 OT DIIS     0.10E+00   34.3     0.00000694     -6440.0685912764 -7.07E-04
    54 OT DIIS     0.10E+00   34.1     0.00000659     -6440.0701459988 -1.55E-03
    55 OT DIIS     0.10E+00   34.2     0.00000648     -6440.0706781175 -5.32E-04
    56 OT DIIS     0.10E+00   34.0     0.00000635     -6440.0711327570 -4.55E-04
    57 OT DIIS     0.10E+00   34.0     0.00000606     -6440.0724405070 -1.31E-03
    58 OT DIIS     0.10E+00   34.3     0.00000592     -6440.0731838753 -7.43E-04
    59 OT DIIS     0.10E+00   34.0     0.00000576     -6440.0739501887 -7.66E-04
    60 OT DIIS     0.10E+00   34.0     0.00000553     -6440.0750006702 -1.05E-03
    61 OT DIIS     0.10E+00   34.5     0.00000545     -6440.0754138405 -4.13E-04
    62 OT DIIS     0.10E+00   34.3     0.00000539     -6440.0757331338 -3.19E-04
    63 OT DIIS     0.10E+00   34.2     0.00000532     -6440.0760499581 -3.17E-04
    64 OT DIIS     0.10E+00   34.2     0.00000520     -6440.0767494385 -6.99E-04
    65 OT DIIS     0.10E+00   34.2     0.00000497     -6440.0784813553 -1.73E-03
    66 OT DIIS     0.10E+00   34.3     0.00000479     -6440.0794890212 -1.01E-03
    67 OT DIIS     0.10E+00   35.2     0.00000464     -6440.0808644230 -1.38E-03
    68 OT DIIS     0.10E+00   34.5     0.00000446     -6440.0818870899 -1.02E-03
    69 OT DIIS     0.10E+00   34.4     0.00000432     -6440.0833050237 -1.42E-03
    70 OT DIIS     0.10E+00   34.3     0.00000420     -6440.0848161572 -1.51E-03
    71 OT DIIS     0.10E+00   34.6     0.00000416     -6440.0854960067 -6.80E-04
    72 OT DIIS     0.10E+00   34.4     0.00000399     -6440.0861678678 -6.72E-04
    73 OT DIIS     0.10E+00   34.3     0.00000393     -6440.0867882706 -6.20E-04
    74 OT DIIS     0.10E+00   34.4     0.00000382     -6440.0873639898 -5.76E-04
    75 OT DIIS     0.10E+00   34.2     0.00000376     -6440.0881010285 -7.37E-04
    76 OT DIIS     0.10E+00   34.3     0.00000365     -6440.0886780988 -5.77E-04
    77 OT DIIS     0.10E+00   34.2     0.00000356     -6440.0893364081 -6.58E-04
    78 OT DIIS     0.10E+00   34.1     0.00000361     -6440.0901240456 -7.88E-04
    79 OT DIIS     0.10E+00   34.0     0.00000342     -6440.0902911182 -1.67E-04
    80 OT SD       0.10E+00   34.2     0.00000343     -6440.0907111921 -4.20E-04
    81 OT DIIS     0.10E+00   34.1     0.00000337     -6440.0907298214 -1.86E-05
    82 OT DIIS     0.10E+00   33.9     0.00000327     -6440.0909569670 -2.27E-04
    83 OT DIIS     0.10E+00   34.0     0.00000319     -6440.0914227375 -4.66E-04
    84 OT DIIS     0.10E+00   34.5     0.00000309     -6440.0920364731 -6.14E-04
    85 OT DIIS     0.10E+00   34.0     0.00000304     -6440.0926276223 -5.91E-04
    86 OT DIIS     0.10E+00   34.2     0.00000300     -6440.0929134429 -2.86E-04
    87 OT DIIS     0.10E+00   33.9     0.00000292     -6440.0935962268 -6.83E-04
    88 OT DIIS     0.10E+00   34.4     0.00000287     -6440.0940356290 -4.39E-04
    89 OT DIIS     0.10E+00   33.9     0.00000281     -6440.0944391840 -4.04E-04
    90 OT DIIS     0.10E+00   34.2     0.00000280     -6440.0950469828 -6.08E-04
    91 OT DIIS     0.10E+00   34.0     0.00000277     -6440.0952461913 -1.99E-04
    92 OT DIIS     0.10E+00   34.0     0.00000267     -6440.0957954976 -5.49E-04
    93 OT DIIS     0.10E+00   34.5     0.00000283     -6440.0961382448 -3.43E-04
    94 OT SD       0.10E+00   34.1     0.00000259     -6440.0963974012 -2.59E-04
    95 OT DIIS     0.10E+00   33.9     0.00000258     -6440.0964081444 -1.07E-05
    96 OT DIIS     0.10E+00   33.9     0.00000252     -6440.0968349747 -4.27E-04
    97 OT DIIS     0.10E+00   34.4     0.00000249     -6440.0969902245 -1.55E-04
    98 OT DIIS     0.10E+00   34.0     0.00000264     -6440.0976735575 -6.83E-04
    99 OT SD       0.10E+00   34.1     0.00000248     -6440.0978587551 -1.85E-04
   100 OT DIIS     0.10E+00   33.9     0.00000243     -6440.0978684671 -9.71E-06
   101 OT DIIS     0.10E+00   34.3     0.00000237     -6440.0982168703 -3.48E-04
   102 OT DIIS     0.10E+00   34.1     0.00000235     -6440.0986717392 -4.55E-04
   103 OT DIIS     0.10E+00   34.1     0.00000227     -6440.0989711111 -2.99E-04
   104 OT DIIS     0.10E+00   34.2     0.00000243     -6440.0991343241 -1.63E-04
   105 OT DIIS     0.10E+00   33.9     0.00000220     -6440.0994019715 -2.68E-04
   106 OT DIIS     0.10E+00   34.1     0.00000221     -6440.0996603202 -2.58E-04
   107 OT DIIS     0.10E+00   34.0     0.00000218     -6440.0997182540 -5.79E-05
   108 OT SD       0.10E+00   34.2     0.00000214     -6440.1002954653 -5.77E-04
   109 OT DIIS     0.10E+00   34.2     0.00000211     -6440.1003027188 -7.25E-06
   110 OT DIIS     0.10E+00   34.3     0.00000206     -6440.1005503222 -2.48E-04
   111 OT DIIS     0.10E+00   34.0     0.00000205     -6440.1006390020 -8.87E-05
   112 OT DIIS     0.10E+00   34.0     0.00000203     -6440.1009642956 -3.25E-04
   113 OT DIIS     0.10E+00   34.0     0.00000203     -6440.1010300128 -6.57E-05
   114 OT DIIS     0.10E+00   33.9     0.00000196     -6440.1012074572 -1.77E-04
   115 OT DIIS     0.10E+00   34.3     0.00000193     -6440.1014592616 -2.52E-04
   116 OT DIIS     0.10E+00   34.0     0.00000191     -6440.1017149002 -2.56E-04
   117 OT DIIS     0.10E+00   34.1     0.00000188     -6440.1018716951 -1.57E-04
   118 OT DIIS     0.10E+00   34.0     0.00000185     -6440.1020297205 -1.58E-04
   119 OT DIIS     0.10E+00   34.2     0.00000231     -6440.1021227610 -9.30E-05
   120 OT DIIS     0.10E+00   34.5     0.00000190     -6440.1022912436 -1.68E-04
   121 OT DIIS     0.10E+00   34.1     0.00000178     -6440.1024981716 -2.07E-04
   122 OT DIIS     0.10E+00   34.4     0.00000176     -6440.1027917074 -2.94E-04
   123 OT DIIS     0.10E+00   34.0     0.00000176     -6440.1027959130 -4.21E-06
   124 OT DIIS     0.10E+00   34.5     0.00000174     -6440.1028751676 -7.93E-05
   125 OT DIIS     0.10E+00   35.0     0.00000173     -6440.1029521431 -7.70E-05
