488
Lattice="25.501 0.0 0.0 0.0 23.969 0.0 0.0 0.0 43.86101947971821" Properties=species:S:1:pos:R:3:spacegroup_kinds:I:1:tags:I:1:forces:R:3 energy=-3581.5077794827844 pbc="T T T"
S        9.05556884       8.19441682      12.51299292        0        1      -0.00001559       0.00262759      -0.00426433
S       15.94347738       1.51656488      15.05839335        0        1       0.00872044      -0.00348619      -0.00068767
S       15.80672703      19.50258966      13.33214970        0        1      -0.00040774      -0.00195986      -0.00045047
S        9.25509473       1.83002642      14.81851263        0        1      -0.00238015       0.00065094       0.00088496
S       11.74418880       4.70043588      12.56587212        1        1       0.00157685      -0.00505674       0.00060389
S       17.53819826      21.59118273      18.08841578        1        1      -0.00140359       0.00352081      -0.00024911
S       13.51152761      22.51151337      13.04899037        1        1      -0.00022967      -0.00013508      -0.00246815
S        7.39135891       4.52798234      16.81990309        1        1      -0.00022781      -0.00226854      -0.00058577
S        7.28685765      22.29156200      13.52810809        2        1       0.00130561       0.00001750       0.00145589
S       13.46405042       5.01343628      16.80700654        2        1      -0.00030641       0.00001594      -0.00123501
S       17.82352788       5.11768237      13.54495928        2        1      -0.00094884      -0.00163265       0.00080511
S       11.31492978      22.85187306      17.09017234        2        1       0.00006140       0.00046960       0.00081214
Ca      12.38869045      19.75031322      15.30217092        3        1       0.00053787      -0.00077698      -0.00329627
Ca       6.19107149       1.65525911      14.69316772        3        1       0.00043354       0.00020934       0.00114798
Ca       8.05055138       4.83574068      13.51816730        4        1      -0.00086969       0.00108889       0.00012640
Ca      14.68023565      23.63726584      17.89384304        4        1      -0.00263673       0.00023268      -0.00363146
Ca      17.00457915      22.63815164      14.54736036        4        1       0.00209565      -0.00056181       0.00087191
Ca      10.42939463       4.61195756      17.07540451        4        1       0.00332967       0.00180613      -0.00134434
Ca      10.63634892      22.62023633      14.15817920        5        1       0.00056741      -0.00137796       0.00030529
Ca      16.94285729       4.50529960      16.98416775        5        1      -0.00052291       0.00032761       0.00144641
Ca      14.38945083       4.53226346      14.00870478        5        1      -0.00504094       0.00696352       0.00755350
Ca       7.83559168      22.97268209      16.96069082        5        1      -0.00014287       0.00224097      -0.00027259
Ca       6.06212235      19.72131771      15.80828591        6        1       0.00165317       0.00046694      -0.00411730
Ca      12.36444624       1.76495319      14.85157152        6        1      -0.00019617       0.00000761       0.00292746
O       10.08637461      20.20442906      14.08452671        7        1       0.00260508      -0.00090346      -0.00389812
O       16.64196405       2.49502339      15.89434042        7        1       0.00118105       0.00241919       0.00051341
O       14.93042920       7.61029081      13.69486328        7        1      -0.00146454       0.00091886      -0.00132686
O        8.39955070       1.05677386      15.73402145        7        1      -0.00051853      -0.00193476       0.00068506
O        7.93018447      22.04094623      19.47660158        8        1       0.03964320      -0.00010137       0.02336747
O       14.72495048       2.13646951      14.50108352        8        1      -0.00498243      -0.00130319      -0.00275083
O       15.81133659       3.85912176      19.86118113        8        1      -0.00756354       0.01278711      -0.00354139
O       10.10502543       0.97533332      13.97349669        8        1       0.00012622       0.00114328       0.00033179
O        8.31826521       6.91933969      12.50879410        9        1       0.00191496      -0.00061911      -0.00338520
O       15.61472818       0.28831442      15.81840775        9        1       0.00146731      -0.00143791      -0.00122426
O       16.50364252      20.25962981      14.40580479        9        1      -0.00339126       0.00175300      -0.00032447
O       10.15653339       2.72306167      15.56878889        9        1       0.00011158      -0.00087786      -0.00124909
O        8.24668693       9.03710832      18.87270106       10        1       0.00117630      -0.00353599       0.00435080
O       16.87616330       1.07960348      13.99923422       10        1      -0.00200751      -0.00048619      -0.00010679
O       16.56903294      14.48683841      19.00987158       10        1       0.02502916      -0.01390605       0.02416995
O        8.32890658       2.58750237      13.94622113       10        1      -0.00130143       0.00287220      -0.00058034
O       10.39668873       4.84409478      13.29344660       11        1       0.00013906       0.00013237       0.00196943
O       16.22330520      21.98878613      18.58763882       11        1       0.00190739      -0.00119035      -0.00197312
O       14.79573815      22.45390440      13.86464733       11        1      -0.00312167       0.00069668       0.00118033
O        8.21555099       4.13907093      17.95844204       11        1      -0.00253657       0.00137693      -0.00040393
O       12.43432461       3.45817457      13.15583923       12        1       0.00065815      -0.00130606      -0.00080072
O       17.78729635      20.15672307      18.33306161       12        1       0.00085803       0.00058572       0.00054155
O       12.77331813      23.80656037      13.43330045       12        1       0.00072131       0.00272137      -0.00248935
O        6.39416249       5.56772495      17.16627417       12        1      -0.00105175       0.00023243       0.00077589
O       12.62830506       5.84946131      13.11992413       13        1       0.00128554       0.00033960      -0.00191043
O       18.63676414      22.37613010      18.62840215       13        1       0.00026451       0.00159278      -0.00182591
O       12.61519662      21.42707758      13.67134436       13        1      -0.00011509       0.00147403      -0.00439822
O        6.62414004       3.36871772      16.30828149       13        1       0.00038617      -0.00183859       0.00132921
O       13.31006541       1.62124124      18.32945109       14        1      -0.00129403      -0.00021911      -0.00148803
O       17.51862008      21.73487418      16.58466318       14        1       0.00077413      -0.00017880       0.00041655
O       13.52128138       1.57268580      17.02790205       14        1      -0.00088353      -0.00280094      -0.00074033
O        8.30854520       5.05399261      15.77360278       14        1       0.00005730      -0.00213882       0.00047255
O        8.30484017      22.51401406      14.65844980       15        1      -0.00113793      -0.00007659       0.00116244
O       14.65901340       4.42722383      17.39521159       15        1      -0.00022896       0.00052496       0.00094348
O       16.69405511       5.01114726      14.58617393       15        1       0.00096332      -0.00080093       0.00207480
O       10.03599985      23.15254444      17.74410183       15        1      -0.00027930       0.00001095       0.00098392
O        6.45623507      23.58895804      13.43808013       16        1      -0.00009532       0.00018771       0.00240774
O       12.51962019       5.53630563      17.77223887       16        1      -0.00062385      -0.00083757       0.00012404
O       18.69886285       3.88036671      13.69182809       16        1       0.00093420       0.00132810       0.00305040
O       12.41956493      22.81664585      18.03156286       16        1      -0.00021556       0.00066966      -0.00175738
O        6.27107500      21.30630224      14.10624437       17        1       0.00345911      -0.00164087      -0.00123102
O       12.76888657       4.03813107      15.91881775       17        1       0.00212239       0.00059175      -0.00097185
O       18.73890202       6.22893612      14.07371469       17        1      -0.00385263       0.00205601      -0.00205632
O       11.55564937      23.87689672      16.03722271       17        1      -0.00092792       0.00043136      -0.00050723
O        4.62188447       1.34689640      18.80191350       18        1      -0.00396550       0.00083440       0.00237740
O       13.95108810       6.10796621      15.86708753       18        1       0.00179709       0.00134517       0.00091139
O       16.90769019       3.51838332      19.01580494       18        1       0.00154584       0.00187496      -0.00053163
O       11.16969091      21.56282872      16.34306020       18        1       0.00001793      -0.00044197       0.00147087
O       10.57572368      23.24301140      11.83879598       19        1       0.00129466       0.00154419      -0.00293659
O       16.28907825       6.97551549      16.72130208       19        1      -0.00060412       0.00199695       0.00186685
O       15.35477735       4.59340167      11.86299029       19        1       0.02221129       0.04918694       0.00468803
O        8.33450689      20.54410500      16.76168229       19        1       0.00191599      -0.00163048       0.00285498
O        7.06116991       0.74126661      18.28137572       20        1      -0.00268304      -0.00432166       0.00024217
O       14.25880703      21.36054764      16.24900930       20        1       0.00331691      -0.00144945      -0.00249902
O       16.59235786       0.90284839      18.55475424       20        1       0.00309252      -0.00037099      -0.00409719
O       10.87384563       6.30003244      15.34005806       20        1       0.00023812      -0.00177197       0.00075129
H       11.40786884      23.73614554      11.96622078       21        1      -0.00219395      -0.00040836       0.00015041
H       16.53315112      19.17812172      17.73667832       21        1       0.00008627       0.00120989      -0.00274332
H       14.93847987       4.98335870      11.08685193       21        1      -0.06720489      -0.02433730      -0.01060935
H        8.48091058       7.67538597      16.73033943       21        1      -0.00061570      -0.00086208      -0.00110155
H        7.39843117       1.63878153      18.15969859       22        1       0.00289901       0.00255952       0.00244619
H       15.39389734       6.78679872      16.33264429       22        1      -0.00057075      -0.00034704       0.00245245
H       16.56306264       1.87372105      18.77170283       22        1      -0.00038503       0.00320622       0.00379629
H        9.15666931      20.41805440      16.25584415       22        1       0.00046746       0.00069816       0.00259455
H        9.89454110      23.91416928      11.70956054       23        1       0.00215843      -0.00294841      -0.00081476
H       15.07917769      20.88725990      16.45301137       23        1       0.00268804       0.00161278      -0.00503306
H       16.28152348       4.88506851      11.87540071       23        1       0.03912204      -0.02741701       0.00819338
H       11.04996931      18.11264362      17.25185529       23        1      -0.00289190      -0.00051032       0.00087351
H        6.08113683       0.87386661      18.48003477       24        1       0.00016523       0.00195236      -0.00376118
H       14.41639288      21.75492120      15.34738329       24        1       0.00295686       0.00152637      -0.00281493
H       17.38210574       0.83390195      17.91728060       24        1      -0.00022917      -0.00021130      -0.00180181
H       10.71544367       5.74395271      14.51220629       24        1       0.00006353      -0.00078265       0.00002738
S        8.98930667      19.49936333      13.37250303        0        1       0.00085421       0.00180545      -0.00121968
S       15.40977357      13.48352984      15.27966354        0        1       0.00350397      -0.00133017       0.00135587
S       15.16786438       7.79203210      12.22707958        0        1       0.00088507       0.00166904      -0.00124213
S        8.67832072      13.73434194      15.66669645        0        1      -0.00499941       0.00094319       0.00122472
S       10.99083327      16.71230021      13.52720939        1        1       0.00123822      -0.00244427      -0.00068543
S       17.21188815      10.47433146      17.00400456        1        1      -0.00014194       0.00263730      -0.00121501
S       12.99773510      10.88073914      12.99442125        1        1      -0.00011814       0.00023083       0.00023228
S        6.82264292      16.86042813      17.92824764        1        1      -0.00050197      -0.00097158       0.00024565
S        6.80696886      10.35086055      13.57387386        2        1       0.00054712       0.00175371       0.00220417
S       13.44682671      16.85327551      17.26401964        2        1      -0.00074775      -0.00128460       0.00094424
S       17.45103326      16.82911718      13.80643524        2        1       0.00029882      -0.00162510       0.00058616
S       11.20033578      10.05502767      16.94456264        2        1       0.00153144       0.00120799       0.00323434
Ca      12.70469810       7.77679773      14.72696365        3        1      -0.00051432       0.00255021      -0.00105301
Ca       5.75139478      13.34339599      15.04969053        3        1      -0.00058737      -0.00055996       0.00136551
Ca       7.63338155      16.56559369      15.03874576        4        1      -0.00121666       0.00107676       0.00019258
Ca      13.75761734      11.30240336      17.78700881        4        1      -0.00218366      -0.00229481      -0.00007730
Ca      16.58494208      10.61271252      13.54164452        4        1       0.00141648      -0.00142012       0.00209574
Ca       9.12119388      14.36453523      18.85206207        4        1       0.00328549      -0.00234839      -0.00321768
Ca      10.19731223      10.87121812      14.27284417        5        1      -0.00049507      -0.00119827       0.00061301
Ca      16.79251346      16.27807767      17.15232632        5        1       0.00009023      -0.00145947      -0.00004065
Ca      14.01336457      16.66838091      14.29358012        5        1      -0.00012030       0.00163079       0.00221099
Ca       7.57823673      10.55372828      17.17199864        5        1      -0.00052527       0.00121407       0.00242018
Ca       5.63595491       7.51749713      15.78362878        6        1      -0.00058615       0.00028676      -0.00310633
Ca      12.24018912      13.71030109      15.38699338        6        1       0.00051953      -0.00121710       0.00262074
O        9.57959854       8.52425975      13.88234582        7        1       0.00110310       0.00066560      -0.00252543
O       16.28716352      14.23571568      16.19370769        7        1       0.00061477       0.00255911      -0.00025473
O       14.48949808      18.99686703      13.80262656        7        1       0.00062480      -0.00059392      -0.00416680
O        7.71790771      12.89720541      16.42638568        7        1      -0.00169041      -0.00201786      -0.00168163
O        7.48751498       9.51016014      19.87014444        8        1      -0.00347296       0.00323660       0.00032526
O       14.54885875      14.34485020      14.46107041        8        1      -0.00088611      -0.00234960      -0.00099295
O       17.10214994      13.37100501      18.98006530        8        1      -0.02171032       0.01120922      -0.00600903
O        9.87968143      12.98778585      15.28241717        8        1       0.00210724       0.00221580       0.00009030
O        8.04133555      18.86542467      14.32168240        9        1       0.00075933      -0.00181206      -0.00102179
O       14.51606760      12.60070890      16.04460098        9        1       0.00156699      -0.00324676       0.00130801
O       15.99797147       8.98611064      11.94975912        9        1      -0.00383654       0.00120435      -0.00043563
O        9.03340177      14.90812030      16.46819604        9        1      -0.00216261       0.00055512      -0.00079165
O        8.76458383      22.55328652      20.20884098       10        1      -0.04235152      -0.00097609      -0.00807533
O       16.32695711      12.72206136      14.40608920       10        1       0.00085919      -0.00112033       0.00165086
O       15.00756019       2.90080263      20.07129996       10        1       0.00710213      -0.01321319       0.00825841
O        7.95538529      14.19428911      14.44930343       10        1       0.00094033       0.00294135      -0.00013834
O        9.88875532      16.73229097      14.56854148       11        1       0.00211489      -0.00160438      -0.00051961
O       16.10848303      10.72325832      17.90656554       11        1       0.00144855      -0.00018514       0.00065847
O       14.27737712      10.74777042      13.81399983       11        1      -0.00127151       0.00102356       0.00128763
O        7.94962059      16.43267169      18.73458658       11        1      -0.00147940       0.00149484      -0.00099532
O       11.78858410      15.40298435      13.76319543       12        1       0.00148684      -0.00255172      -0.00104855
O       18.15751538       9.45444522      17.53014180       12        1       0.00201239       0.00170146       0.00146832
O       12.22307784      12.08684809      13.56077468       12        1       0.00012058       0.00245082      -0.00202938
O        5.67000955      17.30840105      18.69805869       12        1      -0.00074286      -0.00049355       0.00209132
O       11.98457300      17.79688184      13.96321307       13        1      -0.00072690      -0.00072573      -0.00465051
O       18.00550661      11.68800343      16.72407684       13        1      -0.00125766       0.00182880       0.00125385
O       12.12568773       9.68080009      13.45303746       13        1      -0.00128130       0.00069888      -0.00332513
O        6.34004045      15.76454034      17.00162450       13        1      -0.00189874      -0.00131886      -0.00024063
O       11.23868822      13.80076222      17.55715539       14        1       0.00309548       0.00081349      -0.00051254
O       16.70281656       9.88638094      15.72614897       14        1       0.00222935       0.00182139       0.00089423
O       12.38951737      13.27541102      17.93793783       14        1      -0.00168212       0.00002066       0.00064049
O        7.28588824      17.95634848      17.00036981       14        1      -0.00229020      -0.00011497       0.00030115
O        7.83096613      10.72946798      14.64704448       15        1      -0.00273139       0.00339809       0.00322937
O       14.66020104      16.46552827      17.98430187       15        1      -0.00046848       0.00138654       0.00167184
O       16.35329422      16.67732706      14.86411620       15        1       0.00220840      -0.00073972       0.00174710
O        9.78809924      10.27167802      16.58794471       15        1      -0.00131016       0.00090686       0.00143591
O        5.83737730      11.57274860      13.53950409       16        1      -0.00137230       0.00095769       0.00182150
O       12.35827206      17.21874677      18.14292646       16        1       0.00215287      -0.00161032      -0.00208476
O       18.26898198      15.51434739      13.85265662       16        1       0.00007743      -0.00142356       0.00294862
O       11.52439506      10.33653504      18.34036647       16        1      -0.00276282       0.00104011      -0.00403663
O        5.93374577       9.26977383      14.20381228       17        1       0.00135957      -0.00024232      -0.00003688
O       13.06479341      15.77877873      16.31835977       17        1       0.00002555      -0.00012222       0.00024308
O       18.46539776      17.80756252      14.43153698       17        1      -0.00023130       0.00091356      -0.00189997
O       11.98199807      10.99835296      16.09212853       17        1       0.00002813      -0.00001711       0.00022039
O        7.01133399      10.78988290      19.56653891       18        1      -0.00019232       0.00049052       0.00155900
O       13.79618722      18.04137298      16.37409212       18        1      -0.00035689      -0.00023824       0.00194447
O       20.29497004      13.42614349      18.97640197       18        1      -0.00049982       0.00645351       0.00059045
O       11.51785958       8.65450158      16.59994031       18        1       0.00005638      -0.00026200       0.00124871
O        9.52900453      12.31984616      12.51467137       19        1       0.00042890       0.00417611      -0.00110606
O       16.33360572      18.62691037      16.94416483       19        1      -0.00114294       0.00181524       0.00221920
O       13.90572212      15.79175408      12.08771976       19        1      -0.00237071      -0.00035686      -0.00076545
O        7.87848407       8.18079724      16.13990003       19        1       0.00043522      -0.00198569       0.00045475
O        9.15800128      11.96588987      18.74657118       20        1      -0.00189274      -0.00573666       0.00006561
O       14.11938161       9.37942415      16.08773793       20        1       0.00035717       0.00148984       0.00092619
O       14.48259213      12.18558226      19.76332741       20        1      -0.00026074       0.00188486       0.00003727
O       10.64058235      18.59479651      16.50441444       20        1      -0.00092076       0.00086957      -0.00554426
H       10.35462315      12.82018040      12.43427053       21        1      -0.00632798       0.00109957       0.00240761
H       16.13758444       7.43230782      17.55899759       21        1      -0.00061987      -0.00153460      -0.00049498
H       13.05209191      15.37471135      12.32158151       21        1       0.00316895      -0.00199329       0.00214455
H        8.36706593      19.81070234      17.39633845       21        1      -0.00080000       0.00050204      -0.00090952
H        8.40844714      11.58771621      19.28639834       22        1       0.00109511       0.00026346       0.00122663
H       15.37432437      18.59869699      16.72644744       22        1       0.00115550      -0.00164727       0.00037374
H       13.89567567      12.65597347      20.40478194       22        1      -0.00128954      -0.00266734       0.00306370
H        8.40594658       8.40950615      15.35196850       22        1      -0.00263290       0.00306154       0.00109672
H        8.87061818      12.95800531      12.83159232       23        1      -0.00073516      -0.00093067       0.00117533
H       15.08116329       9.22419416      16.05980584       23        1       0.00135374       0.00290382      -0.00174222
H       14.52498988      15.06758562      11.94348862       23        1       0.00114633      -0.00193751       0.00234151
H       10.14297017       6.93289763      15.36662805       23        1      -0.00277279      -0.00023647      -0.00145419
H        9.95620686      11.45489806      18.97609158       24        1      -0.00081729      -0.00049292      -0.00226467
H       14.03462868      10.01100223      15.32077267       24        1      -0.00006753       0.00419387       0.00114556
H       15.39575354      12.46152846      19.88581429       24        1       0.00152614      -0.00264654      -0.00085574
H       10.34310687      17.88805007      15.89119361       24        1      -0.00297328      -0.00335399      -0.00271161
S       22.21928878       7.45197160      12.14055225        0        1      -0.00088404       0.00203865      -0.00328212
S        3.17176192       1.41121432      14.83064468        0        1       0.00361896      -0.00067636       0.00031500
S        2.90441628      19.16695511      12.86112899        0        1       0.00166719      -0.00122313      -0.00289069
S       22.13929307       1.88379174      14.89423437        0        1      -0.00259099       0.00178901      -0.00119054
S       24.39945557       5.00897505      12.89682164        1        1      -0.00011037      -0.00090709      -0.00019801
S        4.74694031      22.35252909      16.86402445        1        1       0.00181475      -0.00031736      -0.00212036
S        0.59024389      22.55895457      12.71523659        1        1      -0.00114103       0.00075657       0.00114609
S       19.89699175       4.97425423      17.14314689        1        1      -0.00071951      -0.00148043      -0.00229182
S       20.04206790      22.23826834      14.11312757        2        1       0.00094284       0.00094782       0.00122990
S        0.88489838       4.72035275      16.92666071        2        1      -0.00061755       0.00047612      -0.00034550
S        5.00769285       4.95649877      13.49608126        2        1       0.00078981      -0.00147037       0.00092680
S       23.65689736      21.90359497      17.67431852        2        1      -0.00006012       0.00118668      -0.00031507
Ca      25.02688397      19.60440385      15.02479985        3        1       0.00056651      -0.00058428      -0.00256273
Ca      19.02900417       1.85501356      15.03586898        3        1      -0.00019030       0.00027451       0.00051452
Ca      20.88718924       5.00907622      13.90152784        4        1      -0.00142748       0.00097374      -0.00098237
Ca       1.28475465      23.26952204      17.13937611        4        1      -0.00394077       0.00115882      -0.00457732
Ca       4.17735283      22.62729612      13.82230484        4        1       0.00254841      -0.00081239       0.00002613
Ca      23.48993411       1.61922448      18.08654135        4        1       0.00199240      -0.00026975      -0.00227344
Ca      23.29396959      22.80731446      14.75039523        5        1      -0.00131187      -0.00153962      -0.00015348
Ca       4.42885274       4.08929759      17.01656155        5        1       0.00118320      -0.00206366      -0.00055608
Ca       1.72658645       4.75380932      14.12923609        5        1       0.00060135       0.00104784       0.00173395
Ca      20.49404239      23.52301493      17.55289000        5        1       0.00052037       0.00148875       0.00031195
Ca      18.48886998      19.49789501      16.02376356        6        1       0.00067750      -0.00035812      -0.00235630
Ca      25.23724714       1.81303255      14.55054522        6        1       0.00067226       0.00052256       0.00153103
O       22.92676270      20.26152904      13.84494688        7        1       0.00003698       0.00124502      -0.00124169
O        4.04860216       2.07066412      15.81764527        7        1       0.00207086       0.00125580       0.00014293
O        2.54196219       7.10928184      13.79191203        7        1      -0.00082733      -0.00021209       0.00586119
O       21.35141932       0.81656625      15.51985710        7        1      -0.00061477      -0.00343145      -0.00258820
O       20.28614904      19.04020582      19.47494168        8        1       0.01710009      -0.01461131       0.00206603
O        2.06680268       2.31263966      14.45253779        8        1       0.00049712      -0.00086748      -0.00092970
O        7.33586751       6.24398172      19.80562718        8        1      -0.00484563       0.01182901       0.00366984
O       23.02392572       1.24782525      13.89148767        8        1       0.00204083       0.00213308      -0.00061784
O       21.32593100       6.30323515      11.93667763        9        1       0.00310249       0.00168410      -0.00259575
O        2.64107303       0.14617969      15.34901230        9        1       0.00097928      -0.00071222       0.00044460
O        3.77491227      20.28280191      13.22545622        9        1      -0.00363036       0.00205846      -0.00337861
O       22.98224304       2.61688299      15.83794097        9        1      -0.00144061      -0.00005668       0.00067803
O       21.03747403       8.52717588      19.62788709       10        1      -0.01780193       0.00277050       0.02623739
O        4.02159368       1.09079140      13.65781689       10        1       0.00281025      -0.00248068       0.00116810
O        1.05278642      19.74015633      18.67660047       10        1       0.02485312      -0.02542328       0.02910635
O       21.15197160       2.76945780      14.23188645       10        1      -0.00106792       0.00170599      -0.00051144
O       23.15844903       4.83143656      13.72437294       11        1       0.00070050       0.00008386       0.00139088
O        3.74932697      22.78078874      17.81876576       11        1       0.00080398      -0.00199165       0.00088949
O        2.05597860      22.57014983      13.05537600       11        1      -0.00216025       0.00017398      -0.00039901
O       20.44156997       4.81339778      18.46505001       11        1       0.00002041       0.00022370      -0.00031911
O       25.24531907       3.71966242      13.08223085       12        1      -0.00091022      -0.00300696      -0.00258706
O        5.85911633      21.57948940      17.47900697       12        1       0.00032130      -0.00096872      -0.00216738
O        0.03550617      23.96321534      12.87268627       12        1       0.00093947       0.00172198      -0.00182976
O       18.83172437       6.03319285      17.15823788       12        1       0.00036754      -0.00057913      -0.00128333
O       25.27085234       6.04664158      13.64340468       13        1      -0.00009637      -0.00092339      -0.00395040
O        5.37574601      23.46206970      16.09924086       13        1       0.00040100       0.00005240       0.00109052
O       25.41070543      21.73588567      13.86436631       13        1       0.00041481       0.00081786      -0.00097765
O       19.22468207       3.75081445      16.64162385       13        1      -0.00029662      -0.00001650      -0.00124712
O       25.29700804       0.94855948      16.69381975       14        1      -0.00061378       0.00234060       0.00035216
O        4.11404098      21.41883011      15.86107725       14        1      -0.00030044       0.00117379      -0.00068794
O       25.15553255      23.81094739      15.69355028       14        1      -0.00069289      -0.00192977      -0.00094117
O       20.94247235       5.39775963      16.17795653       14        1      -0.00201270      -0.00118419       0.00082829
O       20.94068851      22.15970743      15.37200017       15        1      -0.00068867       0.00092117       0.00057379
O        2.14420691       3.97340198      17.09309323       15        1       0.00224978       0.00132028       0.00203705
O        4.03531662       4.66728971      14.64855623       15        1       0.00210004      -0.00130189       0.00209003
O       22.78314622      21.10113593      18.52197761       15        1      -0.00064335      -0.00076607      -0.00078666
O       19.17426965      23.49759057      14.29118762       16        1       0.00089549       0.00038430       0.00136689
O        0.25219546       5.02142099      18.18259953       16        1       0.00023369      -0.00164654      -0.00150858
O        5.92494736       3.72251355      13.39224887       16        1       0.00056035      -0.00262216       0.00262275
O       24.91802866      22.27120622      18.30917527       16        1       0.00139958      -0.00026754      -0.00141874
O       19.04049291      21.10846653      14.28905189       17        1       0.00111303       0.00106683       0.00026678
O        0.02993816       3.96608565      15.99578582       17        1       0.00129983      -0.00037235      -0.00154416
O        5.97337130       6.01209823      14.06772039       17        1      -0.00114893       0.00079775       0.00008068
O       22.92515645      23.16229229      17.27872225       17        1      -0.00019666       0.00001161      -0.00012611
O       18.69778498       0.88446717      17.03392477       18        1       0.00144990      -0.00176648      -0.00275882
O        1.24126774       6.00773032      16.20631370       18        1      -0.00119662       0.00218288       0.00064384
O        4.86420508       2.76488230      18.85520941       18        1       0.00265995      -0.00224059      -0.00375029
O       23.90704885      21.17347396      16.38916173       18        1       0.00052174       0.00130738      -0.00082425
O       23.01077844      23.02708922      12.31218468       19        1       0.00051077       0.00335848      -0.00177782
O        3.75930018       6.53200172      16.93342863       19        1       0.00013694       0.00152852       0.00074211
O        2.21598584       3.82185439      11.99350760       19        1      -0.00986854       0.00394833       0.00389946
O       20.86276092      19.84869584      16.61511593       19        1       0.00137037       0.00101551      -0.00299346
O       21.23900363       1.57353314      18.11874065       20        1      -0.00353843      -0.00344319      -0.00644579
O        1.37046462      21.18248687      15.92087445       20        1       0.00073000       0.00137731      -0.00022243
O        2.26013542       1.28715048      18.04488349       20        1       0.00398072       0.00084613      -0.00384066
O       23.61322620       5.96015274      16.36944692       20        1      -0.00088031       0.00025409       0.00083115
H       23.83360789      23.55397759      12.21307486       21        1      -0.00219052      -0.00069777       0.00183490
H        3.48943438      19.21926205      17.56235991       21        1       0.00274036      -0.00206299      -0.00340252
H        1.30005852       3.48940574      11.94672531       21        1       0.00170850       0.00255463       0.00066973
H       20.53158841       7.56010394      17.33354079       21        1       0.00061336      -0.00004486      -0.00224293
H       19.14330374       1.58535641      17.54820565       22        1       0.00244336      -0.00054934       0.00136727
H        2.83165232       6.49483034      16.60044071       22        1       0.00109833      -0.00227244       0.00086078
H        2.18779833       2.09220143      17.50218048       22        1      -0.00297192       0.00288055       0.00377738
H       21.01395042      20.67845162      16.08534986       22        1      -0.00178692       0.00084781      -0.00030773
H       22.29499009      23.65093674      12.14422779       23        1       0.00339721      -0.00186225      -0.00116433
H        2.33311131      21.05112367      15.80112708       23        1       0.00147659      -0.00299600      -0.00627429
H        2.78500322       3.04334363      12.06291125       23        1       0.00597138      -0.00181800      -0.00763516
H       22.37818746      18.80073534      16.09737872       23        1      -0.00439526      -0.00214220      -0.00186718
H       20.91643720       2.06378706      18.89054606       24        1       0.00023347      -0.00119295       0.00061425
H        1.02860772      21.58186725      15.07108799       24        1       0.00120715       0.00215029      -0.00216882
H        3.26833559       1.24573395      18.36201082       24        1       0.00141900      -0.00288008      -0.00247700
H       23.89369388       5.09054765      16.02701138       24        1      -0.00046219      -0.00184276      -0.00072809
S       21.83187323      19.89884987      12.91590230        0        1      -0.00042239       0.00043067      -0.00370968
S        2.72441346      13.22784028      15.41207742        0        1       0.00440642      -0.00183820       0.00252478
S        2.96211496       7.50983470      12.43121374        0        1      -0.00356101      -0.00334262      -0.01127080
S       21.61090617      13.48619758      15.27189647        0        1      -0.00341242      -0.00029016       0.00085989
S       24.01995934      16.40097439      13.15872127        1        1       0.00049530      -0.00069703      -0.00138922
S        4.50061540      10.05473825      17.09573346        1        1       0.00310915       0.00153888      -0.00173270
S        0.20534893      10.34385143      13.03543520        1        1      -0.00143908      -0.00120281       0.00076054
S       19.82703193      16.36410228      17.28364465        1        1       0.00068288      -0.00095257      -0.00099543
S       19.62046556      10.35770313      13.55520340        2        1       0.00058994       0.00194899       0.00117573
S        0.39506157      16.98038033      17.29139093        2        1      -0.00095513       0.00101401      -0.00032683
S        4.63447925      16.72650177      14.03508566        2        1       0.00054268      -0.00120810      -0.00025682
S       23.54056155      10.00796888      17.02453187        2        1       0.00066444      -0.00089175       0.00226582
Ca      25.01320637       7.54953760      15.36205981        3        1      -0.00034923       0.00061359      -0.00132448
Ca      18.51270464      13.53009566      15.20992275        3        1       0.00085618       0.00031455       0.00259639
Ca      20.45511814      16.56930928      13.93921519        4        1      -0.00158983      -0.00019856      -0.00176559
Ca       1.08321776      10.96569624      17.84092713        4        1      -0.00172871      -0.00003704      -0.00289008
Ca       3.76777300      10.55747949      14.01437412        4        1       0.00092699      -0.00017977       0.00069682
Ca      22.96333083      16.19340022      17.38728397        4        1       0.00119917       0.00252802      -0.00153857
Ca      22.82158143      10.26967730      14.10192055        5        1      -0.00087823      -0.00103469       0.00207118
Ca       3.97710248      16.15485010      17.45501030        5        1       0.00231884      -0.00404740      -0.00112630
Ca       1.23450487      16.37868580      14.49760996        5        1       0.00001230       0.00186823       0.00145212
Ca      20.19325035      10.67632923      17.10558475        5        1      -0.00115847       0.00292231      -0.00028319
Ca      18.33585390       7.83994811      15.65048001        6        1      -0.00052763       0.00017811      -0.00199889
Ca      24.71568687      13.27635601      15.22448330        6        1      -0.00029016      -0.00033887       0.00201533
O       22.19221846       7.92682672      13.54512805        7        1       0.00089803      -0.00063398      -0.00147795
O        3.68388454      13.96298950      16.26719476        7        1       0.00078539       0.00283112      -0.00017836
O        1.89753697      18.83026615      13.89641219        7        1      -0.00126910       0.00159530      -0.00366280
O       20.72083897      12.76647888      16.20114960        7        1      -0.00189925      -0.00205338       0.00022814
O       20.27644999       9.49020640      19.48698090        8        1       0.01983892      -0.00080214      -0.00878972
O        1.52190149      14.03482602      15.18157457        8        1      -0.00119487      -0.00255231      -0.00059834
O        2.09905816      20.38030379      18.57236009        8        1      -0.02360283       0.02616667      -0.01363056
O       22.40741717      12.57666155      14.43476135        8        1       0.00099737       0.00138261      -0.00169424
O       21.01778821      18.77451435      13.41045131        9        1       0.00071911      -0.00185001      -0.00019372
O        2.36958650      11.93406413      15.99405893        9        1      -0.00059594      -0.00027238      -0.00050551
O        3.57655296       8.83814946      12.38692464        9        1      -0.00290315       0.00634861      -0.00215238
O       22.58985428      14.30111323      16.01544260        9        1       0.00062757       0.00063964       0.00045930
O       20.25858380      20.18053971      19.91459874       10        1      -0.01506829       0.01103290       0.00408108
O        3.44090508      12.96911858      14.13054846       10        1       0.00009074      -0.00237067       0.00131420
O        6.36762706       6.97601003      19.64831554       10        1       0.00631540      -0.01314004       0.01350139
O       20.72448012      14.30371279      14.42049495       10        1      -0.00061247       0.00261552       0.00021937
O       22.74703426      16.51533612      13.99997080       11        1       0.00019956       0.00162548      -0.00154572
O        3.50989295      10.34188129      18.10755505       11        1       0.00046036      -0.00203090      -0.00012682
O        1.50002708      10.37432615      13.83829032       11        1      -0.00018769      -0.00082448       0.00140901
O       20.70188489      16.11501727      18.41925848       11        1      -0.00043743       0.00120043      -0.00101114
O       24.77623909      15.16196939      13.69065048       12        1      -0.00061986      -0.00223262      -0.00066004
O        5.58555651       9.17163902      17.57137414       12        1       0.00026792      -0.00061064      -0.00196533
O       24.93329114      11.61308978      13.44784662       12        1      -0.00012111       0.00232370      -0.00060777
O       18.86470888      17.47037232      17.50474438       12        1       0.00086640       0.00037776      -0.00096625
O       24.90065336      17.57018762      13.64950691       13        1      -0.00052184       0.00027460      -0.00522349
O        5.14535809      11.28563597      16.54351456       13        1      -0.00046060       0.00115376      -0.00149643
O       24.88158580       9.21752871      13.69053051       13        1      -0.00106643      -0.00050993      -0.00187302
O       18.98071598      15.18355574      16.93945663       13        1      -0.00102551       0.00062201       0.00153628
O       24.75917590      12.37845586      18.41780753       14        1       0.00046772      -0.00000625       0.00005333
O        3.84688135       9.31251120      15.96071803       14        1      -0.00021905       0.00195123       0.00026012
O        0.03260471      13.03211571      17.42196677       14        1      -0.00006705      -0.00089361      -0.00234378
O       20.72653035      16.71039614      16.15000496       14        1      -0.00173405      -0.00160791      -0.00153850
O       20.51280485      10.28973704      14.81280023       15        1      -0.00227216       0.00233822       0.00355377
O        1.66852529      16.52939402      17.89826561       15        1       0.00018784       0.00314600      -0.00052668
O        3.52005485      16.52862321      15.08398748       15        1       0.00355132      -0.00069653       0.00166830
O       22.38479671      10.54240185      17.76083108       15        1       0.00116332       0.00035886       0.00267763
O       18.76871115      11.63615089      13.72872282       16        1      -0.00158724       0.00145916       0.00162075
O       24.91477147      17.39325320      18.27626393       16        1       0.00090956       0.00073181      -0.00036876
O        5.54496798      15.49222541      14.16771954       16        1       0.00008904      -0.00102351       0.00209931
O       24.55010258       9.47022672      17.92397141       16        1       0.00024592       0.00146119      -0.00000579
O       18.57881014       9.25000769      13.77117156       17        1       0.00200571      -0.00230112      -0.00115376
O       25.28748681      15.87524050      16.48117874       17        1       0.00336302       0.00082054      -0.00020543
O        5.52507913      17.82534448      14.61381028       17        1      -0.00052835      -0.00099436      -0.00143546
O       24.10788966      11.01962228      16.11294626       17        1      -0.00317747       0.00060080      -0.00054643
O       19.98196122      12.21451859      19.01562198       18        1      -0.00002356      -0.00426306      -0.00178657
O        0.76687604      18.05030715      16.32180261       18        1       0.00150332       0.00035564       0.00230045
O        3.85255966      14.56402393      19.11094403       18        1      -0.00238685       0.00114459       0.00195843
O       23.06111512       8.90261173      16.11621581       18        1      -0.00264489       0.00024564       0.00367822
O       22.76592746      11.14005571      11.89429965       19        1       0.00229271       0.00163693      -0.00080423
O        3.87455825      18.65751335      16.87069399       19        1       0.00200499       0.00234330       0.00317993
O        1.96772242      15.14079952      12.58042927       19        1       0.00216602       0.00009535      -0.00176053
O       20.52324629       8.27316267      16.67726722       19        1       0.00257211      -0.00279464       0.00170102
O       23.15461974      14.41162273      18.89087334       20        1      -0.00223701      -0.00198247      -0.00225334
O        1.19589025       9.13971845      16.11845488       20        1      -0.00042965       0.00055683       0.00079994
O        2.10823443      12.25594459      19.54643839       20        1       0.00438181       0.00307934      -0.00216210
O       23.17138364      18.23694490      15.96850897       20        1       0.00023120       0.00168206      -0.00226099
H       23.56412729      11.67087909      12.09361701       21        1      -0.00548214      -0.00084465       0.00125745
H        3.69646046       6.45187668      17.90668923       21        1      -0.00127044      -0.00037516      -0.00078166
H        1.12783008      14.67682034      12.44398427       21        1      -0.00051116       0.00090332       0.00046386
H       21.29260374      20.03781120      17.46880754       21        1       0.00064315       0.00051509      -0.00128785
H       23.68369543      13.59038313      18.67741648       22        1       0.00221939       0.00024706       0.00380502
H        3.19953224      18.62700998      16.17142635       22        1       0.00166457      -0.00200663      -0.00247799
H        1.71925027      13.17608848      19.55977280       22        1      -0.00208770       0.00319552       0.00287887
H       21.42965960       8.30252607      16.29218423       22        1      -0.00097054       0.00134190       0.00114922
H       22.06055110      11.75367728      11.66366956       23        1      -0.00212974      -0.00198071       0.00085670
H        2.13601022       8.87214737      16.19690787       23        1       0.00043535       0.00082605      -0.00219531
H        2.60321417      14.44881096      12.82724871       23        1      -0.00098134       0.00024624       0.00269258
H       22.64001361       5.89944926      16.40795579       23        1      -0.00309478      -0.00231253      -0.00372601
H       22.24415535      14.11910663      19.04310144       24        1      -0.00087950       0.00125148      -0.00147640
H        1.23174683       9.66744482      15.26502208       24        1       0.00033120       0.00130437       0.00045678
H        3.09273209      12.42337381      19.34842386       24        1       0.00079619      -0.00174386      -0.00023814
H       22.98285257      17.70087933      15.15134946       24        1      -0.00012889       0.00005675      -0.00134073
O       12.56634297      13.11765770      21.32496098        0        0      -0.00379186       0.00114607      -0.00125863
H       12.34754672      13.69871935      22.07194380        0        0       0.00283753       0.00370544       0.00087795
H       11.81841960      12.47534074      21.32053633        0        0       0.00068702       0.00073078       0.00029678
O        5.52922098       4.10830903      20.81790572        0        0      -0.00219401      -0.00244357      -0.00153615
H        5.38585605       3.37996223      20.09480431        0        0       0.00088504       0.00040914      -0.00019420
H        6.45448236       4.37023852      20.79504500        0        0       0.00379694       0.00532949       0.00067674
O       18.76206269       0.74271642      20.44421198        0        0       0.02082859       0.04839895       0.06027073
H       19.19032845      23.84723641      20.40684809        0        0      -0.00964294      -0.02849574      -0.01644535
H       17.93525282       0.65142296      19.93567198        0        0       0.00883200      -0.02790824      -0.04192258
O       22.84967754       1.40409455      20.50815384        0        0      -0.00878038      -0.00375911       0.00432000
H       22.05091517       1.97652661      20.61084651        0        0      -0.00864875       0.00530225       0.00084982
H       23.53181563       1.79969585      21.08894199        0        0       0.00254622       0.00471746      -0.00604963
O       22.54053375      11.53402681      20.41657902        0        0      -0.00248594      -0.00169813      -0.00207051
H       21.59272493      11.67445259      20.53827875        0        0       0.00044491      -0.00221703       0.00010363
H       22.63288552      11.18631684      19.50703982        0        0       0.00085347      -0.00276075      -0.00348571
O        0.77161378      14.49910855      19.39597872        0        0      -0.00231235       0.00067379       0.00412944
H        1.23986287      15.33196959      19.20895125        0        0      -0.00010611       0.00183611       0.00493934
H        0.52280767      14.14783822      18.49796027        0        0       0.00301912       0.00025596      -0.00134029
O        3.65588332       5.25194827      19.30585160        0        0      -0.00226547      -0.00130332       0.00126826
H        3.01784813       4.51159697      19.44150024        0        0       0.00412465      -0.00073538       0.00190685
H        0.98079185       1.61370434      18.78279988        0        0       0.00180448       0.00012038      -0.00214530
O       10.90532882       2.77762074      18.44658898        0        0       0.00516948       0.00335769       0.00054561
H       10.33448423       2.00774519      18.31894918        0        0      -0.00159188      -0.00086856       0.00321859
H       11.80900925       2.40228230      18.55385935        0        0       0.00321369      -0.00299441       0.00034865
O        3.75062990       0.92064207      21.14149850        0        0       0.00161861       0.00148476       0.00042474
H        4.14759263       1.05202939      20.20454641        0        0       0.00012052       0.00143023       0.00095541
H        4.01675948       0.03918364      21.41761701        0        0       0.00425187       0.00031338      -0.00083529
O        3.84757664      14.00314026      21.76862987        0        0      -0.00043077       0.00455563      -0.00294282
H        5.44177825      14.69188411      21.94012269        0        0      -0.00263914       0.00298432       0.00186567
H        3.66345771      14.36428119      20.86468769        0        0       0.00025260       0.00161794       0.00009024
O        0.56236844       5.12289348      22.64791309        0        0       0.00372316      -0.00419900       0.00106046
H        0.03159885       4.37355350      22.24884646        0        0      -0.00557551      -0.00089019       0.00121798
H        3.02924688       4.16998788      23.14500740        0        0      -0.00755851       0.00582213       0.00721337
O        1.22427027      11.11568765      21.68297876        0        0       0.00110939      -0.00207632      -0.00380092
H        1.64006133      11.52533572      22.48749927        0        0       0.00428251       0.00019046      -0.00023600
H        1.70418068      11.54727603      20.92092360        0        0      -0.00108472       0.00245860      -0.00176361
O        2.11308847      12.75187178      23.60699525        0        0      -0.00015906       0.00051640      -0.00097276
H        2.56382265      13.41990576      23.05486886        0        0       0.00159048       0.00180331       0.00054531
H        1.23145345      13.08986254      23.85122060        0        0       0.00055739      -0.00205828      -0.00188258
O        9.74260259       6.90058781      17.82707100        0        0      -0.00198546      -0.00398275       0.00117450
H        9.30642694       7.25042530      18.62411620        0        0      -0.00249816       0.00274594       0.00301995
H       10.49642746       7.50047266      17.63469383        0        0      -0.00008955       0.00550663       0.00094239
O       21.25758485      23.07516075      19.85547037        0        0      -0.00011703      -0.02791158       0.01083946
H       21.80657346      22.27334518      19.78185748        0        0      -0.01064419       0.02155094       0.00659558
H       21.84703603      23.77472683      20.19716178        0        0       0.01262291       0.01201237      -0.00599019
O       24.87487473      13.10537445      23.99655283        0        0       0.00158578       0.00089869       0.00234516
H       24.45438959      13.42805223      24.79914870        0        0       0.00110033       0.00262140       0.00148745
H       24.61284203      13.59191105      22.10537564        0        0       0.00001868       0.00069319       0.00132186
O       20.48776274       2.79127126      20.59463914        0        0       0.01919701       0.03081048       0.01710296
H       19.73568589       2.15184687      20.60901377        0        0      -0.02497355      -0.01419796      -0.03556120
H       20.19437458       3.59656447      20.14576307        0        0      -0.00241628      -0.03563123       0.00007895
O       10.66997007      14.70288461      22.77032429        0        0       0.00482235       0.00035588       0.00681665
H       10.44800795      15.05324009      23.63715811        0        0      -0.00266745      -0.00344478       0.00141412
H        9.82007621      14.41749778      22.36324756        0        0      -0.00070730      -0.00076271       0.00175158
O       10.31768309      11.65117169      21.33373917        0        0      -0.00101677      -0.00688232       0.00051422
H       10.13606766      11.00803975      22.02521486        0        0       0.00186546       0.00643957      -0.00171742
H        9.62547561      12.34933426      21.40502615        0        0      -0.00281455      -0.00061813      -0.00041300
O        0.87596240       9.30910299      19.80411228        0        0      -0.00035271       0.00203946       0.00519625
H       25.42419012       9.27418826      19.60994046        0        0       0.00239695       0.00303954      -0.00543732
H        1.00380159       9.80386934      20.65287280        0        0       0.00284434      -0.00169546      -0.00177727
N       11.03789924      15.35309184      19.91149594        0        0      -0.00164998      -0.00071490      -0.00085372
H       11.72919108      14.63835386      20.13906937        0        0       0.00158914      -0.00110658       0.00032053
H       10.82890721      15.80588193      20.79877527        0        0      -0.00035323      -0.00037268       0.00191201
H       11.50232510      16.03435107      19.31275069        0        0       0.00006346      -0.00020910      -0.00134795
N        4.33945103      13.27052915      18.87608861        0        0      -0.00003739      -0.00248578       0.00073630
H        4.26983429      13.14527536      21.60175949        0        0      -0.00155288      -0.00003148       0.00244886
H        4.24920848      13.09918085      17.87887596        0        0      -0.00167327      -0.00168738      -0.00104615
H        5.34550300      13.28324569      19.13305418        0        0      -0.00276122       0.00164256       0.00042590
N       24.72743870      13.16938822      21.17886087        0        0       0.00247565       0.00197341       0.00359714
H       23.84186456      12.75944078      20.83710550        0        0      -0.00237143      -0.00163064       0.00227621
H       25.41188591      12.40073670      21.29476832        0        0      -0.00060523      -0.00042141       0.00077762
H       25.11741408      13.84218897      20.48743709        0        0       0.00101214       0.00028274      -0.00070826
N        3.40538004       3.58009018      22.40862406        0        0       0.00198115       0.00215240      -0.00266703
H        4.41175041       5.04707913      19.91712497        0        0      -0.00031195      -0.00125192      -0.00262096
H        4.32810821       3.89500914      22.04260640        0        0       0.00097154      -0.00285872      -0.00071808
H        2.71188657       3.58754731      21.58216584        0        0       0.00094637      -0.00015798      -0.00389561
H        3.49731920       2.60854663      22.70322346        0        0       0.00566328      -0.00700048      -0.00267073
N       23.99676650      10.73699702      23.04345605        0        0      -0.00130111       0.00056869       0.00175685
H       23.61490854      10.01191293      23.63976290        0        0      -0.00071054       0.00158311      -0.00037552
H       24.46762814      12.19988477      23.78964235        0        0      -0.00190898      -0.00030856      -0.00170714
H       23.38848548      10.82597845      22.22762564        0        0      -0.00106508       0.00011702      -0.00155156
H       24.89960649      10.41346304      22.70013490        0        0      -0.00182650       0.00169693       0.00078369
N       23.27068550       3.92964808      18.85293973        0        0       0.00083941      -0.00406395      -0.00265948
H       23.79842875       4.63986868      18.35645730        0        0      -0.00215438       0.00285550      -0.00014008
H       23.60617657       3.94929561      19.81430803        0        0      -0.00081159      -0.00163657       0.00001062
H        0.78739150       5.98899833      19.51574610        0        0      -0.00150338      -0.00337145      -0.00118503
H       22.28807836       4.19252729      18.84277172        0        0      -0.00150695      -0.00266713       0.00135062
N        1.27530227       6.50587548      20.27359510        0        0       0.00247913       0.00401221       0.00093065
H        0.95243943       6.13853498      21.18815608        0        0       0.00067531       0.00059271       0.00132728
H        0.05921828       5.44530503      23.40264606        0        0      -0.00073579      -0.00012574       0.00216552
H        2.26768569       6.26219195      20.15222409        0        0      -0.00152157       0.00060838      -0.00095823
H        1.14095187       7.52485435      20.16360097        0        0      -0.00135695      -0.00165962       0.00112255
P        0.64005682       2.55353773      20.67081605        0        0       0.00281837       0.00220395       0.00007181
O        1.75529834       3.53808334      20.40187437        0        0      -0.00094107       0.00484395      -0.00153588
O        0.15200730       1.92217596      19.29114048        0        0       0.00042291      -0.00465933      -0.00159326
O       24.93076636       3.10367131      21.36639538        0        0       0.00165744      -0.00027377       0.00000155
O        1.20961619       1.35507910      21.51269692        0        0      -0.00266057      -0.00439288      -0.00102590
H        2.16032110       1.11094573      21.30159648        0        0      -0.00186258      -0.00915562      -0.00001199
P        7.11277733      13.68550952      21.01418908        0        0       0.00257151      -0.00643665       0.00743385
O        6.42416249      14.81453876      21.84093337        0        0      -0.00310953      -0.00049714      -0.00259511
O        8.60449402      13.75420535      21.28858849        0        0      -0.00270404       0.00458440       0.00192542
O        6.91001810      13.76931027      19.51499269        0        0      -0.00067323      -0.00394075       0.00611689
O        6.42061722      12.36291469      21.53698385        0        0      -0.00260377       0.01093108      -0.00656595
H        6.56075085      11.61108587      20.87360359        0        0       0.00425678      -0.00358122      -0.00410085
