180
Lattice="25.513 0.0 0.0 0.0 13.8536 0.0 0.0 0.0 20.428900214075313" Properties=species:S:1:pos:R:3 pbc="T T F"
Ca         0.0000000000       1.5481398000       5.8170241700
Ca         4.2521666700       5.0080764000       5.1751542000
Ca         8.5043333300       0.3705838000       2.4936974100
Ca        10.7792425000       5.1292954000       5.2651359700
Ca         2.2749091700       0.2320478000       2.5536852500
Ca         6.5270758300       1.5654568000       5.6670545500
S          3.3294465000       1.5550666000       5.8290217400
S          7.5816131700       4.9942228000       5.1751542000
S         11.8337798300       0.3775106000       2.4816998400
O          4.0182975000       0.2424380000       5.9789913600
O          8.2704641700       5.5206596000       3.9633996700
O         12.5226308300       1.1637024000       3.5434847400
O          2.2323875000       1.4442378000       4.8572186100
O          6.4845541700       5.8912434000       5.5650752100
O         10.7367208300       6.5181188000       3.0635819600
O          2.5895695000       5.2747582000       1.0779842000
O          6.8417361700       3.7854962000       4.7732356200
O         11.0939028300       1.3299456000       1.6358711900
O          4.1586190000       2.7326226000       5.5770727800
O          8.4107856700       4.6236390000       6.3209220900
O         12.6629523300       6.4973384000       1.5878809100
S          1.1735980000       4.9665156000       5.2351420500
S          5.4257646700       0.3394132000       2.4277107700
S          9.6779313300       1.6208712000       5.8230229500
O          0.3189125000       3.8201302000       4.8692161700
O          4.5710791700       1.2295070000       1.6178748300
O          8.8232458300       5.3405628000       1.0000000000
O          2.0410400000       5.4271478000       4.1373644300
O          6.2932066700       1.0598004000       3.3755187700
O         10.5453733300       0.4398518000       5.9729925700
O          0.1403215000       6.0193892000       5.3911104500
O          4.3924881700       6.6047038000       3.2615418600
O          8.6446548300       1.2295070000       4.8332234700
O          2.0410400000       4.7344678000       6.4289002100
O          6.2932066700       6.3484122000       1.6298724000
O         10.5453733300       2.7707200000       5.4271031600
O          2.4875175000       2.6529644000       2.6316694600
O          6.7396841700       3.7508622000       1.7258529600
O         10.9918508300       3.9863734000       3.1295685900
H          3.4442550000       2.5906232000       3.0515843900
H          7.6964216700       3.4183758000       1.4619064300
H         11.9485883300       4.3812010000       2.9736001900
H          2.7936735000       3.3317908000       1.9238128500
H          7.0458401700       4.0244708000       2.6676621700
H         11.2980068300       3.0339384000       2.8956159900
Ca         0.0000000000       8.4749398000       5.8170241700
Ca         4.2521666700      11.9348764000       5.1751542000
Ca         8.5043333300       7.2973838000       2.4936974100
Ca        10.7792425000      12.0560954000       5.2651359700
Ca         2.2749091700       7.1588478000       2.5536852500
Ca         6.5270758300       8.4922568000       5.6670545500
S          3.3294465000       8.4818666000       5.8290217400
S          7.5816131700      11.9210228000       5.1751542000
S         11.8337798300       7.3043106000       2.4816998400
O          4.0182975000       7.1692380000       5.9789913600
O          8.2704641700      12.4474596000       3.9633996700
O         12.5226308300       8.0905024000       3.5434847400
O          2.2323875000       8.3710378000       4.8572186100
O          6.4845541700      12.8180434000       5.5650752100
O         10.7367208300      13.4449188000       3.0635819600
O          2.5895695000      12.2015582000       1.0779842000
O          6.8417361700      10.7122962000       4.7732356200
O         11.0939028300       8.2567456000       1.6358711900
O          4.1586190000       9.6594226000       5.5770727800
O          8.4107856700      11.5504390000       6.3209220900
O         12.6629523300      13.4241384000       1.5878809100
S          1.1735980000      11.8933156000       5.2351420500
S          5.4257646700       7.2662132000       2.4277107700
S          9.6779313300       8.5476712000       5.8230229500
O          0.3189125000      10.7469302000       4.8692161700
O          4.5710791700       8.1563070000       1.6178748300
O          8.8232458300      12.2673628000       1.0000000000
O          2.0410400000      12.3539478000       4.1373644300
O          6.2932066700       7.9866004000       3.3755187700
O         10.5453733300       7.3666518000       5.9729925700
O          0.1403215000      12.9461892000       5.3911104500
O          4.3924881700      13.5315038000       3.2615418600
O          8.6446548300       8.1563070000       4.8332234700
O          2.0410400000      11.6612678000       6.4289002100
O          6.2932066700      13.2752122000       1.6298724000
O         10.5453733300       9.6975200000       5.4271031600
O          2.4875175000       9.5797644000       2.6316694600
O          6.7396841700      10.6776622000       1.7258529600
O         10.9918508300      10.9131734000       3.1295685900
H          3.4442550000       9.5174232000       3.0515843900
H          7.6964216700      10.3451758000       1.4619064300
H         11.9485883300      11.3080010000       2.9736001900
H          2.7936735000      10.2585908000       1.9238128500
H          7.0458401700      10.9512708000       2.6676621700
H         11.2980068300       9.9607384000       2.8956159900
Ca        12.7565000000       1.5481398000       5.8170241700
Ca        17.0086666700       5.0080764000       5.1751542000
Ca        21.2608333300       0.3705838000       2.4936974100
Ca        23.5357425000       5.1292954000       5.2651359700
Ca        15.0314091700       0.2320478000       2.5536852500
Ca        19.2835758300       1.5654568000       5.6670545500
S         16.0859465000       1.5550666000       5.8290217400
S         20.3381131700       4.9942228000       5.1751542000
S         24.5902798300       0.3775106000       2.4816998400
O         16.7747975000       0.2424380000       5.9789913600
O         21.0269641700       5.5206596000       3.9633996700
O         25.2791308300       1.1637024000       3.5434847400
O         14.9888875000       1.4442378000       4.8572186100
O         19.2410541700       5.8912434000       5.5650752100
O         23.4932208300       6.5181188000       3.0635819600
O         15.3460695000       5.2747582000       1.0779842000
O         19.5982361700       3.7854962000       4.7732356200
O         23.8504028300       1.3299456000       1.6358711900
O         16.9151190000       2.7326226000       5.5770727800
O         21.1672856700       4.6236390000       6.3209220900
O         25.4194523300       6.4973384000       1.5878809100
S         13.9300980000       4.9665156000       5.2351420500
S         18.1822646700       0.3394132000       2.4277107700
S         22.4344313300       1.6208712000       5.8230229500
O         13.0754125000       3.8201302000       4.8692161700
O         17.3275791700       1.2295070000       1.6178748300
O         21.5797458300       5.3405628000       1.0000000000
O         14.7975400000       5.4271478000       4.1373644300
O         19.0497066700       1.0598004000       3.3755187700
O         23.3018733300       0.4398518000       5.9729925700
O         12.8968215000       6.0193892000       5.3911104500
O         17.1489881700       6.6047038000       3.2615418600
O         21.4011548300       1.2295070000       4.8332234700
O         14.7975400000       4.7344678000       6.4289002100
O         19.0497066700       6.3484122000       1.6298724000
O         23.3018733300       2.7707200000       5.4271031600
O         15.2440175000       2.6529644000       2.6316694600
O         19.4961841700       3.7508622000       1.7258529600
O         23.7483508300       3.9863734000       3.1295685900
H         16.2007550000       2.5906232000       3.0515843900
H         20.4529216700       3.4183758000       1.4619064300
H         24.7050883300       4.3812010000       2.9736001900
H         15.5501735000       3.3317908000       1.9238128500
H         19.8023401700       4.0244708000       2.6676621700
H         24.0545068300       3.0339384000       2.8956159900
Ca        12.7565000000       8.4749398000       5.8170241700
Ca        17.0086666700      11.9348764000       5.1751542000
Ca        21.2608333300       7.2973838000       2.4936974100
Ca        23.5357425000      12.0560954000       5.2651359700
Ca        15.0314091700       7.1588478000       2.5536852500
Ca        19.2835758300       8.4922568000       5.6670545500
S         16.0859465000       8.4818666000       5.8290217400
S         20.3381131700      11.9210228000       5.1751542000
S         24.5902798300       7.3043106000       2.4816998400
O         16.7747975000       7.1692380000       5.9789913600
O         21.0269641700      12.4474596000       3.9633996700
O         25.2791308300       8.0905024000       3.5434847400
O         14.9888875000       8.3710378000       4.8572186100
O         19.2410541700      12.8180434000       5.5650752100
O         23.4932208300      13.4449188000       3.0635819600
O         15.3460695000      12.2015582000       1.0779842000
O         19.5982361700      10.7122962000       4.7732356200
O         23.8504028300       8.2567456000       1.6358711900
O         16.9151190000       9.6594226000       5.5770727800
O         21.1672856700      11.5504390000       6.3209220900
O         25.4194523300      13.4241384000       1.5878809100
S         13.9300980000      11.8933156000       5.2351420500
S         18.1822646700       7.2662132000       2.4277107700
S         22.4344313300       8.5476712000       5.8230229500
O         13.0754125000      10.7469302000       4.8692161700
O         17.3275791700       8.1563070000       1.6178748300
O         21.5797458300      12.2673628000       1.0000000000
O         14.7975400000      12.3539478000       4.1373644300
O         19.0497066700       7.9866004000       3.3755187700
O         23.3018733300       7.3666518000       5.9729925700
O         12.8968215000      12.9461892000       5.3911104500
O         17.1489881700      13.5315038000       3.2615418600
O         21.4011548300       8.1563070000       4.8332234700
O         14.7975400000      11.6612678000       6.4289002100
O         19.0497066700      13.2752122000       1.6298724000
O         23.3018733300       9.6975200000       5.4271031600
O         15.2440175000       9.5797644000       2.6316694600
O         19.4961841700      10.6776622000       1.7258529600
O         23.7483508300      10.9131734000       3.1295685900
H         16.2007550000       9.5174232000       3.0515843900
H         20.4529216700      10.3451758000       1.4619064300
H         24.7050883300      11.3080010000       2.9736001900
H         15.5501735000      10.2585908000       1.9238128500
H         19.8023401700      10.9512708000       2.6676621700
H         24.0545068300       9.9607384000       2.8956159900
