 DBCSR| CPU Multiplication driver                                           XSMM (U)
 DBCSR| Multrec recursion limit                                              512 (U)
 DBCSR| Multiplication stack size                                           1000 (D)
 DBCSR| Maximum elements for images                                    UNLIMITED (U)
 DBCSR| Multiplicative factor virtual images                                   1 (U)
 DBCSR| Use multiplication densification                                       T (D)
 DBCSR| Multiplication size stacks                                             3 (U)
 DBCSR| Use memory pool for CPU allocation                                     F (U)
 DBCSR| Number of 3D layers                                               SINGLE (U)
 DBCSR| Use MPI memory allocation                                              F (U)
 DBCSR| Use RMA algorithm                                                      F (U)
 DBCSR| Use Communication thread                                               T (U)
 DBCSR| Communication thread load                                             87 (D)
 DBCSR| MPI: My process id                                                     0
 DBCSR| MPI: Number of processes                                             192
 DBCSR| OMP: Current number of threads                                         1
 DBCSR| OMP: Max number of threads                                             1
 DBCSR| Split modifier for TAS multiplication algorithm                  1.0E+00 (U)


  **** **** ******  **  PROGRAM STARTED AT               2026-08-23 23:00:33.795
 ***** ** ***  *** **   PROGRAM STARTED ON                                 n0519
 **    ****   ******    PROGRAM STARTED BY                              tangsiqi
 ***** **    ** ** **   PROGRAM PROCESS ID                               3290515
  **** **  *******  **  PROGRAM STARTED IN /scratch/tangsiqi/liyi_folder/AI_phos
                                           phogypsum/2.CP2K_GeoOpt/2.1.2CSO-0.5H
                                           2O

 CP2K| version string:                                       CP2K version 2026.2
 CP2K| source code revision number:                                  git:c92cc08
 CP2K| cp2kflags: omp libint fftw3 libxc elpa parallel scalapack mpi_f08 cosma l
 CP2K|            ibxs libxsmm plumed2 spglib libdftd4 dftd4_v4_2 s_dftd3 mctc-l
 CP2K|            lib tblite libvori libbqb mimic hdf5 trexio libsmeagol greenx
 CP2K| is freely available from                            https://www.cp2k.org/
 CP2K| Program compiled at                                   2026-08-15 22:43:53
 CP2K| Program compiled on                                                 n0529
 CP2K| Program compiled for                                               x86_64
 CP2K| Data directory path          /scratch/tangsiqi/CP2K_pkg/cp2k-v202602/data
 CP2K| Input file name                                               geo_opt.inp

 GLOBAL| Force Environment number                                              1
 GLOBAL| Basis set file name                                    BASIS_MOLOPT_UZH
 GLOBAL| Potential file name                                       POTENTIAL_UZH
 GLOBAL| MM Potential file name                                     MM_POTENTIAL
 GLOBAL| Coordinate file name                                2.1.2CSO-0.5H2O.xyz
 GLOBAL| Method name                                                        CP2K
 GLOBAL| Project name                                         gypsum_slab_geoopt
 GLOBAL| Run type                                                        GEO_OPT
 GLOBAL| FFT library                                                       FFTW3
 GLOBAL| Diagonalization library                                            ELPA
 GLOBAL| Cholesky decomposition library                                ScaLAPACK
 GLOBAL| DGEMM library                                                      BLAS
 GLOBAL| Minimum number of eigenvectors for ELPA usage                        64
 GLOBAL| Orthonormality check for eigenvectors                          DISABLED
 GLOBAL| Matrix multiplication library                                     COSMA
 GLOBAL| All-to-all communication in single precision                          F
 GLOBAL| FFTs using library dependent lengths                                  T
 GLOBAL| Grid backend                                                       AUTO
 GLOBAL| Global print level                                                  LOW
 GLOBAL| MPI I/O enabled                                                       T
 GLOBAL| Total number of message passing processes                           192
 GLOBAL| Number of distributed systems (nodes)                                 1
 GLOBAL| Number of threads for this process                                    1
 GLOBAL| This output is from process                                           0
 GLOBAL| OpenMP stack size per thread (OMP_STACKSIZE)                       128M
 GLOBAL| CPU model name                          AMD EPYC 9A14 96-Core Processor
 GLOBAL| CPUID                                                              1003

 MEMORY| system memory details [Kb]
 MEMORY|                        rank 0           min           max       average
 MEMORY| MemTotal            791724136     791724136     791724136     791724136
 MEMORY| MemFree             700909404     700895040     700913184     700911404
 MEMORY| Buffers                336544        336544        336544        336544
 MEMORY| Cached               52042804      52042804      52042804      52042804
 MEMORY| Slab                  2435692       2435680       2435692       2435691
 MEMORY| SReclaimable          1060904       1060904       1060904       1060904
 MEMORY| MemLikelyFree       754349656     754335292     754353436     754351656


 GENERATE|  Preliminary Number of Bonds generated:                             0
 GENERATE|  Achieved consistency in connectivity generation.

 *******************************************************************************
 *******************************************************************************
 **                                                                           **
 **     #####                         ##              ##                      **
 **    ##   ##            ##          ##              ##                      **
 **   ##     ##                       ##            ######                    **
 **   ##     ##  ##   ##  ##   #####  ##  ##   ####   ##    #####    #####    **
 **   ##     ##  ##   ##  ##  ##      ## ##   ##      ##   ##   ##  ##   ##   **
 **   ##  ## ##  ##   ##  ##  ##      ####     ###    ##   ######   ######    **
 **    ##  ###   ##   ##  ##  ##      ## ##      ##   ##   ##       ##        **
 **     #######   #####   ##   #####  ##  ##  ####    ##    #####   ##        **
 **           ##                                                    ##        **
 **                                                                           **
 **                                                ... make the atoms dance   **
 **                                                                           **
 **            Copyright (C) by CP2K developers group (2000-2026)             **
 **                      J. Chem. Phys. 152, 194103 (2020)                    **
 **                                                                           **
 *******************************************************************************


 TOTAL NUMBERS AND MAXIMUM NUMBERS

  Total number of            - Atomic kinds:                                   4
                             - Atoms:                                        180
                             - Shell sets:                                   180
                             - Shells:                                       948
                             - Primitive Cartesian functions:                900
                             - Cartesian basis functions:                   2568
                             - Spherical basis functions:                   2388

  Maximum angular momentum of- Orbital basis functions:                        2
                             - Local part of the GTH pseudopotential:          2
                             - Non-local part of the GTH pseudopotential:      3


 SCF PARAMETERS         Density guess:                                    ATOMIC
                        --------------------------------------------------------
                        max_scf:                                             200
                        max_scf_history:                                       0
                        max_diis:                                              4
                        --------------------------------------------------------
                        eps_scf:                                        1.50E-06
                        eps_scf_history:                                0.00E+00
                        eps_diis:                                       0.00E+00
                        eps_eigval:                                     1.00E-05
                        --------------------------------------------------------
                        level_shift [a.u.]:                             0.000000
                        --------------------------------------------------------
                        Outer loop SCF in use 
                        No variables optimised in outer loop
                        eps_scf                                         1.50E-06
                        max_scf                                               30
                        No outer loop optimization
                        step_size                                       5.00E-01

 BFGS| Use rational function optimization for step estimation:                NO
 BFGS| Use model Hessian for initial guess:                                  YES
 BFGS| Restart Hessian:                                                       NO
 BFGS| Trust radius:                                                       0.378

 *******************************************************************************
 ***                     STARTING GEOMETRY OPTIMIZATION                      ***
 ***                                   BFGS                                  ***
 *******************************************************************************

 Extrapolation method: initial_guess

 Number of electrons:                                                       1056
 Number of occupied orbitals:                                                528
 Number of molecular orbitals:                                               528

 Number of orbital functions:                                               2388
 Number of independent orbital functions:                                   2388


 SCF WAVEFUNCTION OPTIMIZATION

  ----------------------------------- OT ---------------------------------------
  Minimizer      : CG                  : conjugate gradient
  Preconditioner : FULL_ALL            : diagonalization, state selective
  Precond_solver : DEFAULT
  Line search    : 2PNT                : 2 energies, one gradient
  stepsize       :    0.15000000                  energy_gap     :    0.00100000
  eps_taylor     :   0.10000E-15                  max_taylor     :             4
  ----------------------------------- OT ---------------------------------------

  Step     Update method      Time    Convergence         Total energy    Change
  ------------------------------------------------------------------------------
     1 OT CG       0.15E+00    6.8     0.03968386     -2768.8513880913 -2.77E+03
     - OT LS       0.64E-01    0.7                    -2715.9273617329
     2 OT CG       0.64E-01    1.4     0.10640975     -2749.2557078497  1.96E+01
     - OT LS       0.28E-01    0.6                    -2633.6422660918
     3 OT CG       0.28E-01    1.4     0.02159298     -2832.5028963640 -8.32E+01
     - OT LS       0.53E-01    0.5                    -2842.2672500807
     4 OT CG       0.53E-01    0.9     0.02205388     -2845.6307090216 -1.31E+01
     - OT LS       0.32E-01    0.5                    -2851.7967106450
     5 OT CG       0.32E-01    0.9     0.01709301     -2853.8165552409 -8.19E+00
     - OT LS       0.37E-01    0.5                    -2860.1610777841
     6 OT CG       0.37E-01    0.9     0.01170152     -2860.1197529948 -6.30E+00
     - OT LS       0.52E-01    0.5                    -2863.8623461946
     7 OT CG       0.52E-01    0.9     0.00705499     -2864.4374398477 -4.32E+00
     - OT LS       0.70E-01    0.5                    -2866.5952129727
     8 OT CG       0.70E-01    0.9     0.00597714     -2866.7390452799 -2.30E+00
     - OT LS       0.58E-01    0.5                    -2867.9377834534
     9 OT CG       0.58E-01    0.9     0.00388078     -2867.9803508465 -1.24E+00
     - OT LS       0.10E+00    0.5                    -2868.7670604618
    10 OT CG       0.10E+00    0.8     0.00281349     -2868.9329902118 -9.53E-01
     - OT LS       0.91E-01    0.5                    -2869.3735568096
    11 OT CG       0.91E-01    0.9     0.00240861     -2869.3803612193 -4.47E-01
     - OT LS       0.86E-01    0.5                    -2869.6871264418
    12 OT CG       0.86E-01    0.8     0.00171782     -2869.6875089614 -3.07E-01
     - OT LS       0.90E-01    0.5                    -2869.8578341053
    13 OT CG       0.90E-01    0.8     0.00138690     -2869.8580402402 -1.71E-01
     - OT LS       0.94E-01    0.5                    -2869.9697230860
    14 OT CG       0.94E-01    0.8     0.00107250     -2869.9699505684 -1.12E-01
     - OT LS       0.93E-01    0.5                    -2870.0380331522
    15 OT CG       0.93E-01    0.8     0.00083160     -2870.0380420796 -6.81E-02
     - OT LS       0.88E-01    0.5                    -2870.0760400811
    16 OT CG       0.88E-01    0.8     0.00069141     -2870.0761842771 -3.81E-02
     - OT LS       0.97E-01    0.5                    -2870.1051531332
    17 OT CG       0.97E-01    0.8     0.00057262     -2870.1054532679 -2.93E-02
     - OT LS       0.10E+00    0.4                    -2870.1266248905
    18 OT CG       0.10E+00    0.8     0.00050579     -2870.1266824511 -2.12E-02
     - OT LS       0.98E-01    0.5                    -2870.1424983438
    19 OT CG       0.98E-01    0.8     0.00047699     -2870.1425304237 -1.58E-02
     - OT LS       0.94E-01    0.5                    -2870.1560376239
    20 OT CG       0.94E-01    0.8     0.00042623     -2870.1560560429 -1.35E-02
     - OT LS       0.10E+00    0.4                    -2870.1674793749
    21 OT CG       0.10E+00    0.8     0.00038000     -2870.1675155217 -1.15E-02
     - OT LS       0.10E+00    0.5                    -2870.1770831658
    22 OT CG       0.10E+00    0.8     0.00035458     -2870.1771039149 -9.59E-03
     - OT LS       0.10E+00    0.5                    -2870.1853944468
    23 OT CG       0.10E+00    0.8     0.00032143     -2870.1853943361 -8.29E-03
     - OT LS       0.11E+00    0.4                    -2870.1924458194
    24 OT CG       0.11E+00    0.8     0.00030021     -2870.1924508731 -7.06E-03
     - OT LS       0.10E+00    0.5                    -2870.1984189923
    25 OT CG       0.10E+00    0.8     0.00029005     -2870.1984228066 -5.97E-03
     - OT LS       0.10E+00    0.4                    -2870.2038321135
    26 OT CG       0.10E+00    0.8     0.00027020     -2870.2038357776 -5.41E-03
     - OT LS       0.11E+00    0.4                    -2870.2086961057
    27 OT CG       0.11E+00    0.8     0.00025389     -2870.2087010675 -4.87E-03
     - OT LS       0.11E+00    0.4                    -2870.2130861953
    28 OT CG       0.11E+00    0.8     0.00024321     -2870.2130891028 -4.39E-03
     - OT LS       0.11E+00    0.4                    -2870.2171067772
    29 OT CG       0.11E+00    0.8     0.00022946     -2870.2171067605 -4.02E-03
     - OT LS       0.11E+00    0.4                    -2870.2207374245
    30 OT CG       0.11E+00    0.8     0.00021906     -2870.2207384107 -3.63E-03
     - OT LS       0.11E+00    0.4                    -2870.2240032114
    31 OT CG       0.11E+00    0.8     0.00021171     -2870.2240034625 -3.27E-03
     - OT LS       0.10E+00    0.4                    -2870.2269606091
    32 OT CG       0.10E+00    0.8     0.00020091     -2870.2269634541 -2.96E-03
     - OT LS       0.11E+00    0.4                    -2870.2296845782
    33 OT CG       0.11E+00    0.8     0.00019116     -2870.2296862007 -2.72E-03
     - OT LS       0.11E+00    0.4                    -2870.2321637668
    34 OT CG       0.11E+00    0.8     0.00018268     -2870.2321640293 -2.48E-03
     - OT LS       0.11E+00    0.5                    -2870.2343968857
    35 OT CG       0.11E+00    0.8     0.00017560     -2870.2343974116 -2.23E-03
     - OT LS       0.11E+00    0.5                    -2870.2364594767
    36 OT CG       0.11E+00    0.8     0.00016952     -2870.2364595034 -2.06E-03
     - OT LS       0.10E+00    0.4                    -2870.2383574030
    37 OT CG       0.10E+00    0.8     0.00016183     -2870.2383574054 -1.90E-03
     - OT LS       0.11E+00    0.4                    -2870.2401119064
    38 OT CG       0.11E+00    0.8     0.00015435     -2870.2401121737 -1.75E-03
     - OT LS       0.11E+00    0.4                    -2870.2417757329
    39 OT CG       0.11E+00    0.8     0.00014835     -2870.2417796709 -1.67E-03
     - OT LS       0.11E+00    0.4                    -2870.2433065890
    40 OT CG       0.11E+00    0.8     0.00014242     -2870.2433065342 -1.53E-03
     - OT LS       0.11E+00    0.4                    -2870.2446756322
    41 OT CG       0.11E+00    0.8     0.00013709     -2870.2446768641 -1.37E-03
     - OT LS       0.11E+00    0.4                    -2870.2459663678
    42 OT CG       0.11E+00    0.8     0.00013117     -2870.2459671074 -1.29E-03
     - OT LS       0.11E+00    0.4                    -2870.2471445643
    43 OT CG       0.11E+00    0.8     0.00012371     -2870.2471445252 -1.18E-03
     - OT LS       0.11E+00    0.4                    -2870.2482028915
    44 OT CG       0.11E+00    0.8     0.00012004     -2870.2482029450 -1.06E-03
     - OT LS       0.11E+00    0.4                    -2870.2491813052
    45 OT CG       0.11E+00    0.8     0.00011563     -2870.2491813733 -9.78E-04
     - OT LS       0.11E+00    0.4                    -2870.2500788977
    46 OT CG       0.11E+00    0.8     0.00011008     -2870.2500788750 -8.98E-04
     - OT LS       0.11E+00    0.4                    -2870.2509071744
    47 OT CG       0.11E+00    0.8     0.00010746     -2870.2509073625 -8.28E-04
     - OT LS       0.11E+00    0.4                    -2870.2516932691
    48 OT CG       0.11E+00    0.8     0.00010473     -2870.2516932755 -7.86E-04
     - OT LS       0.11E+00    0.4                    -2870.2524342863
    49 OT CG       0.11E+00    0.8     0.00009983     -2870.2524342428 -7.41E-04
     - OT LS       0.11E+00    0.4                    -2870.2531235312
    50 OT CG       0.11E+00    0.8     0.00009787     -2870.2531238565 -6.90E-04
     - OT LS       0.11E+00    0.4                    -2870.2537800372
    51 OT CG       0.11E+00    0.8     0.00009591     -2870.2537800213 -6.56E-04
     - OT LS       0.11E+00    0.4                    -2870.2544016456
    52 OT CG       0.11E+00    0.8     0.00009149     -2870.2544016134 -6.22E-04
     - OT LS       0.11E+00    0.4                    -2870.2549870912
    53 OT CG       0.11E+00    0.8     0.00008951     -2870.2549877956 -5.86E-04
     - OT LS       0.11E+00    0.4                    -2870.2555524001
    54 OT CG       0.11E+00    0.8     0.00008815     -2870.2555525214 -5.65E-04
     - OT LS       0.11E+00    0.4                    -2870.2560900699
    55 OT CG       0.11E+00    0.8     0.00008461     -2870.2560900756 -5.38E-04
     - OT LS       0.11E+00    0.5                    -2870.2565899419
    56 OT CG       0.11E+00    0.8     0.00008266     -2870.2565899711 -5.00E-04
     - OT LS       0.11E+00    0.4                    -2870.2570694449
    57 OT CG       0.11E+00    0.8     0.00008082     -2870.2570695227 -4.80E-04
     - OT LS       0.11E+00    0.4                    -2870.2575220531
    58 OT CG       0.11E+00    0.8     0.00007770     -2870.2575220337 -4.53E-04
     - OT LS       0.11E+00    0.4                    -2870.2579389233
    59 OT CG       0.11E+00    0.8     0.00007598     -2870.2579389120 -4.17E-04
     - OT LS       0.11E+00    0.4                    -2870.2583367088
    60 OT CG       0.11E+00    0.8     0.00007449     -2870.2583367085 -3.98E-04
     - OT LS       0.11E+00    0.4                    -2870.2587121256
    61 OT CG       0.11E+00    0.8     0.00007160     -2870.2587121359 -3.75E-04
     - OT LS       0.11E+00    0.4                    -2870.2590596623
    62 OT CG       0.11E+00    0.8     0.00006942     -2870.2590596551 -3.48E-04
     - OT LS       0.11E+00    0.4                    -2870.2593923019
    63 OT CG       0.11E+00    0.8     0.00006790     -2870.2593924891 -3.33E-04
     - OT LS       0.11E+00    0.4                    -2870.2597051881
    64 OT CG       0.11E+00    0.8     0.00006493     -2870.2597051861 -3.13E-04
     - OT LS       0.11E+00    0.4                    -2870.2599936918
    65 OT CG       0.11E+00    0.8     0.00006286     -2870.2599937109 -2.89E-04
     - OT LS       0.11E+00    0.4                    -2870.2602668216
    66 OT CG       0.11E+00    0.8     0.00006149     -2870.2602668777 -2.73E-04
     - OT LS       0.11E+00    0.4                    -2870.2605244001
    67 OT CG       0.11E+00    0.8     0.00005899     -2870.2605243866 -2.58E-04
     - OT LS       0.11E+00    0.5                    -2870.2607670664
    68 OT CG       0.11E+00    0.8     0.00005686     -2870.2607672501 -2.43E-04
     - OT LS       0.11E+00    0.5                    -2870.2610004440
    69 OT CG       0.11E+00    0.8     0.00005599     -2870.2610008005 -2.34E-04
     - OT LS       0.11E+00    0.4                    -2870.2612224141
    70 OT CG       0.11E+00    0.8     0.00005475     -2870.2612224250 -2.22E-04
     - OT LS       0.11E+00    0.5                    -2870.2614294055
    71 OT CG       0.11E+00    0.8     0.00005351     -2870.2614294523 -2.07E-04
     - OT LS       0.11E+00    0.4                    -2870.2616288103
    72 OT CG       0.11E+00    0.8     0.00005269     -2870.2616288386 -1.99E-04
     - OT LS       0.11E+00    0.4                    -2870.2618220256
    73 OT CG       0.11E+00    0.8     0.00005165     -2870.2618220281 -1.93E-04
     - OT LS       0.11E+00    0.4                    -2870.2620056833
    74 OT CG       0.11E+00    0.8     0.00005039     -2870.2620056760 -1.84E-04
     - OT LS       0.11E+00    0.4                    -2870.2621829082
    75 OT CG       0.11E+00    0.8     0.00004940     -2870.2621829652 -1.77E-04
     - OT LS       0.11E+00    0.4                    -2870.2623530673
    76 OT CG       0.11E+00    0.8     0.00004857     -2870.2623530672 -1.70E-04
     - OT LS       0.11E+00    0.4                    -2870.2625141972
    77 OT CG       0.11E+00    0.8     0.00004732     -2870.2625142074 -1.61E-04
     - OT LS       0.11E+00    0.4                    -2870.2626683346
    78 OT CG       0.11E+00    0.8     0.00004629     -2870.2626683440 -1.54E-04
     - OT LS       0.11E+00    0.4                    -2870.2628171325
    79 OT CG       0.11E+00    0.8     0.00004539     -2870.2628171528 -1.49E-04
     - OT LS       0.11E+00    0.4                    -2870.2629596010
    80 OT CG       0.11E+00    0.8     0.00004419     -2870.2629595951 -1.42E-04
     - OT LS       0.11E+00    0.4                    -2870.2630965977
    81 OT CG       0.11E+00    0.8     0.00004286     -2870.2630966340 -1.37E-04
     - OT LS       0.11E+00    0.4                    -2870.2632296058
    82 OT CG       0.11E+00    0.8     0.00004258     -2870.2632297967 -1.33E-04
     - OT LS       0.11E+00    0.4                    -2870.2633582558
    83 OT CG       0.11E+00    0.8     0.00004149     -2870.2633582422 -1.28E-04
     - OT LS       0.11E+00    0.4                    -2870.2634802749
    84 OT CG       0.11E+00    0.8     0.00004054     -2870.2634802644 -1.22E-04
     - OT LS       0.11E+00    0.4                    -2870.2635977698
    85 OT CG       0.11E+00    0.8     0.00003999     -2870.2635977842 -1.18E-04
     - OT LS       0.11E+00    0.4                    -2870.2637119415
    86 OT CG       0.11E+00    0.8     0.00003964     -2870.2637119397 -1.14E-04
     - OT LS       0.11E+00    0.4                    -2870.2638215192
    87 OT CG       0.11E+00    0.8     0.00003879     -2870.2638215116 -1.10E-04
     - OT LS       0.11E+00    0.4                    -2870.2639274044
    88 OT CG       0.11E+00    0.8     0.00003824     -2870.2639274348 -1.06E-04
     - OT LS       0.11E+00    0.4                    -2870.2640310697
    89 OT CG       0.11E+00    0.8     0.00003778     -2870.2640311048 -1.04E-04
     - OT LS       0.11E+00    0.4                    -2870.2641298883
    90 OT CG       0.11E+00    0.8     0.00003693     -2870.2641298806 -9.88E-05
     - OT LS       0.11E+00    0.4                    -2870.2642247348
    91 OT CG       0.11E+00    0.8     0.00003632     -2870.2642247372 -9.49E-05
     - OT LS       0.11E+00    0.5                    -2870.2643177408
    92 OT CG       0.11E+00    0.8     0.00003561     -2870.2643177922 -9.31E-05
     - OT LS       0.11E+00    0.4                    -2870.2644083890
    93 OT CG       0.11E+00    0.8     0.00003495     -2870.2644084337 -9.06E-05
     - OT LS       0.11E+00    0.4                    -2870.2644973118
    94 OT CG       0.11E+00    0.8     0.00003464     -2870.2644973636 -8.89E-05
     - OT LS       0.11E+00    0.4                    -2870.2645845500
    95 OT CG       0.11E+00    0.8     0.00003448     -2870.2645845608 -8.72E-05
     - OT LS       0.11E+00    0.4                    -2870.2646693885
    96 OT CG       0.11E+00    0.8     0.00003378     -2870.2646693592 -8.48E-05
     - OT LS       0.11E+00    0.4                    -2870.2647518203
    97 OT CG       0.11E+00    0.8     0.00003372     -2870.2647518283 -8.25E-05
     - OT LS       0.11E+00    0.4                    -2870.2648338262
    98 OT CG       0.11E+00    0.8     0.00003353     -2870.2648338271 -8.20E-05
     - OT LS       0.11E+00    0.4                    -2870.2649135171
    99 OT CG       0.11E+00    0.8     0.00003277     -2870.2649134821 -7.97E-05
     - OT LS       0.11E+00    0.4                    -2870.2649914554
   100 OT CG       0.11E+00    0.8     0.00003262     -2870.2649915297 -7.80E-05
     - OT LS       0.11E+00    0.4                    -2870.2650691682
   101 OT CG       0.11E+00    0.8     0.00003240     -2870.2650691961 -7.77E-05
     - OT LS       0.11E+00    0.4                    -2870.2651442953
   102 OT CG       0.11E+00    0.8     0.00003192     -2870.2651442589 -7.51E-05
     - OT LS       0.11E+00    0.4                    -2870.2652170148
   103 OT CG       0.11E+00    0.8     0.00003187     -2870.2652169990 -7.27E-05
     - OT LS       0.11E+00    0.4                    -2870.2652890866
   104 OT CG       0.11E+00    0.8     0.00003149     -2870.2652890791 -7.21E-05
     - OT LS       0.11E+00    0.4                    -2870.2653604642
   105 OT CG       0.11E+00    0.8     0.00003096     -2870.2653605149 -7.14E-05
     - OT LS       0.11E+00    0.4                    -2870.2654311054
   106 OT CG       0.11E+00    0.8     0.00003091     -2870.2654311980 -7.07E-05
     - OT LS       0.11E+00    0.4                    -2870.2655012702
   107 OT CG       0.11E+00    0.8     0.00003053     -2870.2655012665 -7.01E-05
     - OT LS       0.11E+00    0.4                    -2870.2655696738
   108 OT CG       0.11E+00    0.8     0.00003032     -2870.2655696647 -6.84E-05
     - OT LS       0.11E+00    0.4                    -2870.2656370614
   109 OT CG       0.11E+00    0.8     0.00003033     -2870.2656370651 -6.74E-05
     - OT LS       0.11E+00    0.4                    -2870.2657025754
   110 OT CG       0.11E+00    0.8     0.00002956     -2870.2657025458 -6.55E-05
     - OT LS       0.11E+00    0.4                    -2870.2657653206
   111 OT CG       0.11E+00    0.8     0.00002907     -2870.2657653291 -6.28E-05
     - OT LS       0.11E+00    0.4                    -2870.2658270941
   112 OT CG       0.11E+00    0.8     0.00002889     -2870.2658271563 -6.18E-05
     - OT LS       0.11E+00    0.4                    -2870.2658867559
   113 OT CG       0.11E+00    0.8     0.00002810     -2870.2658867268 -5.96E-05
     - OT LS       0.11E+00    0.4                    -2870.2659435694
   114 OT CG       0.11E+00    0.8     0.00002774     -2870.2659435808 -5.69E-05
     - OT LS       0.11E+00    0.4                    -2870.2659988685
   115 OT CG       0.11E+00    0.8     0.00002766     -2870.2659988655 -5.53E-05
     - OT LS       0.11E+00    0.4                    -2870.2660528244
   116 OT CG       0.11E+00    0.8     0.00002690     -2870.2660527976 -5.39E-05
     - OT LS       0.11E+00    0.4                    -2870.2661045652
   117 OT CG       0.11E+00    0.8     0.00002643     -2870.2661045926 -5.18E-05
     - OT LS       0.11E+00    0.4                    -2870.2661549068
   118 OT CG       0.11E+00    0.8     0.00002605     -2870.2661549273 -5.03E-05
     - OT LS       0.11E+00    0.4                    -2870.2662032853
   119 OT CG       0.11E+00    0.8     0.00002517     -2870.2662032628 -4.83E-05
     - OT LS       0.11E+00    0.4                    -2870.2662492141
   120 OT CG       0.11E+00    0.8     0.00002460     -2870.2662492563 -4.60E-05
     - OT LS       0.11E+00    0.4                    -2870.2662933366
   121 OT CG       0.11E+00    0.8     0.00002401     -2870.2662933541 -4.41E-05
     - OT LS       0.11E+00    0.4                    -2870.2663346866
   122 OT CG       0.11E+00    0.8     0.00002317     -2870.2663346651 -4.13E-05
     - OT LS       0.11E+00    0.4                    -2870.2663735374
   123 OT CG       0.11E+00    0.8     0.00002277     -2870.2663735508 -3.89E-05
     - OT LS       0.11E+00    0.5                    -2870.2664106425
   124 OT CG       0.11E+00    0.8     0.00002215     -2870.2664106317 -3.71E-05
     - OT LS       0.11E+00    0.4                    -2870.2664458345
   125 OT CG       0.11E+00    0.8     0.00002155     -2870.2664458275 -3.52E-05
     - OT LS       0.11E+00    0.4                    -2870.2664803873
   126 OT CG       0.11E+00    0.8     0.00002173     -2870.2664804791 -3.47E-05
     - OT LS       0.11E+00    0.4                    -2870.2665145307
   127 OT CG       0.11E+00    0.8     0.00002157     -2870.2665145168 -3.40E-05
     - OT LS       0.11E+00    0.4                    -2870.2665475956
   128 OT CG       0.11E+00    0.8     0.00002119     -2870.2665475835 -3.31E-05
     - OT LS       0.11E+00    0.4                    -2870.2665804042
   129 OT CG       0.11E+00    0.8     0.00002149     -2870.2665804536 -3.29E-05
     - OT LS       0.11E+00    0.4                    -2870.2666133065
   130 OT CG       0.11E+00    0.8     0.00002129     -2870.2666132983 -3.28E-05
     - OT LS       0.11E+00    0.4                    -2870.2666452088
   131 OT CG       0.11E+00    0.8     0.00002084     -2870.2666452033 -3.19E-05
     - OT LS       0.11E+00    0.4                    -2870.2666764887
   132 OT CG       0.11E+00    0.8     0.00002087     -2870.2666765281 -3.13E-05
     - OT LS       0.11E+00    0.4                    -2870.2667069016
   133 OT CG       0.11E+00    0.8     0.00002031     -2870.2667069006 -3.04E-05
     - OT LS       0.11E+00    0.4                    -2870.2667360448
   134 OT CG       0.11E+00    0.8     0.00001991     -2870.2667360480 -2.91E-05
     - OT LS       0.11E+00    0.4                    -2870.2667645043
   135 OT CG       0.11E+00    0.8     0.00001992     -2870.2667645230 -2.85E-05
     - OT LS       0.11E+00    0.4                    -2870.2667918576
   136 OT CG       0.11E+00    0.8     0.00001926     -2870.2667918650 -2.73E-05
     - OT LS       0.11E+00    0.4                    -2870.2668180800
   137 OT CG       0.11E+00    0.8     0.00001902     -2870.2668180886 -2.62E-05
     - OT LS       0.11E+00    0.4                    -2870.2668445406
   138 OT CG       0.11E+00    0.8     0.00001934     -2870.2668445856 -2.65E-05
     - OT LS       0.11E+00    0.4                    -2870.2668703893
   139 OT CG       0.11E+00    0.8     0.00001869     -2870.2668704197 -2.58E-05
     - OT LS       0.11E+00    0.4                    -2870.2668946586
   140 OT CG       0.11E+00    0.8     0.00001838     -2870.2668946569 -2.42E-05
     - OT LS       0.11E+00    0.4                    -2870.2669185779
   141 OT CG       0.11E+00    0.8     0.00001870     -2870.2669185865 -2.39E-05
     - OT LS       0.11E+00    0.4                    -2870.2669418536
   142 OT CG       0.11E+00    0.8     0.00001802     -2870.2669418915 -2.33E-05
     - OT LS       0.10E+00    0.4                    -2870.2669635645
   143 OT CG       0.10E+00    0.8     0.00001725     -2870.2669635633 -2.17E-05
     - OT LS       0.11E+00    0.4                    -2870.2669846049
   144 OT CG       0.11E+00    0.8     0.00001723     -2870.2669846781 -2.11E-05
     - OT LS       0.11E+00    0.4                    -2870.2670052377
   145 OT CG       0.11E+00    0.8     0.00001667     -2870.2670052355 -2.06E-05
     - OT LS       0.11E+00    0.4                    -2870.2670247350
   146 OT CG       0.11E+00    0.8     0.00001625     -2870.2670247339 -1.95E-05
     - OT LS       0.11E+00    0.4                    -2870.2670441657
   147 OT CG       0.11E+00    0.8     0.00001657     -2870.2670442141 -1.95E-05
     - OT LS       0.11E+00    0.4                    -2870.2670635801
   148 OT CG       0.11E+00    0.8     0.00001624     -2870.2670635847 -1.94E-05
     - OT LS       0.11E+00    0.4                    -2870.2670823529
   149 OT CG       0.11E+00    0.8     0.00001619     -2870.2670823523 -1.88E-05
     - OT LS       0.11E+00    0.4                    -2870.2671010618
   150 OT CG       0.11E+00    0.8     0.00001641     -2870.2671010644 -1.87E-05
     - OT LS       0.11E+00    0.4                    -2870.2671197615
   151 OT CG       0.11E+00    0.8     0.00001613     -2870.2671197633 -1.87E-05
     - OT LS       0.11E+00    0.4                    -2870.2671381005
   152 OT CG       0.11E+00    0.8     0.00001611     -2870.2671381014 -1.83E-05
     - OT LS       0.11E+00    0.4                    -2870.2671562333
   153 OT CG       0.11E+00    0.8     0.00001607     -2870.2671562334 -1.81E-05
     - OT LS       0.11E+00    0.4                    -2870.2671738808
   154 OT CG       0.11E+00    0.8     0.00001565     -2870.2671738830 -1.76E-05
     - OT LS       0.11E+00    0.4                    -2870.2671911108
   155 OT CG       0.11E+00    0.8     0.00001576     -2870.2671911150 -1.72E-05
     - OT LS       0.11E+00    0.4                    -2870.2672082637
   156 OT CG       0.11E+00    0.8     0.00001571     -2870.2672082648 -1.71E-05
     - OT LS       0.11E+00    0.4                    -2870.2672251284
   157 OT CG       0.11E+00    0.8     0.00001540     -2870.2672251291 -1.69E-05
     - OT LS       0.11E+00    0.4                    -2870.2672420017
   158 OT CG       0.11E+00    0.8     0.00001551     -2870.2672420199 -1.69E-05
     - OT LS       0.11E+00    0.4                    -2870.2672588490
   159 OT CG       0.11E+00    0.8     0.00001557     -2870.2672588509 -1.68E-05
     - OT LS       0.11E+00    0.4                    -2870.2672758804
   160 OT CG       0.11E+00    0.8     0.00001567     -2870.2672758800 -1.70E-05
     - OT LS       0.11E+00    0.4                    -2870.2672929273
   161 OT CG       0.11E+00    0.8     0.00001564     -2870.2672929281 -1.70E-05
     - OT LS       0.11E+00    0.4                    -2870.2673095432
   162 OT CG       0.11E+00    0.8     0.00001522     -2870.2673095465 -1.66E-05
     - OT LS       0.11E+00    0.4                    -2870.2673259124
   163 OT CG       0.11E+00    0.8     0.00001520     -2870.2673259190 -1.64E-05
     - OT LS       0.11E+00    0.4                    -2870.2673422713
   164 OT CG       0.11E+00    0.8     0.00001531     -2870.2673422699 -1.64E-05
     - OT LS       0.11E+00    0.4                    -2870.2673579366
   165 OT CG       0.11E+00    0.8     0.00001500     -2870.2673579760 -1.57E-05
     - OT LS       0.11E+00    0.4                    -2870.2673730686
   166 OT CG       0.11E+00    0.8     0.00001477     -2870.2673730708 -1.51E-05
     - OT LS       0.11E+00    0.4                    -2870.2673878779
   167 OT CG       0.11E+00    0.8     0.00001469     -2870.2673878778 -1.48E-05
     - OT LS       0.11E+00    0.4                    -2870.2674024131
   168 OT CG       0.11E+00    0.8     0.00001445     -2870.2674024139 -1.45E-05
     - OT LS       0.11E+00    0.4                    -2870.2674165726
   169 OT CG       0.11E+00    0.8     0.00001411     -2870.2674165726 -1.42E-05
     - OT LS       0.11E+00    0.4                    -2870.2674302172
   170 OT CG       0.11E+00    0.8     0.00001375     -2870.2674302186 -1.36E-05
     - OT LS       0.11E+00    0.4                    -2870.2674436777
   171 OT CG       0.11E+00    0.8     0.00001371     -2870.2674436954 -1.35E-05
     - OT LS       0.11E+00    0.4                    -2870.2674570430
   172 OT CG       0.11E+00    0.8     0.00001357     -2870.2674570429 -1.33E-05
     - OT LS       0.11E+00    0.4                    -2870.2674696717
   173 OT CG       0.11E+00    0.8     0.00001316     -2870.2674696772 -1.26E-05
     - OT LS       0.11E+00    0.4                    -2870.2674819830
   174 OT CG       0.11E+00    0.8     0.00001312     -2870.2674819972 -1.23E-05
     - OT LS       0.11E+00    0.4                    -2870.2674946269
   175 OT CG       0.11E+00    0.8     0.00001329     -2870.2674946356 -1.26E-05
     - OT LS       0.11E+00    0.4                    -2870.2675066141
   176 OT CG       0.11E+00    0.8     0.00001299     -2870.2675066505 -1.20E-05
     - OT LS       0.11E+00    0.4                    -2870.2675181640
   177 OT CG       0.11E+00    0.8     0.00001276     -2870.2675181635 -1.15E-05
     - OT LS       0.11E+00    0.4                    -2870.2675297364
   178 OT CG       0.11E+00    0.8     0.00001274     -2870.2675297523 -1.16E-05
     - OT LS       0.11E+00    0.4                    -2870.2675413027
   179 OT CG       0.11E+00    0.8     0.00001275     -2870.2675413023 -1.15E-05
     - OT LS       0.11E+00    0.4                    -2870.2675528098
   180 OT CG       0.11E+00    0.8     0.00001275     -2870.2675528071 -1.15E-05
     - OT LS       0.11E+00    0.4                    -2870.2675645248
   181 OT CG       0.11E+00    0.8     0.00001283     -2870.2675645290 -1.17E-05
     - OT LS       0.11E+00    0.4                    -2870.2675763624
   182 OT CG       0.11E+00    0.8     0.00001297     -2870.2675763637 -1.18E-05
     - OT LS       0.11E+00    0.4                    -2870.2675883538
   183 OT CG       0.11E+00    0.8     0.00001302     -2870.2675883540 -1.20E-05
     - OT LS       0.11E+00    0.4                    -2870.2676001654
   184 OT CG       0.11E+00    0.8     0.00001280     -2870.2676001685 -1.18E-05
     - OT LS       0.11E+00    0.4                    -2870.2676114631
   185 OT CG       0.11E+00    0.8     0.00001253     -2870.2676114627 -1.13E-05
     - OT LS       0.11E+00    0.4                    -2870.2676224662
   186 OT CG       0.11E+00    0.8     0.00001232     -2870.2676224673 -1.10E-05
     - OT LS       0.11E+00    0.4                    -2870.2676335375
   187 OT CG       0.11E+00    0.8     0.00001247     -2870.2676335449 -1.11E-05
     - OT LS       0.11E+00    0.4                    -2870.2676445888
   188 OT CG       0.11E+00    0.8     0.00001255     -2870.2676445893 -1.10E-05
     - OT LS       0.11E+00    0.4                    -2870.2676553416
   189 OT CG       0.11E+00    0.8     0.00001216     -2870.2676553456 -1.08E-05
     - OT LS       0.11E+00    0.4                    -2870.2676659905
   190 OT CG       0.11E+00    0.8     0.00001214     -2870.2676660067 -1.07E-05
     - OT LS       0.11E+00    0.4                    -2870.2676766759
   191 OT CG       0.11E+00    0.8     0.00001239     -2870.2676766789 -1.07E-05
     - OT LS       0.11E+00    0.4                    -2870.2676870817
   192 OT CG       0.11E+00    0.8     0.00001209     -2870.2676871091 -1.04E-05
     - OT LS       0.11E+00    0.4                    -2870.2676970975
   193 OT CG       0.11E+00    0.8     0.00001189     -2870.2676970973 -9.99E-06
     - OT LS       0.11E+00    0.4                    -2870.2677068310
   194 OT CG       0.11E+00    0.8     0.00001173     -2870.2677068378 -9.74E-06
     - OT LS       0.11E+00    0.4                    -2870.2677164372
   195 OT CG       0.11E+00    0.8     0.00001129     -2870.2677164358 -9.60E-06
     - OT LS       0.11E+00    0.4                    -2870.2677259166
   196 OT CG       0.11E+00    0.8     0.00001129     -2870.2677259457 -9.51E-06
     - OT LS       0.11E+00    0.4                    -2870.2677355302
   197 OT CG       0.11E+00    0.8     0.00001145     -2870.2677355378 -9.59E-06
     - OT LS       0.11E+00    0.4                    -2870.2677450228
   198 OT CG       0.11E+00    0.8     0.00001126     -2870.2677450172 -9.48E-06
     - OT LS       0.11E+00    0.4                    -2870.2677543800
   199 OT CG       0.11E+00    0.8     0.00001126     -2870.2677543875 -9.37E-06
     - OT LS       0.11E+00    0.4                    -2870.2677635802
   200 OT CG       0.11E+00    0.8     0.00001120     -2870.2677635773 -9.19E-06

  Leaving inner SCF loop after reaching   200 steps.


  Electronic density on regular grids:      -1056.0000000006       -0.0000000006
  Core density on regular grids:             1055.9999999996       -0.0000000004
  Total charge density on r-space grids:       -0.0000000010
  Total charge density g-space grids:          -0.0000000010

  Overlap energy of the core charge distribution:               0.00000567895149
  Self energy of the core charge distribution:              -7031.54764346061165
  Core Hamiltonian energy:                                   1868.84515344084934
  Hartree energy:                                            2864.13188184066667
  Exchange-correlation energy:                               -571.44690202903143
  Dispersion energy:                                           -0.25025904813479

  Total energy:                                             -2870.26776357731023

  outer SCF iter =    1 RMS gradient =   0.11E-04 energy =      -2870.2677635773

  ----------------------------------- OT ---------------------------------------
  Minimizer      : CG                  : conjugate gradient
  Preconditioner : FULL_ALL            : diagonalization, state selective
  Precond_solver : DEFAULT
  Line search    : 2PNT                : 2 energies, one gradient
  stepsize       :    0.15000000                  energy_gap     :    0.00100000
  eps_taylor     :   0.10000E-15                  max_taylor     :             4
  ----------------------------------- OT ---------------------------------------

  Step     Update method      Time    Convergence         Total energy    Change
  ------------------------------------------------------------------------------
     1 OT CG       0.15E+00    3.1     0.00006077     -2870.2677727826 -9.21E-06
     - OT LS       0.55E-02    0.4                    -2870.2588976553
     2 OT CG       0.55E-02    1.0     0.00023772     -2870.2677851368 -1.24E-05
     - OT LS       0.31E-02    0.4                    -2870.2678255215
     3 OT CG       0.31E-02    0.9     0.00031261     -2870.2678834227 -9.83E-05
     - OT LS       0.11E-02    0.4                    -2870.2677154497
     4 OT CG       0.11E-02    0.9     0.00047918     -2870.2679516891 -6.83E-05
     - OT LS       0.10E-02    0.5                    -2870.2681036356
     5 OT CG       0.10E-02    0.9     0.00028177     -2870.2681054846 -1.54E-04
     - OT LS       0.44E-03    0.5                    -2870.2680925454
     6 OT CG       0.44E-03    0.8     0.00022154     -2870.2681265461 -2.11E-05
     - OT LS       0.18E-02    0.5                    -2870.2681517202
     7 OT CG       0.18E-02    0.8     0.00021460     -2870.2682051879 -7.86E-05
     - OT LS       0.59E-03    0.5                    -2870.2681388231
     8 OT CG       0.59E-03    0.8     0.00019189     -2870.2682266288 -2.14E-05
     - OT LS       0.15E-02    0.5                    -2870.2682486128
     9 OT CG       0.15E-02    0.8     0.00030594     -2870.2682631893 -3.66E-05
     - OT LS       0.38E-03    0.5                    -2870.2680884134
    10 OT CG       0.38E-03    0.8     0.00009493     -2870.2682862657 -2.31E-05
     - OT LS       0.11E-02    0.5                    -2870.2682898593
    11 OT CG       0.11E-02    0.8     0.00014363     -2870.2682929097 -6.64E-06
     - OT LS       0.12E-02    0.5                    -2870.2683103403
    12 OT CG       0.12E-02    0.8     0.00012904     -2870.2683105581 -1.76E-05
     - OT LS       0.78E-03    0.5                    -2870.2683161688
    13 OT CG       0.78E-03    0.8     0.00011037     -2870.2683184516 -7.89E-06
     - OT LS       0.93E-03    0.5                    -2870.2683256377
    14 OT CG       0.93E-03    0.8     0.00013973     -2870.2683260174 -7.57E-06
     - OT LS       0.83E-03    0.4                    -2870.2683373607
    15 OT CG       0.83E-03    0.8     0.00008132     -2870.2683374217 -1.14E-05
     - OT LS       0.73E-03    0.4                    -2870.2683408517
    16 OT CG       0.73E-03    0.8     0.00007269     -2870.2683408225 -3.40E-06
     - OT LS       0.18E-02    0.4                    -2870.2683454335
    17 OT CG       0.18E-02    0.8     0.00011554     -2870.2683490918 -8.27E-06
     - OT LS       0.10E-02    0.4                    -2870.2683550545
    18 OT CG       0.10E-02    0.8     0.00014641     -2870.2683605255 -1.14E-05
     - OT LS       0.86E-03    0.4                    -2870.2683730228
    19 OT CG       0.86E-03    0.8     0.00014755     -2870.2683731741 -1.26E-05
     - OT LS       0.42E-03    0.4                    -2870.2683725872
    20 OT CG       0.42E-03    0.8     0.00010050     -2870.2683791335 -5.96E-06
     - OT LS       0.15E-02    0.4                    -2870.2683836977
    21 OT CG       0.15E-02    0.8     0.00011004     -2870.2683886469 -9.51E-06
     - OT LS       0.52E-03    0.5                    -2870.2683790334
    22 OT CG       0.52E-03    0.8     0.00007452     -2870.2683925912 -3.94E-06
     - OT LS       0.21E-02    0.4                    -2870.2683958864
    23 OT CG       0.21E-02    0.8     0.00012670     -2870.2684006947 -8.10E-06
     - OT LS       0.56E-03    0.4                    -2870.2683609073
    24 OT CG       0.56E-03    0.8     0.00008718     -2870.2684068608 -6.17E-06
     - OT LS       0.22E-02    0.4                    -2870.2684118080
    25 OT CG       0.22E-02    0.8     0.00011182     -2870.2684196437 -1.28E-05
     - OT LS       0.53E-03    0.4                    -2870.2683762770
    26 OT CG       0.53E-03    0.8     0.00009155     -2870.2684246054 -4.96E-06
     - OT LS       0.21E-02    0.4                    -2870.2684294615
    27 OT CG       0.21E-02    0.8     0.00017043     -2870.2684349457 -1.03E-05
     - OT LS       0.58E-03    0.4                    -2870.2683773164
    28 OT CG       0.58E-03    0.8     0.00013181     -2870.2684448332 -9.89E-06
     - OT LS       0.12E-02    0.4                    -2870.2684544237
    29 OT CG       0.12E-02    0.8     0.00016948     -2870.2684572830 -1.24E-05
     - OT LS       0.47E-03    0.4                    -2870.2684464546
    30 OT CG       0.47E-03    0.8     0.00007914     -2870.2684650680 -7.78E-06
     - OT LS       0.72E-03    0.4                    -2870.2684675698
    31 OT CG       0.72E-03    0.8     0.00008196     -2870.2684679949 -2.93E-06
     - OT LS       0.83E-03    0.4                    -2870.2684717528
    32 OT CG       0.83E-03    0.8     0.00004951     -2870.2684718327 -3.84E-06
     - OT LS       0.18E-02    0.4                    -2870.2684738443
    33 OT CG       0.18E-02    0.8     0.00006945     -2870.2684751575 -3.32E-06
     - OT LS       0.14E-02    0.4                    -2870.2684804051
    34 OT CG       0.14E-02    0.8     0.00010553     -2870.2684806309 -5.47E-06
     - OT LS       0.75E-03    0.4                    -2870.2684816112
    35 OT CG       0.75E-03    0.8     0.00006950     -2870.2684859904 -5.36E-06
     - OT LS       0.66E-03    0.4                    -2870.2684880021
    36 OT CG       0.66E-03    0.8     0.00006489     -2870.2684880356 -2.05E-06
     - OT LS       0.85E-03    0.4                    -2870.2684902425
    37 OT CG       0.85E-03    0.8     0.00003387     -2870.2684903458 -2.31E-06
     - OT LS       0.92E-03    0.4                    -2870.2684909807
    38 OT CG       0.92E-03    0.8     0.00004397     -2870.2684909908 -6.45E-07
     - OT LS       0.22E-02    0.4                    -2870.2684929718
    39 OT CG       0.22E-02    0.8     0.00004835     -2870.2684941701 -3.18E-06
     - OT LS       0.12E-02    0.4                    -2870.2684950736
    40 OT CG       0.12E-02    0.8     0.00006463     -2870.2684962376 -2.07E-06
     - OT LS       0.18E-02    0.4                    -2870.2685008898
    41 OT CG       0.18E-02    0.8     0.00006651     -2870.2685017530 -5.52E-06
     - OT LS       0.70E-03    0.4                    -2870.2684982207
    42 OT CG       0.70E-03    0.8     0.00007252     -2870.2685039199 -2.17E-06
     - OT LS       0.13E-02    0.4                    -2870.2685072138
    43 OT CG       0.13E-02    0.8     0.00006950     -2870.2685082464 -4.33E-06
     - OT LS       0.86E-03    0.4                    -2870.2685103579
    44 OT CG       0.86E-03    0.8     0.00008901     -2870.2685109221 -2.68E-06
     - OT LS       0.14E-02    0.4                    -2870.2685171676
    45 OT CG       0.14E-02    0.8     0.00006453     -2870.2685182096 -7.29E-06
     - OT LS       0.13E-02    0.4                    -2870.2685215849
