     180
Lattice="25.5130000000        0.0000000000        0.0000000000        0.0000000000       13.8536000000        0.0000000000        0.0000000000        0.0000000000       20.4289002141" Properties=species:S:1:pos:R:3 pbc="T T F" Converged=T
 Ca        -0.2174795190        1.3757600934        5.4806742512
 Ca         4.3851986986        5.1042176165        5.3467783586
 Ca         8.4897644608        0.1732567251        2.5473482235
 Ca        10.5977811797        4.9623382474        5.0683093099
 Ca         2.2566579653        0.3662663915        2.7989253615
 Ca         6.1999706648        1.5395503648        5.2511067438
  S         3.1971082833        1.6040232809        6.1293556310
  S         7.5057345379        4.9736056088        5.2787348505
  S        11.5477038931        0.4912330171        2.2886076971
  O         4.2282755706        0.4322553093        6.1454881926
  O         8.3036715872        5.2966479312        4.0193335445
  O        12.5390024485        1.4636426640        2.9823770513
  O         2.1520477918        1.2280786213        5.0366618300
  O         6.6686800965        6.1486449143        5.6757535769
  O        11.0295420813        6.6879079584        3.4775280551
  O         1.4455972445        5.2547352223        3.0983252968
  O         6.5120630423        3.8955437719        4.9545258991
  O        10.4672553501        1.2910729980        1.6452891043
  O         4.0990732802        2.7404853336        5.5178978658
  O         8.4733271461        4.5743497416        6.3038556687
  O        12.4570667460        6.5769756876        1.4574027155
  S         1.1453381591        4.9167035168        5.6329502432
  S         5.3700292084        0.2063655994        2.3377527993
  S         9.5401892836        1.5304230504        6.0276581873
  O         0.3602972100        3.6856144429        5.4404460425
  O         4.3022442253        0.8641439354        1.5542476968
  O         9.2198387499        5.4131969346        1.3128836589
  O         2.1509712944        5.0971208665        4.3794436040
  O         6.2765835110        1.2492377892        3.0123115290
  O        10.4826058945        0.2812520606        6.0707588567
  O         0.1839669318        6.0463267912        5.6138025494
  O         4.4771690661        6.3422511925        3.3921769015
  O         8.6186892121        1.3849621811        4.7760291116
  O         2.1340728326        4.9230695866        6.7030310184
  O         6.2104623679        6.3427760747        1.6266712547
  O        10.5925238344        2.6490481314        5.6507642739
  O         2.4393249244        2.7246482730        2.4130474830
  O         8.6886997188        4.0875645034        1.7755835039
  O        11.0985431222        3.9271825373        2.9045492974
  H         3.2223197361        2.9262010624        1.8850718176
  H         9.5723362368        3.7066804767        2.0848151686
  H        11.4948867114        4.6091730323        2.3283160265
  H         1.9873668251        3.5832076548        2.5895420970
  H         8.2444204596        4.3358851531        2.6375085504
  H        11.6511802459        3.1198118686        2.8156789941
 Ca        -0.2027725609        8.3726330808        5.3889283286
 Ca         4.2072672007       12.0222801852        5.3281334332
 Ca         8.5060773126        7.1919344076        2.5375327441
 Ca        10.5713849010       11.9211880735        5.0801639001
 Ca         2.1451448565        7.3811940357        2.6876598173
 Ca         6.2597345867        8.4934909487        5.3953453099
  S         3.1839828886        8.4882219921        6.0527377314
  S         7.4923493598       11.9449513894        5.4331036093
  S        11.6518491431        7.4371060308        2.3170918631
  O         4.2291483464        7.3247064125        6.1427376776
  O         8.1916282266       12.1476556645        4.0857782683
  O        12.6093183433        8.4564995742        2.9827499833
  O         2.2089212653        8.1190720586        4.8818307431
  O         6.6562402541       13.1334627446        5.7507536086
  O        10.8826704029       13.5760505100        3.4154719875
  O         2.3471986040       11.7223485327        1.6271619087
  O         6.5146511547       10.8057910087        5.3439664562
  O        10.5481600431        8.1768545900        1.6458697853
  O         4.0973469117        9.6279564595        5.5078962968
  O         8.5535814073       11.6755562240        6.4108733392
  O        12.2989422435       13.4728616022        1.3939982976
  S         1.1586640169       11.9047229171        5.5289805074
  S         5.2857968723        7.1697258423        2.4102829121
  S         9.5095868781        8.4583601936        5.9938101742
  O         0.3607554936       10.6447056179        5.3519377127
  O         4.2513586691        7.9248570343        1.6389517003
  O         9.0685644943       12.2018132214        1.3044840069
  O         1.9156158045       12.2451111733        4.2786719535
  O         6.1858601687        8.1442539800        3.1720524879
  O        10.4035984797        7.1844342216        6.0641412034
  O         0.0994095804       12.9552132380        5.7763167111
  O         4.6443889260       13.3074353855        3.4486028910
  O         8.6189048332        8.3493612519        4.7096866516
  O         2.1408627952       11.8124311767        6.6278929140
  O         6.2856516843       13.2120092554        1.5678704830
  O        10.5851627448        9.5570703547        5.6525987220
  O         2.8393099900       10.5314844427        2.3258531248
  O         8.6834116851       10.8787422386        1.8801102712
  O        11.0316616919       10.8724041387        2.9006109497
  H         3.5341401632       10.2505375151        1.7004674341
  H         9.6131946807       10.6223388540        2.2244901280
  H        11.3983203130       11.5683551923        2.3173468551
  H         1.3892052965       11.5561653275        1.6393756117
  H         8.2018994188       11.1451439801        2.7143106394
  H        11.6247338761       10.0919376867        2.8193813190
 Ca        12.5166684096        1.3177601317        5.2949539364
 Ca        17.1634282923        5.1327799173        5.3100874429
 Ca        21.4073709606        0.1947151502        2.5406077727
 Ca        23.3753313000        5.0039128632        5.1401255059
 Ca        15.0264255598        0.6712637196        2.6513418295
 Ca        18.9934004692        1.5049643761        5.3148530052
  S        15.9522625417        1.6055357489        6.0838125006
  S        20.2745732638        4.9743885361        5.3764887189
  S        24.5338357795        0.4352749977        2.4133113526
  O        16.9744193382        0.4228444753        6.1550943093
  O        21.0313804864        5.2102569799        4.0756779608
  O        25.3169542623        1.5172775008        3.1736872737
  O        14.9442886574        1.2182924971        4.9513280976
  O        19.3928879035        6.1475530835        5.6760998285
  O        23.6964277104        6.6106127321        3.4015658632
  O        14.3206970184        5.3465601044        3.0216381666
  O        19.3109375674        3.8375800876        5.1892119425
  O        23.5206421162        1.0733419932        1.5458942664
  O        16.8830218233        2.7311957508        5.5083626926
  O        21.2725483403        4.7097637674        6.4128077134
  O        25.2563109665        6.5881101696        1.4761049012
  S        13.9322771780        4.8439036454        5.5493951945
  S        18.2178241416        0.2877047956        2.3784818920
  S        22.2301184174        1.5512060566        5.9728951612
  O        13.2296068458        3.5886365308        5.2709434491
  O        17.1795628858        0.9432339051        1.5497359722
  O        21.9452623850        5.2400372724        1.3768464346
  O        14.9603756537        5.1633356286        4.3298986597
  O        19.0919022211        1.3315176906        3.0706113497
  O        23.1335752446        0.2878667453        6.0144238787
  O        12.9038833633        5.9135186924        5.6026920289
  O        17.4454127482        6.6478304865        3.4513730949
  O        21.3575959485        1.4529487120        4.6819954996
  O        14.8993945043        4.8419407700        6.6358093218
