     180
 i =        0, time =        0.000, E =     -2871.9587061924
 Ca        -0.0000229920        0.0000419026       -0.0000085764
 Ca        -0.0000000360        0.0000044640        0.0000028736
 Ca        -0.0000267518        0.0000199221        0.0000225001
 Ca         0.0000023388       -0.0000088266       -0.0000060674
 Ca         0.0000141684        0.0000096205        0.0000287521
 Ca         0.0000110869        0.0000069652        0.0000066863
  S         0.0000159294        0.0000228439       -0.0000354887
  S         0.0000185125       -0.0000870819       -0.0000141080
  S        -0.0001836696       -0.0001887384       -0.0000155193
  O        -0.0000107686       -0.0000233726        0.0000597289
  O        -0.0000090278        0.0000310514       -0.0001621685
  O         0.0000610325        0.0000363883        0.0000994695
  O         0.0000240392       -0.0000230804       -0.0000489431
  O        -0.0000058930        0.0000384219        0.0000130549
  O        -0.0000426664       -0.0000051771        0.0000488923
  O        -0.0000199703        0.0000712907       -0.0000303277
  O        -0.0000268526       -0.0000166004       -0.0000536239
  O        -0.0000045672        0.0000067033        0.0000075480
  O        -0.0000246308        0.0000106942        0.0000207418
  O         0.0000003104        0.0000264452        0.0000044284
  O         0.0000037775        0.0000187875        0.0000034274
  S        -0.0000636620       -0.0000743678        0.0000553408
  S         0.0000491543       -0.0000007337        0.0000403535
  S         0.0000407177        0.0000418623        0.0000179737
  O         0.0000524029        0.0000200345        0.0000337373
  O         0.0000037210       -0.0000543806       -0.0000343690
  O        -0.0000082364        0.0000549627       -0.0000285132
  O        -0.0000008981        0.0000519596       -0.0000678402
  O         0.0000153309        0.0000329792       -0.0000175236
  O         0.0000086806        0.0000025572       -0.0000122973
  O        -0.0000553494       -0.0000266950       -0.0000351245
  O         0.0000401018        0.0001307379        0.0000626915
  O        -0.0000094396       -0.0000106149       -0.0000057362
  O         0.0000358632        0.0000163142        0.0000386836
  O         0.0000249138       -0.0000165648       -0.0000478121
  O        -0.0000170506       -0.0000462227        0.0000015650
  O        -0.0000174147        0.0000153259        0.0000669887
  O         0.0000839773       -0.0000426626        0.0000446761
  O        -0.0000705076       -0.0001021793        0.0000053604
  H         0.0000056008       -0.0000178037       -0.0000354051
  H        -0.0000185511        0.0000492366        0.0000423793
  H         0.0001135045        0.0000449591       -0.0000168557
  H         0.0000170812       -0.0000057072       -0.0000195017
  H         0.0000062934       -0.0000060749       -0.0001069492
  H        -0.0000225855        0.0000298884        0.0000407079
 Ca        -0.0000032886       -0.0000028884        0.0000086766
 Ca        -0.0000005658        0.0000062200        0.0000040244
 Ca        -0.0000108871       -0.0000043433        0.0000069893
 Ca         0.0000118991        0.0000060932       -0.0000053643
 Ca        -0.0000111495       -0.0000300019       -0.0000047741
 Ca        -0.0000044407        0.0000045380        0.0000013414
  S         0.0000606977       -0.0001003463       -0.0001018052
  S         0.0000150020        0.0000394109        0.0000162221
  S        -0.0000394595       -0.0000169669       -0.0000747422
  O        -0.0000625932        0.0000705650        0.0000269931
  O        -0.0000269447       -0.0000097824       -0.0000360947
  O         0.0000157812        0.0000361011        0.0000092653
  O        -0.0000008246        0.0000078943        0.0000468088
  O         0.0000239615       -0.0000263079       -0.0000053137
  O         0.0001053401        0.0001483977       -0.0000730794
  O        -0.0001619452        0.0000931898       -0.0002682400
  O         0.0000069047       -0.0000045002        0.0000199780
  O         0.0000753511        0.0000128102        0.0000394224
  O        -0.0000047392        0.0000357590        0.0000551125
  O        -0.0000258342        0.0000088277        0.0000055298
  O         0.0000020975       -0.0000066776       -0.0000612295
  S        -0.0000220664        0.0000083436        0.0000333929
  S        -0.0000846224       -0.0000800360        0.0000722201
  S        -0.0000452374        0.0000326065       -0.0000014115
  O         0.0000280613        0.0000252996        0.0000530286
  O         0.0000040391       -0.0000087613       -0.0000517983
  O         0.0001367052       -0.0000404766       -0.0001193680
  O        -0.0000098020       -0.0000489600       -0.0001577072
  O         0.0000013600        0.0000107522       -0.0000093134
  O         0.0000183904       -0.0000298446       -0.0000103666
  O         0.0000134687       -0.0000118708        0.0000346180
  O        -0.0000539200        0.0000001678        0.0000067479
  O         0.0000497062       -0.0000037082        0.0000340855
  O         0.0000121235        0.0000331921        0.0000299872
  O         0.0000079828        0.0000003941       -0.0000202563
  O        -0.0000163890       -0.0000459102       -0.0000434107
  O        -0.0000126467       -0.0002145697        0.0002561953
  O        -0.0000788336        0.0000549090       -0.0000122446
  O         0.0001047711       -0.0000025848       -0.0000281823
  H        -0.0000133629        0.0000296254        0.0000036879
  H        -0.0000084277        0.0000014308        0.0000159241
  H        -0.0000251516       -0.0000313310        0.0000302559
  H         0.0001906561        0.0001518469       -0.0001501921
  H        -0.0000684163       -0.0000371720       -0.0000170233
  H        -0.0000475392        0.0000271410        0.0000073621
 Ca         0.0000005421        0.0000035728       -0.0000006695
 Ca         0.0000035196       -0.0000079686       -0.0000013419
 Ca         0.0000042862        0.0000435181        0.0000222665
 Ca        -0.0000148086       -0.0000127283        0.0000096469
 Ca        -0.0000127733        0.0000048552        0.0000069104
 Ca         0.0000005315       -0.0000043018        0.0000126538
  S         0.0000016277       -0.0000213964       -0.0000229810
  S        -0.0000045614       -0.0000355465        0.0000540818
  S         0.0000221854        0.0000572077        0.0000189220
  O         0.0000138187       -0.0000255902        0.0000174376
  O        -0.0000299405        0.0000086811       -0.0000025860
  O        -0.0000262959       -0.0000332415       -0.0000000310
  O        -0.0000077816        0.0000207575        0.0000097911
  O         0.0000180809       -0.0000022323       -0.0000112028
  O         0.0000110342       -0.0000064362        0.0000174243
  O         0.0001090898        0.0000717456        0.0000779043
  O        -0.0000054627        0.0000233995       -0.0000478389
  O         0.0000102905        0.0000020834        0.0000379520
  O         0.0000019282        0.0000224114        0.0000131202
  O        -0.0000074903        0.0000002644       -0.0000092017
  O         0.0000284806       -0.0000965959        0.0001171474
  S        -0.0000728365       -0.0000631495        0.0000841867
  S        -0.0000027660       -0.0000224099       -0.0000231358
  S         0.0000251564       -0.0000403494        0.0000085894
  O         0.0000144377       -0.0000118365       -0.0000020433
  O         0.0000056241        0.0000107949        0.0000090821
  O         0.0000460449        0.0001082199       -0.0000170625
  O        -0.0001003628        0.0000381917       -0.0001722286
  O         0.0000052362       -0.0000201209        0.0000160930
  O         0.0000259083        0.0000560622       -0.0000270852
  O         0.0000200169        0.0000063900       -0.0000046042
  O         0.0000226457       -0.0000009860        0.0000408019
  O        -0.0000806210       -0.0000028583       -0.0000417955
  O         0.0000324599       -0.0000068446        0.0000038624
  O         0.0000078644       -0.0000235673        0.0000085375
  O         0.0000164385        0.0000115761        0.0000002333
  O        -0.0000632720        0.0000021345        0.0000966742
  O         0.0000193727       -0.0000348006       -0.0000053269
  O         0.0000090259        0.0001054424       -0.0000094410
  H        -0.0000008052       -0.0000504878       -0.0000212916
  H         0.0000054122       -0.0000265740        0.0000370791
  H        -0.0000659176       -0.0000616463        0.0000158021
  H         0.0000747439        0.0000252892       -0.0000922676
  H        -0.0000452099        0.0000114339       -0.0000157126
  H         0.0000287628       -0.0000312215       -0.0000186549
 Ca        -0.0000046705        0.0000005443        0.0000004561
 Ca         0.0000153803        0.0000002061        0.0000042386
 Ca         0.0000030491        0.0000102881        0.0000000014
 Ca        -0.0000163871        0.0000028784        0.0000094137
 Ca         0.0000045403       -0.0000260889        0.0000054974
 Ca         0.0000010894       -0.0000009903        0.0000045371
  S         0.0000931599       -0.0000005324       -0.0001177260
  S         0.0000245760        0.0000283012        0.0000108793
  S         0.0000173908        0.0000650829       -0.0000277529
  O        -0.0000370822       -0.0000320599        0.0000695956
  O        -0.0000228312       -0.0000296639       -0.0000648999
  O        -0.0000047072        0.0000033456       -0.0000208738
  O        -0.0000468877        0.0000095836        0.0000099473
  O        -0.0000387834       -0.0000149066       -0.0000443017
  O         0.0000142812        0.0000389587        0.0000145745
  O         0.0000544685       -0.0000429818        0.0000557551
  O         0.0000025521        0.0000028106        0.0000163927
  O        -0.0000098631        0.0000214949       -0.0000355579
  O         0.0000078749        0.0000268361        0.0000318977
  O        -0.0000186731        0.0000009975       -0.0000135987
  O         0.0000333187        0.0000157579        0.0000446765
  S         0.0000644642       -0.0000105884        0.0001271643
  S        -0.0000404278       -0.0000157971       -0.0000435533
  S         0.0000024196        0.0000037424       -0.0000032244
  O         0.0000371849       -0.0000522491       -0.0000143831
  O         0.0000110302        0.0000595912        0.0000011492
  O        -0.0000415298        0.0001037727       -0.0001843239
  O        -0.0000784079        0.0000504998       -0.0001019858
  O         0.0000094251        0.0000233422       -0.0000005988
  O         0.0000019391       -0.0000018835        0.0000213747
  O        -0.0000192984        0.0000132901        0.0001220730
  O         0.0000053780        0.0000267925       -0.0000091623
  O         0.0000072712       -0.0000019886        0.0000007075
  O        -0.0000737556        0.0000330213       -0.0000171851
  O         0.0000138113        0.0000045958       -0.0000080269
  O        -0.0000100536        0.0000154977       -0.0000166571
  O        -0.0001588631       -0.0001026426        0.0001199465
  O        -0.0000270062        0.0000191708        0.0002658515
  O         0.0001224204       -0.0000425777        0.0000263962
  H         0.0001282074       -0.0000256437       -0.0000609681
  H        -0.0000957896        0.0000059341       -0.0001220361
  H        -0.0000957040        0.0000240672       -0.0000159512
  H         0.0000440417        0.0000890616       -0.0001032281
  H         0.0001075056       -0.0000017541        0.0000219676
  H        -0.0000154857        0.0000706219       -0.0000167186
     180
 i =        1, time =        0.500, E =     -2871.9556783785
 Ca        -0.0003964532        0.0001978155       -0.0001344500
 Ca        -0.0004148777        0.0001128915        0.0002097390
 Ca        -0.0000970855       -0.0001607144        0.0005936857
 Ca        -0.0001252128        0.0001578056       -0.0003369372
 Ca        -0.0000801593       -0.0002782963        0.0002959402
 Ca        -0.0004510647        0.0002807625        0.0001192400
  S        -0.0009622779        0.0028094261       -0.0026040308
  S         0.0031050152        0.0032549639        0.0013375822
  S         0.0034261581       -0.0024056119        0.0035750535
  O         0.0014039728       -0.0037958908        0.0012956184
  O        -0.0012539261       -0.0012449481        0.0011942533
  O        -0.0022438336       -0.0002878829       -0.0029713320
  O         0.0003246886       -0.0001972302        0.0023716039
  O         0.0000969616       -0.0011982980       -0.0010227718
  O        -0.0008102760       -0.0018641189        0.0014899592
  O        -0.0014278602       -0.0004068969       -0.0007350795
  O        -0.0003096333       -0.0003155099       -0.0023575917
  O        -0.0008735562        0.0009828789       -0.0014554393
  O        -0.0011176127       -0.0003982754        0.0010441578
  O        -0.0002823035       -0.0005957015       -0.0017959966
  O         0.0003854578       -0.0010201028       -0.0024302199
  S         0.0022341346        0.0017671135        0.0009843384
  S        -0.0056614077       -0.0005428544        0.0061622510
  S         0.0038334436        0.0002898761        0.0029925577
  O        -0.0000673650       -0.0013130642        0.0007940832
  O        -0.0017868293       -0.0011356892       -0.0020448003
  O        -0.0003746155        0.0033400365       -0.0010025463
  O        -0.0004148133       -0.0001730622        0.0006778720
  O         0.0026874668        0.0010904729        0.0009225270
  O         0.0001845373       -0.0004866132        0.0001048049
  O        -0.0002265913       -0.0020021270       -0.0013980228
  O         0.0018704650       -0.0005690637       -0.0016422112
  O        -0.0049601416       -0.0016741603       -0.0041020872
  O        -0.0009292276        0.0001575323       -0.0003209329
  O        -0.0029977779        0.0006420373        0.0027562406
  O         0.0008332197        0.0009953685        0.0006064264
  O        -0.0059567836       -0.0065921314        0.0051456781
  O         0.0016087128       -0.0039886585       -0.0049118851
  O        -0.0021455804       -0.0065758194        0.0028573547
  H         0.0085756007        0.0022968598       -0.0058013986
  H        -0.0005816409       -0.0006065418        0.0017956102
  H         0.0030573721        0.0030030853       -0.0029109843
  H        -0.0019887844        0.0038628667        0.0009994564
  H        -0.0011848871        0.0017059136        0.0037377810
  H        -0.0004993832        0.0038562239        0.0000091012
 Ca         0.0005694771        0.0006886699        0.0000020047
 Ca        -0.0003004608       -0.0010141879        0.0003247414
 Ca         0.0001239063       -0.0002408178       -0.0000953949
 Ca         0.0004489364        0.0000913598        0.0002919152
 Ca         0.0001033937        0.0003426777        0.0003915284
 Ca        -0.0001221586        0.0001545094       -0.0000319739
  S        -0.0009200138        0.0016993997        0.0000620517
  S        -0.0051117735       -0.0061233232       -0.0044334934
  S         0.0001906611        0.0024152955        0.0003174140
  O         0.0024884668       -0.0020959932        0.0019532096
  O         0.0009046687        0.0022093085        0.0001146113
  O        -0.0011911077        0.0002119072        0.0008793066
  O        -0.0032733711        0.0004433895       -0.0035228164
  O        -0.0010149616        0.0021066484       -0.0005371455
  O        -0.0006208472        0.0012150963       -0.0006549763
  O         0.0055832416        0.0010494629       -0.0015003345
  O         0.0013565157        0.0044251272        0.0004672751
  O         0.0010263292       -0.0002327188        0.0004872572
  O        -0.0006121770        0.0011310145       -0.0001987309
  O         0.0043485013       -0.0009734240        0.0040541789
  O        -0.0008183119        0.0014827182       -0.0019633551
  S         0.0021730241       -0.0036378686       -0.0042339277
  S        -0.0000921011       -0.0021230802       -0.0019544698
  S        -0.0026734462       -0.0008767047       -0.0015969225
  O        -0.0014696948       -0.0010398356        0.0042923307
  O        -0.0011102404       -0.0003513666       -0.0023595097
  O         0.0004497864       -0.0001262443       -0.0006551670
  O        -0.0005737576        0.0018693300       -0.0003676598
  O         0.0011736330        0.0001498145        0.0014079744
  O         0.0004872679        0.0006364958        0.0004605936
  O        -0.0012164073        0.0032477525        0.0013218886
  O         0.0033070367        0.0039275708       -0.0054524449
  O         0.0022353671        0.0006035332        0.0027105732
  O         0.0004412070        0.0001303258        0.0034702870
  O         0.0022682684       -0.0031868092       -0.0016087736
  O         0.0001793914       -0.0009539361       -0.0020321838
  O         0.0044333670       -0.0011897814        0.0021027002
  O         0.0038144844        0.0007757226       -0.0058197913
  O         0.0021391237        0.0084372556       -0.0056674174
  H         0.0005792527       -0.0001373236       -0.0001790486
  H         0.0025883279       -0.0013475987       -0.0010430913
  H        -0.0033222477       -0.0072553053        0.0055449406
  H        -0.0072740533        0.0004992787       -0.0008500225
  H        -0.0068770228        0.0008168165        0.0077280634
  H         0.0014322090       -0.0015966114       -0.0003575193
 Ca        -0.0002108188        0.0003653117        0.0007605387
 Ca        -0.0000549510       -0.0000185853        0.0000029252
 Ca        -0.0002254239        0.0004000526        0.0003136401
 Ca         0.0006172111       -0.0005719051        0.0001475444
 Ca         0.0000947314        0.0002315040       -0.0003681884
 Ca         0.0003843128       -0.0006275949       -0.0004753089
  S        -0.0012094923       -0.0019346429        0.0019998585
  S         0.0010486100       -0.0055519959        0.0062651500
  S        -0.0015865374       -0.0011752951       -0.0011837908
  O        -0.0000870384        0.0013992509       -0.0006946255
  O         0.0015735916        0.0010989300       -0.0019315598
  O        -0.0004087574        0.0000736980       -0.0000425481
  O         0.0000038055        0.0006507280        0.0001088156
  O        -0.0006541912        0.0007034913       -0.0001958285
  O        -0.0027198546       -0.0025375291        0.0012085561
  O         0.0017622742       -0.0002327579       -0.0011359581
  O         0.0000000298        0.0046248966       -0.0019429876
  O         0.0031660078       -0.0017268600        0.0023788115
  O         0.0010611377        0.0005640287       -0.0015764384
  O        -0.0031888136        0.0018758316       -0.0045703034
  O        -0.0016906191        0.0030137253        0.0011560757
  S        -0.0047729664       -0.0042419824       -0.0044195289
  S         0.0073330154        0.0011428736       -0.0017963402
  S         0.0011204799       -0.0015428992       -0.0015444715
  O         0.0035268090        0.0020715235        0.0030629974
  O        -0.0029442698        0.0006431984        0.0006763662
  O         0.0000817463        0.0020464330       -0.0001910319
  O        -0.0007963434       -0.0006279195       -0.0002010005
  O        -0.0015109052       -0.0019223979        0.0018315913
  O        -0.0013427660        0.0016244580        0.0000772372
  O        -0.0007520751        0.0020776198        0.0000490430
  O         0.0001907961        0.0002620901       -0.0006731200
  O         0.0005871704        0.0006735765        0.0012319262
  O         0.0020496702       -0.0008970689        0.0033197512
  O         0.0017848472       -0.0011153771        0.0001692790
  O        -0.0011412690        0.0001037572       -0.0009118425
  O        -0.0058245300        0.0027646694        0.0051355702
  O        -0.0120196353        0.0049562349        0.0046995086
  O        -0.0051403569        0.0047118329        0.0032105079
  H         0.0081455917        0.0002698286       -0.0053280580
  H         0.0069432871       -0.0042365880        0.0023972616
  H         0.0012177347        0.0013814142       -0.0015306343
  H        -0.0021790134       -0.0018866772        0.0012291598
  H         0.0036504621       -0.0028137663       -0.0065772922
  H         0.0034863538       -0.0045979602       -0.0004069078
 Ca         0.0003323156        0.0001050565       -0.0006585132
 Ca         0.0004551098       -0.0001964982        0.0000971494
 Ca        -0.0000923696       -0.0002153479       -0.0003508904
 Ca        -0.0001118680       -0.0003743891        0.0000371332
 Ca        -0.0007815548        0.0001060722        0.0000656691
 Ca        -0.0000575133        0.0004496826       -0.0005268160
  S        -0.0029829858       -0.0018477136       -0.0009378827
  S        -0.0010232167       -0.0008531301        0.0020129910
  S         0.0033415565        0.0002890452       -0.0004888210
  O         0.0018748258        0.0001881219        0.0005418302
  O         0.0017689377        0.0002423510        0.0005555996
  O        -0.0001328315       -0.0006480774       -0.0018106087
  O         0.0019263697        0.0010041598        0.0025568802
  O        -0.0003366300        0.0008152178       -0.0008574883
  O        -0.0001441818        0.0012662087        0.0003050020
  O        -0.0002326219       -0.0019853280        0.0018214912
  O        -0.0013270540       -0.0014317391       -0.0008187532
  O         0.0000506019        0.0003214789       -0.0003843440
  O         0.0011175316        0.0022375745       -0.0005798546
  O         0.0006420352        0.0014835139       -0.0021303149
  O        -0.0007502857        0.0026300651       -0.0007324839
  S        -0.0026097303       -0.0052321215       -0.0021742876
  S         0.0032485989        0.0017939601        0.0034785957
  S         0.0001587347        0.0041289261        0.0002476014
  O         0.0011991848        0.0032877639       -0.0001347761
  O        -0.0045721415        0.0012701606       -0.0030387061
  O         0.0012737542        0.0009639591       -0.0009358784
  O        -0.0001733802        0.0002107529       -0.0006516986
  O        -0.0001634631       -0.0027272881       -0.0003064337
  O         0.0020465893       -0.0018836548        0.0011736541
  O         0.0001670501        0.0021707790        0.0007339853
  O        -0.0028301237       -0.0007793781        0.0015343639
  O        -0.0009066542       -0.0004790466       -0.0011173324
  O         0.0013855991       -0.0000143894        0.0024072638
  O        -0.0002817976        0.0006338408        0.0005059054
  O        -0.0007709964       -0.0011359488        0.0015654684
  O         0.0158815847        0.0085502618       -0.0103590713
  O         0.0007040010       -0.0029023230       -0.0018684916
  O        -0.0034382679        0.0066591402       -0.0005101346
  H        -0.0168573047       -0.0045681641        0.0104528175
  H        -0.0004418081        0.0031749463       -0.0006438443
  H        -0.0015445105       -0.0000959667        0.0003701281
  H         0.0012925538       -0.0040015684       -0.0006222082
  H        -0.0006672679       -0.0001625488        0.0021941783
  H         0.0050368611       -0.0070137176       -0.0003988902
     180
 i =        2, time =        1.000, E =     -2871.9479599322
 Ca        -0.0007990473        0.0003416242       -0.0002179337
 Ca        -0.0008235269        0.0002137054        0.0004083761
 Ca        -0.0001330003       -0.0003466134        0.0010744766
 Ca        -0.0001781733        0.0003157923       -0.0006504462
 Ca        -0.0001279343       -0.0005699975        0.0005472913
 Ca        -0.0008806033        0.0005258524        0.0002756964
  S        -0.0020817912        0.0056099725       -0.0050622501
  S         0.0061253923        0.0065299683        0.0026596902
  S         0.0070687388       -0.0046748669        0.0070762864
  O         0.0030666074       -0.0072088088        0.0023336629
  O        -0.0022426439       -0.0022729887        0.0027776351
  O        -0.0042311945       -0.0007043229       -0.0057089795
  O         0.0007327161       -0.0004408795        0.0044305971
  O         0.0001382957       -0.0023876484       -0.0020508681
  O        -0.0017757105       -0.0036178152        0.0029964094
  O        -0.0027735873       -0.0011107770       -0.0013080347
  O        -0.0004465928       -0.0005858039       -0.0048294162
  O        -0.0018152325        0.0019801353       -0.0028583263
  O        -0.0021463299       -0.0008306999        0.0020296111
  O        -0.0004527064       -0.0010640019       -0.0034359656
  O         0.0006759268       -0.0019669421       -0.0053486225
  S         0.0044228856        0.0035549506        0.0019843367
  S        -0.0112624039       -0.0009167126        0.0119852770
  S         0.0077296351        0.0005173588        0.0062628217
  O        -0.0003114643       -0.0024434217        0.0013833084
  O        -0.0034295408       -0.0017486418       -0.0037951735
  O        -0.0002011230        0.0063099861       -0.0020410290
  O        -0.0009904536       -0.0004525247        0.0013467299
  O         0.0051084074        0.0020336433        0.0018562244
  O         0.0002210813       -0.0009574875        0.0001394987
  O        -0.0004192419       -0.0038639650       -0.0026841965
  O         0.0036880247       -0.0012185346       -0.0031985639
  O        -0.0100739249       -0.0032528437       -0.0083414961
  O        -0.0018099338        0.0001638672       -0.0006135229
  O        -0.0056661046        0.0014634523        0.0053269935
  O         0.0014290588        0.0018027234        0.0010718619
  O        -0.0117066066       -0.0127447692        0.0097657844
  O         0.0027252678       -0.0074232288       -0.0092336281
  O        -0.0040085235       -0.0125928854        0.0055139840
  H         0.0163553138        0.0044179878       -0.0111342354
  H        -0.0012853656       -0.0011205603        0.0034058184
  H         0.0056210189        0.0055659614       -0.0055730660
  H        -0.0038295292        0.0074175840        0.0019040582
  H        -0.0022650583        0.0032289421        0.0073911125
  H        -0.0008264113        0.0076275408       -0.0000380978
 Ca         0.0011076732        0.0013879405        0.0000244507
 Ca        -0.0005951919       -0.0020354838        0.0007005417
 Ca         0.0002317240       -0.0004389768       -0.0002129891
 Ca         0.0008989890        0.0001882385        0.0005987825
 Ca         0.0001985470        0.0006980679        0.0007454100
 Ca        -0.0002456690        0.0003121476       -0.0000703435
  S        -0.0019380045        0.0036607795        0.0003580426
  S        -0.0101580844       -0.0120192137       -0.0088613759
  S         0.0003746919        0.0048583166        0.0006602404
  O         0.0046712300       -0.0043144790        0.0033355316
  O         0.0015347006        0.0042451280        0.0001640189
  O        -0.0024693952        0.0004421828        0.0017118508
  O        -0.0059480473        0.0005761459       -0.0067204187
  O        -0.0020290165        0.0041325804       -0.0009295919
  O        -0.0013753926        0.0023304978       -0.0012132392
  O         0.0105179595        0.0023764336       -0.0024529479
  O         0.0025214736        0.0086971510        0.0007516060
  O         0.0019659466       -0.0004841922        0.0009347769
  O        -0.0009544331        0.0022307616       -0.0004021649
  O         0.0088737105       -0.0019008188        0.0080829691
  O        -0.0015182454        0.0029190873       -0.0036684311
  S         0.0043996840       -0.0072894014       -0.0084439813
  S        -0.0002237068       -0.0041534966       -0.0040000251
  S        -0.0051733628       -0.0017278567       -0.0031459425
  O        -0.0025516737       -0.0021276644        0.0079784604
  O        -0.0019141446       -0.0014149436       -0.0049671778
  O         0.0005617159        0.0000015284       -0.0009126757
  O        -0.0010845083        0.0040368342       -0.0008154841
  O         0.0023903890        0.0002308096        0.0029518851
  O         0.0008562640        0.0012935052        0.0009513904
  O        -0.0024472183        0.0068151930        0.0027807545
  O         0.0061021240        0.0071477942       -0.0107012851
  O         0.0041970375        0.0010946008        0.0047878766
  O         0.0009099831        0.0001538969        0.0068228460
  O         0.0047849441       -0.0060059321       -0.0035527479
  O         0.0006620328       -0.0013562119       -0.0033597381
  O         0.0087244382       -0.0025957938        0.0034674051
  O         0.0073530466        0.0008845742       -0.0111542112
  O         0.0037147449        0.0153798666       -0.0101648749
  H         0.0011035231       -0.0003659059       -0.0003174264
  H         0.0049506366       -0.0026511758       -0.0021365588
  H        -0.0059033461       -0.0132555296        0.0099406969
  H        -0.0138899159        0.0007767199       -0.0014427800
  H        -0.0130947098        0.0019256004        0.0147855034
  H         0.0027361238       -0.0030456268       -0.0006750138
 Ca        -0.0004047997        0.0007160519        0.0014929363
 Ca        -0.0001120972       -0.0000417138        0.0000005018
 Ca        -0.0004832897        0.0007557900        0.0005208227
 Ca         0.0012200784       -0.0011430769        0.0002827277
 Ca         0.0002053743        0.0004758575       -0.0006995768
 Ca         0.0007569155       -0.0012330232       -0.0009508056
  S        -0.0024259416       -0.0037978640        0.0039243893
  S         0.0019504342       -0.0109187014        0.0122684478
  S        -0.0031433145       -0.0024435530       -0.0023312629
  O        -0.0002027746        0.0026446162       -0.0013316075
  O         0.0030628358        0.0021602197       -0.0040234006
  O        -0.0007190675        0.0000648141       -0.0002569924
  O         0.0000190950        0.0010637987        0.0001227118
  O        -0.0013118811        0.0014035291       -0.0003572120
  O        -0.0041667084       -0.0047814528        0.0027738638
  O         0.0027625132        0.0000149378       -0.0019023388
  O         0.0003686325        0.0083981654       -0.0033370094
  O         0.0059345238       -0.0032466280        0.0046899406
  O         0.0021331488        0.0011675309       -0.0031232291
  O        -0.0059984694        0.0036756059       -0.0089249249
  O        -0.0031600852        0.0061231770        0.0022077350
  S        -0.0092873090       -0.0081987534       -0.0088694040
  S         0.0146694172        0.0022925118       -0.0035857193
  S         0.0021784468       -0.0029735221       -0.0030823469
  O         0.0068879855        0.0041963902        0.0059787179
  O        -0.0058608184        0.0013773810        0.0010408786
  O         0.0002029109        0.0038928663       -0.0004556557
  O        -0.0011243336       -0.0012269752       -0.0002685196
  O        -0.0031196495       -0.0036868681        0.0035956423
  O        -0.0027423995        0.0032291777        0.0002383897
  O        -0.0016097109        0.0041882797       -0.0000169238
  O         0.0002828856        0.0006150223       -0.0014136319
  O         0.0012178829        0.0013355095        0.0024514928
  O         0.0042535863       -0.0015653625        0.0064556604
  O         0.0034087874       -0.0022292042        0.0002145124
  O        -0.0019502507        0.0003176193       -0.0014071888
  O        -0.0111188233        0.0061474057        0.0093664129
  O        -0.0233027146        0.0094879649        0.0080862101
  O        -0.0101530429        0.0092572816        0.0062383177
  H         0.0154869791        0.0003142146       -0.0099599624
  H         0.0139751240       -0.0081154850        0.0048748364
  H         0.0023736319        0.0026483299       -0.0029353323
  H        -0.0042647340       -0.0040998984        0.0024204774
  H         0.0065121172       -0.0053340673       -0.0118487858
  H         0.0067767628       -0.0088960481       -0.0007619715
 Ca         0.0006769303        0.0002250305       -0.0013080316
 Ca         0.0008848830       -0.0003864705        0.0001765806
 Ca        -0.0002288116       -0.0004397280       -0.0006959648
 Ca        -0.0002134011       -0.0007627215        0.0000671115
 Ca        -0.0015337052        0.0002496919        0.0001372985
 Ca        -0.0001139751        0.0008766477       -0.0011018133
  S        -0.0060515795       -0.0037154200       -0.0016609047
  S        -0.0021092044       -0.0017309684        0.0040078753
  S         0.0065326916        0.0004997139       -0.0009825945
  O         0.0032444679        0.0002799674        0.0007839393
  O         0.0034466938        0.0005263527        0.0010579525
  O        -0.0002659524       -0.0012250582       -0.0035541060
  O         0.0037194389        0.0017136590        0.0045228267
  O        -0.0004705166        0.0015545343       -0.0014464798
  O        -0.0002615249        0.0024335527        0.0004762170
  O        -0.0004887560       -0.0037835997        0.0035053689
  O        -0.0026565255       -0.0027923723       -0.0016732503
  O        -0.0000005385        0.0005181340       -0.0008218130
  O         0.0021814546        0.0042936369       -0.0014275477
  O         0.0012114134        0.0031208727       -0.0038979466
  O        -0.0013243687        0.0044042237       -0.0012326292
  S        -0.0051607675       -0.0102638426       -0.0044182320
  S         0.0065703616        0.0034684304        0.0070567729
  S         0.0001678525        0.0082930272        0.0005445955
  O         0.0022726332        0.0065808617       -0.0003221293
  O        -0.0090995334        0.0021822732       -0.0058942056
  O         0.0021466961        0.0021114265       -0.0013496126
  O        -0.0004531175        0.0003249516       -0.0011758594
  O        -0.0003344303       -0.0054053847       -0.0006066243
  O         0.0039325778       -0.0037676632        0.0022991802
  O        -0.0001328303        0.0032728977        0.0010688493
  O        -0.0056645738       -0.0015314194        0.0032045100
  O        -0.0017653850       -0.0009055511       -0.0022066393
  O         0.0027225480       -0.0000940310        0.0046987953
  O        -0.0006122761        0.0014050784        0.0007922350
  O        -0.0014535835       -0.0023191113        0.0029175889
  O         0.0277580296        0.0158410515       -0.0183482130
  O         0.0015308132       -0.0053708489       -0.0036613154
  O        -0.0065661684        0.0132387461       -0.0012731551
  H        -0.0294352044       -0.0082056249        0.0183697439
  H        -0.0009054110        0.0061462607       -0.0011238192
  H        -0.0029582392       -0.0004413427        0.0009596273
  H         0.0022278351       -0.0076514730       -0.0010097518
  H        -0.0013177460       -0.0003655559        0.0041145206
  H         0.0097895296       -0.0137052565       -0.0007500872
     180
 i =        3, time =        1.500, E =     -2871.9372848333
 Ca        -0.0012211835        0.0004699735       -0.0002688405
 Ca        -0.0012221163        0.0003080114        0.0005994624
 Ca        -0.0001388974       -0.0005485096        0.0015085842
 Ca        -0.0001501730        0.0004330536       -0.0009601821
 Ca        -0.0001296384       -0.0008573150        0.0007782752
 Ca        -0.0012973089        0.0007706181        0.0004669818
  S        -0.0032045987        0.0084302721       -0.0074893114
  S         0.0090395214        0.0097504538        0.0040577213
  S         0.0107362421       -0.0069574128        0.0104472734
  O         0.0048731095       -0.0103551297        0.0032230447
  O        -0.0032089928       -0.0033954189        0.0043215363
  O        -0.0059498873       -0.0012505557       -0.0080446093
  O         0.0011887085       -0.0006811384        0.0061614554
  O         0.0001186955       -0.0035593793       -0.0031172282
  O        -0.0028311817       -0.0051328622        0.0045729799
  O        -0.0040365579       -0.0019730181       -0.0018366670
  O        -0.0004546665       -0.0009794717       -0.0073382030
  O        -0.0027906321        0.0029983367       -0.0041333844
  O        -0.0031041766       -0.0011786410        0.0029839350
  O        -0.0005232600       -0.0014296200       -0.0049657813
  O         0.0009112732       -0.0030320487       -0.0086786112
  S         0.0065781411        0.0053108393        0.0029560908
  S        -0.0166144907       -0.0011521488        0.0174676621
  S         0.0117734745        0.0007675630        0.0096322978
  O        -0.0007874921       -0.0033403439        0.0017172444
  O        -0.0047277698       -0.0018081723       -0.0050818378
  O        -0.0001511088        0.0092785584       -0.0029628987
  O        -0.0014735100       -0.0006532820        0.0020335355
  O         0.0074494537        0.0029035694        0.0027130760
  O         0.0001223311       -0.0014765713        0.0002944539
  O        -0.0004971977       -0.0054921119       -0.0035313966
  O         0.0054158467       -0.0017533737       -0.0045036236
  O        -0.0150818821       -0.0046929579       -0.0127680577
  O        -0.0026912380        0.0000321996       -0.0008424483
  O        -0.0080303385        0.0023488263        0.0076227654
  O         0.0018464262        0.0025692454        0.0014019876
  O        -0.0158862604       -0.0178654976        0.0131179124
  O         0.0039830155       -0.0107880070       -0.0128680458
  O        -0.0055477208       -0.0173707641        0.0075323410
  H         0.0221135793        0.0060619407       -0.0151553413
  H        -0.0021467716       -0.0016130394        0.0049173775
  H         0.0076391527        0.0073074090       -0.0075745212
  H        -0.0052953409        0.0103378578        0.0026295851
  H        -0.0029872863        0.0045556774        0.0104170726
  H        -0.0009079994        0.0110300540       -0.0000867916
 Ca         0.0016279574        0.0020997721        0.0000737054
 Ca        -0.0008966876       -0.0030619949        0.0010909172
 Ca         0.0003504297       -0.0006129446       -0.0003559025
 Ca         0.0013588314        0.0003051814        0.0009127025
 Ca         0.0003389986        0.0010806512        0.0010748660
 Ca        -0.0003730419        0.0004543005       -0.0001081455
  S        -0.0029503125        0.0055935437        0.0005971861
  S        -0.0151835823       -0.0177494100       -0.0132538358
  S         0.0005423194        0.0072087277        0.0009930408
  O         0.0064452953       -0.0064388756        0.0044811392
  O         0.0018550060        0.0061204511        0.0000479809
  O        -0.0037919722        0.0008036925        0.0025067738
  O        -0.0076569794        0.0004367005       -0.0087879397
  O        -0.0029632799        0.0060344218       -0.0012444514
  O        -0.0021942756        0.0034445921       -0.0017009658
  O         0.0137325500        0.0034349315       -0.0035424572
  O         0.0035809834        0.0127608036        0.0009309166
  O         0.0028991460       -0.0007389435        0.0013892693
  O        -0.0010067460        0.0032611204       -0.0004047961
  O         0.0135822670       -0.0026903968        0.0122506087
  O        -0.0021850840        0.0042984112       -0.0052079429
  S         0.0066125245       -0.0109445859       -0.0126023491
  S        -0.0004401353       -0.0060700399       -0.0060016652
  S        -0.0076228881       -0.0025847886       -0.0045500398
  O        -0.0028944916       -0.0030322153        0.0112714434
  O        -0.0023154042       -0.0029340641       -0.0075885242
  O         0.0008233951        0.0001343637       -0.0011424479
  O        -0.0014781493        0.0063814788       -0.0014357525
  O         0.0037523589        0.0000690649        0.0046665943
  O         0.0012084138        0.0020070554        0.0014305123
  O        -0.0036607027        0.0106307218        0.0042959299
  O         0.0085104424        0.0098981394       -0.0154833743
  O         0.0059871265        0.0015450779        0.0066316851
  O         0.0013779403        0.0001626706        0.0100638292
  O         0.0073672884       -0.0093420720       -0.0054888403
  O         0.0013760119       -0.0014038513       -0.0042780056
  O         0.0133074204       -0.0043055141        0.0046111784
  O         0.0100893980        0.0010661541       -0.0150186898
  O         0.0049456477        0.0202846885       -0.0134084790
  H         0.0015323770       -0.0004949749       -0.0003763176
  H         0.0069021827       -0.0038175564       -0.0032749657
  H        -0.0076899271       -0.0177361898        0.0130526455
  H        -0.0190356947        0.0013109709       -0.0020589579
  H        -0.0182558539        0.0027362620        0.0204742320
  H         0.0037306878       -0.0041322976       -0.0009385736
 Ca        -0.0006057214        0.0010689878        0.0021745554
 Ca        -0.0001566074       -0.0000683873        0.0000024826
 Ca        -0.0007794423        0.0011177766        0.0006734170
 Ca         0.0017871221       -0.0017097349        0.0004377923
 Ca         0.0002635569        0.0007333793       -0.0009859345
 Ca         0.0011173850       -0.0018273787       -0.0014164548
  S        -0.0036804865       -0.0056807173        0.0058774676
  S         0.0028043099       -0.0161165383        0.0179262426
  S        -0.0047048651       -0.0038736114       -0.0034419530
  O        -0.0002796189        0.0037532588       -0.0019426201
  O         0.0043638546        0.0030973860       -0.0060980963
  O        -0.0009743300        0.0001052722       -0.0005306369
  O         0.0001250673        0.0014051614        0.0000220271
  O        -0.0019832462        0.0021205573       -0.0004960810
  O        -0.0056455217       -0.0064848706        0.0044934214
  O         0.0033771267        0.0006836043       -0.0024134800
  O         0.0011271436        0.0114046053       -0.0044578949
  O         0.0083871837       -0.0045016484        0.0068291331
  O         0.0031245713        0.0017889369       -0.0047180233
  O        -0.0085122331        0.0053803358       -0.0129165620
  O        -0.0044116406        0.0091361791        0.0032386798
  S        -0.0136776558       -0.0119705563       -0.0132313937
  S         0.0218529507        0.0034597372       -0.0053967712
  S         0.0032042609       -0.0043673981       -0.0045725341
  O         0.0102961355        0.0065903982        0.0089151145
  O        -0.0086261254        0.0020333822        0.0011136353
  O         0.0002682793        0.0057329898       -0.0006288834
  O        -0.0016765672       -0.0016816568       -0.0002401645
  O        -0.0047394913       -0.0050824236        0.0049829448
  O        -0.0042123809        0.0048726661        0.0003958442
  O        -0.0025353251        0.0063571430       -0.0001508073
  O         0.0002949536        0.0009806277       -0.0021084839
  O         0.0018439366        0.0020724096        0.0037047642
  O         0.0066439689       -0.0021997902        0.0093644985
  O         0.0048992359       -0.0033394742        0.0002381326
  O        -0.0026354272        0.0006231999       -0.0016473494
  O        -0.0147924157        0.0099583439        0.0120851385
  O        -0.0330137713        0.0132084193        0.0102093605
  O        -0.0145367546        0.0130457049        0.0088623514
  H         0.0209087012       -0.0001145496       -0.0132772948
  H         0.0204671536       -0.0115815895        0.0072578220
  H         0.0033273465        0.0036001069       -0.0040574168
  H        -0.0061814153       -0.0064191413        0.0034678087
  H         0.0085310060       -0.0074572759       -0.0158558177
  H         0.0094993730       -0.0124431282       -0.0010847408
 Ca         0.0010266018        0.0003401015       -0.0019404085
 Ca         0.0013015767       -0.0005720561        0.0002594625
 Ca        -0.0003997912       -0.0006614995       -0.0010380829
 Ca        -0.0003127878       -0.0011732249        0.0000655391
 Ca        -0.0022756552        0.0003509029        0.0002390881
 Ca        -0.0001614416        0.0012981610       -0.0017091536
  S        -0.0090337305       -0.0056041509       -0.0023005905
  S        -0.0032190970       -0.0026205532        0.0060046535
  S         0.0094762676        0.0006747218       -0.0014821586
  O         0.0040601409        0.0001978097        0.0008084212
  O         0.0049281437        0.0008597627        0.0014088158
  O        -0.0003572294       -0.0016927915       -0.0052768769
  O         0.0052327981        0.0023197091        0.0060062310
  O        -0.0004359359        0.0022107770       -0.0017558154
  O        -0.0003745588        0.0035805085        0.0006049920
  O        -0.0004493469       -0.0050476917        0.0049044224
  O        -0.0039800112       -0.0041060941       -0.0025019813
  O        -0.0000685408        0.0005697766       -0.0012744069
  O         0.0033029349        0.0062676620       -0.0024237994
  O         0.0013794928        0.0046109381       -0.0056138109
  O        -0.0015950338        0.0061031311       -0.0021301165
  S        -0.0075813573       -0.0151105808       -0.0065998231
  S         0.0098564245        0.0050381903        0.0105733586
  S         0.0000833193        0.0124510119        0.0008203153
  O         0.0032451337        0.0097497542       -0.0005906448
  O        -0.0134888419        0.0028916531       -0.0085950229
  O         0.0030731189        0.0032460094       -0.0018383101
  O        -0.0005718148        0.0003922375       -0.0016803959
  O        -0.0004275112       -0.0080455605       -0.0008744255
  O         0.0055698255       -0.0057505888        0.0033159304
  O        -0.0007205146        0.0037698868        0.0012581642
  O        -0.0084008925       -0.0022214566        0.0049464966
  O        -0.0026199449       -0.0013399251       -0.0032595759
  O         0.0039153820       -0.0001418368        0.0067401808
  O        -0.0010199847        0.0020115105        0.0009571465
  O        -0.0020450837       -0.0034959965        0.0040438486
  O         0.0359128035        0.0216314336       -0.0240639326
  O         0.0021054142       -0.0084663816       -0.0047238982
  O        -0.0086464594        0.0186565173       -0.0022482813
  H        -0.0378411622       -0.0109551725        0.0237651097
  H        -0.0013462328        0.0090845709       -0.0016230995
  H        -0.0043889901       -0.0008917905        0.0015734398
  H         0.0028137807       -0.0107372380       -0.0012527477
  H        -0.0018025123       -0.0007048276        0.0057098435
  H         0.0135604733       -0.0191275063       -0.0009146938
     180
 i =        4, time =        2.000, E =     -2871.9253812748
 Ca        -0.0016689184        0.0005807185       -0.0002752009
 Ca        -0.0016185744        0.0003907835        0.0007833449
 Ca        -0.0000897558       -0.0007613197        0.0018605051
 Ca        -0.0000598044        0.0005227210       -0.0012878991
 Ca        -0.0000908721       -0.0011315351        0.0009758751
 Ca        -0.0017023833        0.0010215628        0.0006763478
  S        -0.0043771954        0.0113033547       -0.0098874026
  S         0.0118634737        0.0129109777        0.0055357314
  S         0.0144807307       -0.0092855201        0.0136902685
  O         0.0066745290       -0.0135215721        0.0040857076
  O        -0.0043979263       -0.0050169583        0.0059206170
  O        -0.0074718087       -0.0019288598       -0.0100422814
  O         0.0017265575       -0.0008240463        0.0075765334
  O         0.0001275937       -0.0047673911       -0.0042605076
  O        -0.0038804874       -0.0062728408        0.0062095117
  O        -0.0049829829       -0.0027327971       -0.0024338489
  O        -0.0004091603       -0.0016961843       -0.0095812605
  O        -0.0037847900        0.0040197994       -0.0053560653
  O        -0.0039962002       -0.0014778716        0.0039166530
  O        -0.0005970338       -0.0016372215       -0.0064410285
  O         0.0011806758       -0.0043782701       -0.0120691214
  S         0.0086875427        0.0070345192        0.0039436773
  S        -0.0217838606       -0.0012745541        0.0226774416
  S         0.0159664385        0.0010116798        0.0131719418
  O        -0.0014490696       -0.0040135615        0.0018058115
  O        -0.0060077016       -0.0017074796       -0.0061931939
  O        -0.0000768714        0.0122955833       -0.0038402609
  O        -0.0019551438       -0.0008424843        0.0026977788
  O         0.0098929304        0.0037583080        0.0034393382
  O         0.0000134384       -0.0020165210        0.0006193980
  O        -0.0003300551       -0.0069173487       -0.0039496169
  O         0.0070579398       -0.0021129440       -0.0055378690
  O        -0.0195371610       -0.0057267532       -0.0173510253
  O        -0.0036156998       -0.0003120315       -0.0010271003
  O        -0.0102567145        0.0031172600        0.0097485373
  O         0.0021617340        0.0034046245        0.0015107902
  O        -0.0170933784       -0.0212929821        0.0146163889
  O         0.0050102369       -0.0139360595       -0.0155371905
  O        -0.0066692796       -0.0204127219        0.0085987487
  H         0.0247090849        0.0069502392       -0.0170450812
  H        -0.0031255021       -0.0020598172        0.0063313018
  H         0.0088860490        0.0079298614       -0.0085751999
  H        -0.0061506558        0.0122908283        0.0030798872
  H        -0.0032074383        0.0056122856        0.0125086599
  H        -0.0006397867        0.0138531989       -0.0001678440
 Ca         0.0021269871        0.0028341213        0.0001620023
 Ca        -0.0012133121       -0.0040999249        0.0015144142
 Ca         0.0004822448       -0.0007541269       -0.0005410094
 Ca         0.0018394605        0.0004543200        0.0012380478
 Ca         0.0005213430        0.0014869651        0.0013847936
 Ca        -0.0005066637        0.0005883943       -0.0001478554
  S        -0.0039940857        0.0075836001        0.0008383402
  S        -0.0202159660       -0.0233552577       -0.0175818198
  S         0.0006824030        0.0094972961        0.0013002779
  O         0.0082929360       -0.0083828542        0.0059761268
  O         0.0018809893        0.0077645051       -0.0002582117
  O        -0.0050179371        0.0012627073        0.0031802304
  O        -0.0084840288        0.0001289828       -0.0098032217
  O        -0.0038094188        0.0078290102       -0.0015941580
  O        -0.0030893820        0.0045613849       -0.0021053232
  O         0.0144812100        0.0041820347       -0.0045897409
  O         0.0045951189        0.0165885624        0.0010416554
  O         0.0038313827       -0.0009994135        0.0018318695
  O        -0.0008786390        0.0042148829       -0.0003052558
  O         0.0184636018       -0.0033465698        0.0166830416
  O        -0.0029525200        0.0056724950       -0.0065818298
  S         0.0088535962       -0.0146563963       -0.0167314777
  S        -0.0007633452       -0.0079109787       -0.0080087272
  S        -0.0100207749       -0.0034368332       -0.0058748525
  O        -0.0027737502       -0.0036143813        0.0142742834
  O        -0.0024656080       -0.0040182644       -0.0088532533
  O         0.0011280783        0.0003119860       -0.0012785613
  O        -0.0017525247        0.0087769748       -0.0020883403
  O         0.0052908515       -0.0003237143        0.0065372012
  O         0.0015867081        0.0027320580        0.0019212306
  O        -0.0050516377        0.0143577802        0.0056287519
  O         0.0109667587        0.0126207303       -0.0201079583
  O         0.0076042580        0.0019722720        0.0085919971
  O         0.0018196116        0.0002166242        0.0132730877
  O         0.0099858686       -0.0136061417       -0.0072484646
  O         0.0022259469       -0.0013844965       -0.0048753969
  O         0.0179345003       -0.0063716136        0.0056320927
  O         0.0117003158        0.0017365365       -0.0164291556
  O         0.0058581001        0.0230295077       -0.0153382758
  H         0.0018594760       -0.0005628964       -0.0003512445
  H         0.0082925802       -0.0048176873       -0.0044632921
  H        -0.0086479904       -0.0205691173        0.0148069401
  H        -0.0218208895        0.0022819459       -0.0026946303
  H        -0.0218011714        0.0027887819        0.0237638003
  H         0.0043061453       -0.0047282040       -0.0011042657
 Ca        -0.0008082808        0.0014175338        0.0028008563
 Ca        -0.0001853772       -0.0001023890        0.0000033569
 Ca        -0.0011095305        0.0014938424        0.0007670197
 Ca         0.0022991646       -0.0022801487        0.0006092612
 Ca         0.0002729808        0.0009985777       -0.0012314982
 Ca         0.0014670530       -0.0024090786       -0.0018742533
  S        -0.0049716862       -0.0075840362        0.0078461388
  S         0.0036395369       -0.0211693379        0.0232277768
  S        -0.0062810772       -0.0054997271       -0.0045406143
  O        -0.0003321740        0.0047385518       -0.0025139657
  O         0.0055396800        0.0039071010       -0.0079942099
  O        -0.0011835457        0.0002807738       -0.0007931520
  O         0.0002856389        0.0017040216       -0.0001792290
  O        -0.0026853254        0.0028581271       -0.0006030954
  O        -0.0069579998       -0.0079017561        0.0061975104
  O         0.0035317695        0.0014575875       -0.0026454784
  O         0.0019192802        0.0142148264       -0.0057843945
  O         0.0107569668       -0.0055951915        0.0087358830
  O         0.0040719111        0.0024520138       -0.0063508569
  O        -0.0108356781        0.0070403826       -0.0165433920
  O        -0.0054940707        0.0120211689        0.0041817492
  S        -0.0179249948       -0.0155586144       -0.0175250059
  S         0.0289737309        0.0046568169       -0.0072314461
  S         0.0041959645       -0.0057256174       -0.0060475606
  O         0.0128256312        0.0087792694        0.0114755715
  O        -0.0112307635        0.0025110281        0.0009637698
  O         0.0003318100        0.0075054904       -0.0007882232
  O        -0.0022541538       -0.0020489278       -0.0001577206
  O        -0.0063537445       -0.0061174851        0.0057715242
  O        -0.0057499015        0.0066021078        0.0004924340
  O        -0.0035371792        0.0085908909       -0.0004667204
  O         0.0002613161        0.0015211456       -0.0027712251
  O         0.0025059801        0.0027502098        0.0049688639
  O         0.0091207767       -0.0029615812        0.0121068090
  O         0.0062835368       -0.0044763981        0.0002715482
  O        -0.0033123175        0.0008962847       -0.0017197788
  O        -0.0158413396        0.0139854282        0.0128219045
  O        -0.0401127787        0.0158907671        0.0116403763
  O        -0.0178054483        0.0156749140        0.0110349016
  H         0.0234043084       -0.0011293711       -0.0146916171
  H         0.0255042799       -0.0143519195        0.0090947839
  H         0.0040109094        0.0040958307       -0.0047783661
  H        -0.0079368967       -0.0087663296        0.0043670770
  H         0.0096998078       -0.0091956798       -0.0186356282
  H         0.0112806601       -0.0147140689       -0.0013555890
 Ca         0.0013962147        0.0004578095       -0.0025670408
 Ca         0.0017085011       -0.0007529229        0.0003420348
 Ca        -0.0006149176       -0.0009026282       -0.0013658720
 Ca        -0.0004129183       -0.0016168786        0.0000410607
 Ca        -0.0029978115        0.0004058480        0.0003805357
 Ca        -0.0001869068        0.0017085920       -0.0023490631
  S        -0.0119856476       -0.0075433647       -0.0028570420
  S        -0.0044053711       -0.0035311006        0.0080276392
  S         0.0121582538        0.0008127433       -0.0019964330
  O         0.0045269508        0.0000201891        0.0007703161
  O         0.0062323591        0.0011896287        0.0016053039
  O        -0.0003912216       -0.0020558450       -0.0070049510
  O         0.0064931245        0.0029013321        0.0072404848
  O        -0.0002762853        0.0028174066       -0.0018577338
  O        -0.0004665495        0.0047071699        0.0006541976
  O         0.0000599420       -0.0058949359        0.0060080727
  O        -0.0052896312       -0.0053633308       -0.0032581860
  O        -0.0001119685        0.0004651835       -0.0017063871
  O         0.0046133269        0.0084419594       -0.0033605024
  O         0.0011762233        0.0058606423       -0.0076473816
  O        -0.0017836248        0.0085423487       -0.0037036274
  S        -0.0098720622       -0.0198036784       -0.0087356364
  S         0.0131591383        0.0065042487        0.0140830994
  S        -0.0001246827        0.0166641329        0.0010939538
  O         0.0041521479        0.0127632021       -0.0009136349
  O        -0.0177346480        0.0038369226       -0.0113141261
  O         0.0039943754        0.0042643374       -0.0025382991
  O        -0.0006815441        0.0004992536       -0.0021382336
  O        -0.0005049981       -0.0105492246       -0.0010252471
  O         0.0071157664       -0.0079589407        0.0041262742
  O        -0.0014225973        0.0041885368        0.0013971456
  O        -0.0110162350       -0.0028575245        0.0067466193
  O        -0.0034604183       -0.0017487380       -0.0042881407
  O         0.0050132298       -0.0000093266        0.0085007378
  O        -0.0015695996        0.0024166473        0.0010662454
  O        -0.0026031460       -0.0046779382        0.0048909117
  O         0.0408267149        0.0258695403       -0.0276723316
  O         0.0023874258       -0.0119246085       -0.0051427357
  O        -0.0090625757        0.0220261939       -0.0035021717
  H        -0.0424426913       -0.0128478930        0.0268364570
  H        -0.0016600264        0.0118596166       -0.0020417801
  H        -0.0057711103       -0.0013910282        0.0021366421
  H         0.0029819810       -0.0131583407       -0.0013189827
  H        -0.0020004138       -0.0012196927        0.0068656954
  H         0.0156788151       -0.0224018612       -0.0007467473
     180
 i =        5, time =        2.500, E =     -2871.9140911983
 Ca        -0.0021272481        0.0006697103       -0.0002325004
 Ca        -0.0019972760        0.0004560504        0.0009543273
 Ca         0.0000261084       -0.0009755187        0.0021052432
 Ca         0.0000778157        0.0005885163       -0.0016275800
 Ca        -0.0000177453       -0.0013715803        0.0011293348
 Ca        -0.0020874321        0.0012800550        0.0008799233
  S        -0.0055568248        0.0141276552       -0.0121843966
  S         0.0144886241        0.0158873547        0.0070474755
  S         0.0181920160       -0.0115814053        0.0166852208
  O         0.0082642572       -0.0166623184        0.0049113567
  O        -0.0058959812       -0.0073156659        0.0072341609
  O        -0.0088159744       -0.0026671394       -0.0117337874
  O         0.0023353887       -0.0008158248        0.0087337338
  O         0.0001730766       -0.0059757664       -0.0054190598
  O        -0.0048536103       -0.0068837037        0.0078073835
  O        -0.0057832947       -0.0032667120       -0.0030950041
  O        -0.0003372611       -0.0027171601       -0.0114077160
  O        -0.0047551950        0.0050019723       -0.0064491690
  O        -0.0048076555       -0.0017273595        0.0047918445
  O        -0.0007289498       -0.0016265067       -0.0078185813
  O         0.0014420871       -0.0058345034       -0.0152378369
  S         0.0106734861        0.0086585987        0.0049137571
  S        -0.0265746091       -0.0012898753        0.0274263398
  S         0.0201602415        0.0012322277        0.0167325174
  O        -0.0022021483       -0.0045240528        0.0017222939
  O        -0.0077325086       -0.0019801512       -0.0076884369
  O        -0.0000359618        0.0153627856       -0.0047112717
  O        -0.0024167738       -0.0010063879        0.0033226254
  O         0.0122899647        0.0046537819        0.0041350472
  O        -0.0000094403       -0.0025657819        0.0011272945
  O         0.0000974810       -0.0081850790       -0.0039252984
  O         0.0086329331       -0.0023005066       -0.0063504641
  O        -0.0235366605       -0.0064829707       -0.0220802777
  O        -0.0045254061       -0.0007802857       -0.0011566603
  O        -0.0122871833        0.0035497276        0.0117218273
  O         0.0024865036        0.0043998314        0.0014512083
  O        -0.0147554479       -0.0223384808        0.0139820858
  O         0.0054533962       -0.0168614750       -0.0169511522
  O        -0.0072850265       -0.0212611311        0.0084422990
  H         0.0234776241        0.0069045043       -0.0162835253
  H        -0.0041368094       -0.0024507540        0.0075894290
  H         0.0092140721        0.0072702377       -0.0083145736
  H        -0.0061849497        0.0129513904        0.0031861540
  H        -0.0028129185        0.0063333252        0.0133342454
  H         0.0000142321        0.0157916511       -0.0002911930
 Ca         0.0025842879        0.0035651137        0.0002949495
 Ca        -0.0015433886       -0.0051165451        0.0019592984
 Ca         0.0006227267       -0.0008613004       -0.0007666280
 Ca         0.0023293395        0.0006404556        0.0015678696
 Ca         0.0007461820        0.0019078160        0.0016620416
 Ca        -0.0006404383        0.0007064500       -0.0001884864
  S        -0.0050333275        0.0095649172        0.0010675916
  S        -0.0250585760       -0.0286591843       -0.0216132032
  S         0.0007955359        0.0116275782        0.0015671373
  O         0.0105783284       -0.0101628265        0.0067966486
  O         0.0017100602        0.0091596243       -0.0007534104
  O        -0.0059780658        0.0017481869        0.0036447591
  O        -0.0089271694       -0.0001913808       -0.0100351825
  O        -0.0045276083        0.0094642563       -0.0018662940
  O        -0.0040388919        0.0056130519       -0.0024172249
  O         0.0123803936        0.0043972384       -0.0055473585
  O         0.0055473093        0.0200301694        0.0011207419
  O         0.0047386388       -0.0012437220        0.0022558284
  O        -0.0007414442        0.0050398178       -0.0002161053
  O         0.0231520488       -0.0037420384        0.0210792388
  O        -0.0037402911        0.0070043555       -0.0077544203
  S         0.0110456773       -0.0182857027       -0.0206804778
  S        -0.0011656059       -0.0096240753       -0.0099628227
  S        -0.0123010833       -0.0042560120       -0.0070872344
  O        -0.0025726225       -0.0040956563        0.0155595188
  O        -0.0027293520       -0.0042448892       -0.0074285547
  O         0.0014181713        0.0005540873       -0.0012826488
  O        -0.0018717468        0.0108256764       -0.0026102324
  O         0.0068718927       -0.0006545108        0.0083765030
  O         0.0019990286        0.0033909698        0.0023799524
  O        -0.0066638542        0.0176139513        0.0065637463
  O         0.0133692787        0.0150909888       -0.0244835576
  O         0.0089771365        0.0023589371        0.0107663494
  O         0.0021916138        0.0003659952        0.0163113328
  O         0.0124376627       -0.0180965929       -0.0088286746
  O         0.0029930537       -0.0014474663       -0.0053052212
  O         0.0219235560       -0.0085576793        0.0062173136
  O         0.0118269477        0.0030557235       -0.0148274105
  O         0.0063438584        0.0235434139       -0.0157790114
  H         0.0020752830       -0.0005532076       -0.0002416278
  H         0.0089540005       -0.0055706123       -0.0056556420
  H        -0.0087525202       -0.0215909386        0.0151369210
  H        -0.0217246211        0.0038002169       -0.0033413824
  H        -0.0233076986        0.0016689675        0.0239505682
  H         0.0043764908       -0.0047288536       -0.0011411896
 Ca        -0.0010054720        0.0017469989        0.0033397211
 Ca        -0.0001937589       -0.0001454832        0.0000021416
 Ca        -0.0014511760        0.0018713970        0.0008176834
 Ca         0.0027300884       -0.0028358336        0.0008011161
 Ca         0.0002228436        0.0012579019       -0.0014358383
 Ca         0.0017916163       -0.0029567333       -0.0023170347
  S        -0.0062582168       -0.0094399239        0.0097676778
  S         0.0044613490       -0.0258582641        0.0279235656
  S        -0.0078319894       -0.0072975057       -0.0055951019
  O        -0.0003473892        0.0055946489       -0.0030267794
  O         0.0066006081        0.0044171130       -0.0094486457
  O        -0.0013136811        0.0006365466       -0.0009736399
  O         0.0005163951        0.0019466594       -0.0004588162
  O        -0.0033876342        0.0035720153       -0.0006658032
  O        -0.0076227907       -0.0095493195        0.0075680310
  O         0.0033402813        0.0019747338       -0.0027379022
  O         0.0024593929        0.0168650227       -0.0073897750
  O         0.0131792978       -0.0067157077        0.0103386562
  O         0.0049445244        0.0031284847       -0.0079738076
  O        -0.0129839903        0.0086313963       -0.0196201054
  O        -0.0063974969        0.0146867763        0.0049918806
  S        -0.0218376835       -0.0188313446       -0.0215564614
  S         0.0357805489        0.0058412430       -0.0090184866
  S         0.0051176127       -0.0070033896       -0.0074537000
  O         0.0144115172        0.0103386855        0.0125467476
  O        -0.0135763547        0.0027504630        0.0005885006
  O         0.0004339143        0.0091709696       -0.0008786361
  O        -0.0028063920       -0.0022419382       -0.0000612248
  O        -0.0078736123       -0.0069265914        0.0061999347
  O        -0.0071757582        0.0083335510        0.0005952992
  O        -0.0045515229        0.0107854148       -0.0008900746
  O         0.0001799182        0.0020339910       -0.0033082105
  O         0.0031878443        0.0033530583        0.0062422546
  O         0.0114468639       -0.0037833135        0.0147402859
  O         0.0075461287       -0.0055938295        0.0003438326
  O        -0.0039348418        0.0010076709       -0.0017280436
  O        -0.0135562495        0.0180241513        0.0115989682
  O        -0.0436344059        0.0172567712        0.0127994870
  O        -0.0194359216        0.0169008752        0.0124866534
  H         0.0223714906       -0.0026578610       -0.0139241202
  H         0.0280554838       -0.0161438002        0.0098907435
  H         0.0043492179        0.0040286164       -0.0049874234
  H        -0.0094641130       -0.0109375641        0.0050806824
  H         0.0100273452       -0.0104989239       -0.0201890500
  H         0.0117684336       -0.0152453816       -0.0015540737
 Ca         0.0017773092        0.0005708581       -0.0031667817
 Ca         0.0020884232       -0.0009227523        0.0004229538
 Ca        -0.0008673657       -0.0011602243       -0.0016613590
 Ca        -0.0005117419       -0.0020817137       -0.0000057820
 Ca        -0.0036743138        0.0003939410        0.0005571697
 Ca        -0.0001815108        0.0020937930       -0.0029915689
  S        -0.0148118120       -0.0094784038       -0.0033122454
  S        -0.0056574046       -0.0044441110        0.0100146665
  S         0.0144356509        0.0008951096       -0.0025043368
  O         0.0049506795       -0.0001585120        0.0008684994
  O         0.0073455708        0.0015634746        0.0016584551
  O        -0.0003818198       -0.0022509260       -0.0086658229
  O         0.0074826436        0.0034514063        0.0083842956
  O        -0.0000694458        0.0034033860       -0.0018503537
  O        -0.0005364844        0.0057935236        0.0006430269
  O         0.0005872141       -0.0066461168        0.0070886190
  O        -0.0065324784       -0.0065589431       -0.0038705216
  O        -0.0000594067        0.0002063283       -0.0020639449
  O         0.0060523499        0.0108355539       -0.0041487210
  O         0.0008935200        0.0068275600       -0.0099076501
  O        -0.0021974941        0.0113877348       -0.0047119478
  S        -0.0119379041       -0.0241711768       -0.0107365520
  S         0.0163578892        0.0078318746        0.0174563723
  S        -0.0004517078        0.0208032125        0.0013447727
  O         0.0049789112        0.0154583853       -0.0011875591
  O        -0.0215701539        0.0052186286       -0.0140835529
  O         0.0050195648        0.0050134993       -0.0035482581
  O        -0.0008086701        0.0006716486       -0.0025812174
  O        -0.0005390948       -0.0127751734       -0.0010121250
  O         0.0087000880       -0.0103657584        0.0047626070
  O        -0.0019754431        0.0049672208        0.0018714821
  O        -0.0133934156       -0.0035028366        0.0085505631
  O        -0.0042490793       -0.0021311562       -0.0052411375
  O         0.0059745208        0.0003477145        0.0099093725
  O        -0.0022241272        0.0025748383        0.0011666879
  O        -0.0031675296       -0.0057690905        0.0055200932
  O         0.0425873113        0.0283962394       -0.0291322284
  O         0.0018782843       -0.0142905405       -0.0050649522
  O        -0.0074019382        0.0225745652       -0.0049918833
  H        -0.0434150357       -0.0138636194        0.0276526410
  H        -0.0017292758        0.0142810185       -0.0023006727
  H        -0.0070025379       -0.0018491817        0.0025470600
  H         0.0027017187       -0.0147575181       -0.0011936291
  H        -0.0018227980       -0.0019110733        0.0074695902
  H         0.0156129109       -0.0228242461       -0.0001585767
     180
 i =        6, time =        3.000, E =     -2871.9040165279
 Ca        -0.0025887595        0.0007329929       -0.0001433818
 Ca        -0.0023591785        0.0005022648        0.0011116481
 Ca         0.0002111121       -0.0011892022        0.0022389229
 Ca         0.0002412369        0.0006440965       -0.0019809145
 Ca         0.0000803036       -0.0015726552        0.0012344914
 Ca        -0.0024564242        0.0015541931        0.0010596115
  S        -0.0067158163        0.0168893644       -0.0143860172
  S         0.0168888405        0.0186490978        0.0085931685
  S         0.0218474082       -0.0138203244        0.0194185628
  O         0.0095979691       -0.0195896058        0.0057343110
  O        -0.0075880971       -0.0100119914        0.0084998928
  O        -0.0100273946       -0.0033733766       -0.0132751770
  O         0.0029951186       -0.0006703359        0.0097963734
  O         0.0002567766       -0.0071635596       -0.0066021398
  O        -0.0057643984       -0.0070098810        0.0093222744
  O        -0.0066468554       -0.0035953100       -0.0038008936
  O        -0.0002836205       -0.0036384757       -0.0129617989
  O        -0.0056676374        0.0059167221       -0.0074029126
  O        -0.0055538446       -0.0019173558        0.0056141810
  O        -0.0009461801       -0.0014174803       -0.0091078109
  O         0.0016776372       -0.0071529622       -0.0180945859
  S         0.0125214545        0.0101675729        0.0058563546
  S        -0.0309499783       -0.0012362015        0.0317029515
  S         0.0243260635        0.0014263928        0.0202794928
  O        -0.0029670070       -0.0049089961        0.0015856433
  O        -0.0100032233       -0.0029612178       -0.0095703842
  O        -0.0000825564        0.0185463300       -0.0055547092
  O        -0.0028254213       -0.0011434080        0.0039073411
  O         0.0145339016        0.0055901865        0.0048249422
  O         0.0000152027       -0.0031191377        0.0017638199
  O         0.0007595864       -0.0093894434       -0.0034857241
  O         0.0101599611       -0.0024300091       -0.0070953721
  O        -0.0276126231       -0.0073317574       -0.0271477047
  O        -0.0055043090       -0.0012448400       -0.0011671571
  O        -0.0139627405        0.0038321857        0.0135298761
  O         0.0029420631        0.0055831229        0.0013058626
  O        -0.0095963636       -0.0207804535        0.0115464374
  O         0.0051432940       -0.0196140110       -0.0170296346
  O        -0.0074359306       -0.0198636775        0.0070698295
  H         0.0187259639        0.0059865208       -0.0130226054
  H        -0.0051097425       -0.0028087146        0.0086886419
  H         0.0086546482        0.0054233436       -0.0067780890
  H        -0.0053394934        0.0122496610        0.0029501297
  H        -0.0017892725        0.0067421803        0.0127962358
  H         0.0010453287        0.0166975502       -0.0004652120
 Ca         0.0029979369        0.0042896323        0.0004680913
 Ca        -0.0018909878       -0.0061136955        0.0024335756
 Ca         0.0007742738       -0.0009473743       -0.0010323191
 Ca         0.0028252409        0.0008687186        0.0019046204
 Ca         0.0010161234        0.0023453203        0.0019173809
 Ca        -0.0007753656        0.0008081857       -0.0002272878
  S        -0.0060494226        0.0115222259        0.0012739964
  S        -0.0296584604       -0.0336723775       -0.0252984229
  S         0.0008970208        0.0135742628        0.0017816061
  O         0.0130108959       -0.0121001944        0.0076473135
  O         0.0014588891        0.0103927587       -0.0014091531
  O        -0.0065723600        0.0022290281        0.0039096842
  O        -0.0095223709       -0.0004591684       -0.0099966637
  O        -0.0051480790        0.0109816481       -0.0020429455
  O        -0.0050410812        0.0065709897       -0.0026390423
  O         0.0076912760        0.0039860647       -0.0065276023
  O         0.0064335906        0.0230731548        0.0011902161
  O         0.0056190721       -0.0014692631        0.0026780040
  O        -0.0006897789        0.0057717111       -0.0002339502
  O         0.0274700667       -0.0039720126        0.0252430339
  O        -0.0045590518        0.0082694988       -0.0088577818
  S         0.0131878484       -0.0217973327       -0.0244271221
  S        -0.0016533651       -0.0112003262       -0.0118948797
  S        -0.0144563390       -0.0050409386       -0.0081889069
  O        -0.0025622784       -0.0046562097        0.0139445165
  O        -0.0032742583       -0.0037949749       -0.0034344907
  O         0.0016737185        0.0007828115       -0.0011518722
  O        -0.0018435887        0.0125161846       -0.0028929195
  O         0.0083785261       -0.0005888565        0.0100149582
  O         0.0024255438        0.0039670687        0.0027650598
  O        -0.0084386116        0.0204273560        0.0072375142
  O         0.0154360292        0.0170117124       -0.0283916226
  O         0.0100877681        0.0027324189        0.0130963195
  O         0.0024537319        0.0006444900        0.0192121538
  O         0.0145435520       -0.0220684333       -0.0101889652
  O         0.0034460785       -0.0015931513       -0.0058473199
  O         0.0245902860       -0.0107489568        0.0065191619
  O         0.0106938274        0.0053510665       -0.0102675904
  O         0.0063618340        0.0217788538       -0.0147655295
  H         0.0021898374       -0.0004674103       -0.0000533708
  H         0.0088392957       -0.0060462859       -0.0068385990
  H        -0.0080284558       -0.0207833514        0.0140662911
  H        -0.0188626560        0.0058768539       -0.0040239086
  H        -0.0228663883       -0.0007747680        0.0211216257
  H         0.0039448092       -0.0041337482       -0.0010392681
 Ca        -0.0011996819        0.0020541105        0.0037898018
 Ca        -0.0001766473       -0.0001962981        0.0000004022
 Ca        -0.0017954250        0.0022517459        0.0008553608
 Ca         0.0030698269       -0.0033718401        0.0010101020
 Ca         0.0001157205        0.0014999686       -0.0016107616
 Ca         0.0020900157       -0.0034686440       -0.0027420531
  S        -0.0075352371       -0.0112483612        0.0116388959
  S         0.0053042013       -0.0301705286        0.0319713173
  S        -0.0093485495       -0.0092669765       -0.0066025863
  O        -0.0003405477        0.0063783544       -0.0034935775
  O         0.0076289987        0.0048110202       -0.0103574340
  O        -0.0014092206        0.0012228492       -0.0010241689
  O         0.0008173253        0.0021820997       -0.0007828081
  O        -0.0040917859        0.0042628186       -0.0006794477
  O        -0.0085019772       -0.0115313541        0.0084506960
  O         0.0031854528        0.0021967626       -0.0026492711
  O         0.0027639261        0.0192009701       -0.0090542487
  O         0.0156753921       -0.0079146937        0.0116905934
  O         0.0057389266        0.0038104920       -0.0095904897
  O        -0.0149519889        0.0101508082       -0.0221924987
  O        -0.0071587134        0.0170864543        0.0056924686
  S        -0.0254187502       -0.0217983816       -0.0253148646
  S         0.0422256399        0.0070129864       -0.0107415485
  S         0.0059707492       -0.0081967639       -0.0087896498
  O         0.0159340785        0.0115185099        0.0134183175
  O        -0.0157059255        0.0028247637        0.0001013004
  O         0.0005426118        0.0107352843       -0.0010096559
  O        -0.0033237630       -0.0023651728        0.0000833615
  O        -0.0093060307       -0.0076908834        0.0064139526
  O        -0.0083578130        0.0100186756        0.0005948379
  O        -0.0055353769        0.0129048157       -0.0013415878
  O         0.0000142733        0.0024868243       -0.0037196819
  O         0.0038916939        0.0037952144        0.0074777812
  O         0.0135172991       -0.0050934706        0.0173260598
  O         0.0087146522       -0.0067106645        0.0004892396
  O        -0.0044037826        0.0009363798       -0.0017994752
  O        -0.0080823539        0.0219319251        0.0083213255
  O        -0.0431564728        0.0171966604        0.0140130604
  O        -0.0192111697        0.0166835837        0.0129143708
  H         0.0180513862       -0.0044912217       -0.0112179136
  H         0.0276751863       -0.0169169980        0.0093877580
  H         0.0043358533        0.0033901790       -0.0046705026
  H        -0.0107599548       -0.0128028326        0.0056179507
  H         0.0095728057       -0.0113674930       -0.0206038793
  H         0.0108852459       -0.0139440909       -0.0016754717
 Ca         0.0021644036        0.0006809513       -0.0037396676
 Ca         0.0024382347       -0.0010837368        0.0005012860
 Ca        -0.0011567159       -0.0014354738       -0.0019180075
 Ca        -0.0006109174       -0.0025669815       -0.0000720624
 Ca        -0.0043063730        0.0003008007        0.0007610467
 Ca        -0.0001467524        0.0024505169       -0.0036359830
  S        -0.0175088119       -0.0113983307       -0.0036711142
  S        -0.0069870869       -0.0053546360        0.0119415042
  S         0.0162808375        0.0009289879       -0.0029894509
  O         0.0054840614       -0.0003302441        0.0012106080
  O         0.0083582900        0.0019342612        0.0016272879
  O        -0.0003228689       -0.0023000183       -0.0102481868
  O         0.0082573118        0.0039039641        0.0094923636
  O         0.0000931151        0.0040083481       -0.0018588048
  O        -0.0005816744        0.0068373096        0.0005635566
  O         0.0010021827       -0.0073603613        0.0083083381
  O        -0.0077228039       -0.0076991991       -0.0043106516
  O         0.0001351867       -0.0001871507       -0.0023261999
  O         0.0075243717        0.0132233091       -0.0048687298
  O         0.0007273025        0.0075164548       -0.0120494055
  O        -0.0029751686        0.0134156912       -0.0037921081
  S        -0.0137601582       -0.0282047133       -0.0125871404
  S         0.0194269374        0.0090329428        0.0206540237
  S        -0.0008911637        0.0248536659        0.0015696053
  O         0.0057344650        0.0178267877       -0.0014096507
  O        -0.0250188324        0.0068121940       -0.0169482640
  O         0.0063033381        0.0054202467       -0.0049200045
  O        -0.0009503521        0.0009670643       -0.0029965628
  O        -0.0004686606       -0.0146930896       -0.0008696928
  O         0.0103962822       -0.0129768636        0.0051064636
  O        -0.0022826254        0.0061708798        0.0026605195
  O        -0.0154905963       -0.0041909958        0.0102805628
  O        -0.0049840394       -0.0024650226       -0.0061156983
  O         0.0068755171        0.0009210865        0.0110292644
  O        -0.0028861714        0.0024617687        0.0013285624
  O        -0.0038257000       -0.0067162682        0.0059821293
  O         0.0412642713        0.0292325139       -0.0284694006
  O         0.0002412675       -0.0153967518       -0.0047512471
  O        -0.0037477569        0.0202272878       -0.0066132706
  H        -0.0409087795       -0.0140114171        0.0262778825
  H        -0.0014755930        0.0162625772       -0.0023535041
  H        -0.0080269891       -0.0021892633        0.0027392348
  H         0.0019754690       -0.0155032778       -0.0008761387
  H        -0.0012498845       -0.0027700084        0.0075246137
  H         0.0133524428       -0.0203733238        0.0008405267
     180
 i =        7, time =        3.500, E =     -2871.8949280125
 Ca        -0.0030390986        0.0007670946       -0.0000129650
 Ca        -0.0026991427        0.0005301705        0.0012552930
 Ca         0.0004601177       -0.0014018232        0.0022692604
 Ca         0.0004032950        0.0007104615       -0.0023435765
 Ca         0.0001871517       -0.0017267662        0.0012879649
 Ca        -0.0028044191        0.0018395001        0.0012070351
  S        -0.0078254504        0.0195395359       -0.0164676252
  S         0.0190249202        0.0211426983        0.0101499640
  S         0.0253573594       -0.0159492923        0.0218594498
  O         0.0107707688       -0.0221332428        0.0065694864
  O        -0.0093678995       -0.0124307587        0.0094217272
  O        -0.0111189434       -0.0039670933       -0.0147780685
  O         0.0036601809       -0.0004296412        0.0109229554
  O         0.0003336944       -0.0083003995       -0.0077774713
  O        -0.0065612876       -0.0070115469        0.0106616357
  O        -0.0073246249       -0.0038195638       -0.0045708922
  O        -0.0002833421       -0.0039350215       -0.0144512446
  O        -0.0064829943        0.0067216503       -0.0081859927
  O        -0.0062427347       -0.0020534950        0.0063777417
  O        -0.0012063291       -0.0010776268       -0.0102648525
  O         0.0019284027       -0.0082175428       -0.0203358841
  S         0.0141963181        0.0115311508        0.0067531543
  S        -0.0348307471       -0.0011519725        0.0354455946
  S         0.0283774467        0.0015837523        0.0237212130
  O        -0.0037572594       -0.0051569366        0.0014745887
  O        -0.0124000663       -0.0043984425       -0.0114278893
  O        -0.0001198442        0.0217137318       -0.0063166766
  O        -0.0031703604       -0.0012688822        0.0044279932
  O         0.0163772527        0.0066068315        0.0056887569
  O        -0.0000547126       -0.0036730169        0.0024512847
  O         0.0015905745       -0.0105631847       -0.0019591391
  O         0.0116842218       -0.0025380549       -0.0077894318
  O        -0.0316144897       -0.0080935024       -0.0323251558
  O        -0.0065484977       -0.0016105310       -0.0010616053
  O        -0.0152085552        0.0039697389        0.0149200753
  O         0.0035464245        0.0069030482        0.0011932513
  O        -0.0033797663       -0.0169916542        0.0078388705
  O         0.0041644720       -0.0221769486       -0.0157563206
  O        -0.0072509738       -0.0164553642        0.0046805363
  H         0.0115389217        0.0044386821       -0.0079806695
  H        -0.0059570729       -0.0031504209        0.0096077632
  H         0.0073724485        0.0027124597       -0.0041858733
  H        -0.0037038832        0.0103111356        0.0024303761
  H        -0.0002434775        0.0068911457        0.0110080698
  H         0.0024148099        0.0164736100       -0.0006894551
 Ca         0.0033630968        0.0049951114        0.0006810627
 Ca        -0.0022520956       -0.0070779227        0.0029216254
 Ca         0.0009361713       -0.0010160477       -0.0013311801
 Ca         0.0033067485        0.0011334464        0.0022448528
 Ca         0.0013228533        0.0027933982        0.0021487809
 Ca        -0.0009087784        0.0008945030       -0.0002652656
  S        -0.0070197728        0.0134208038        0.0014838182
  S        -0.0338969783       -0.0383370560       -0.0285428075
  S         0.0010159481        0.0152862403        0.0019297277
  O         0.0152169872       -0.0143049203        0.0021531761
  O         0.0012489759        0.0115288993       -0.0021936944
  O        -0.0067975625        0.0026558864        0.0040633428
  O        -0.0107324735       -0.0006066512       -0.0093470151
  O        -0.0056974049        0.0124034973       -0.0021116195
  O        -0.0060711342        0.0074078368       -0.0027773048
  O         0.0012205942        0.0030541120       -0.0074661079
  O         0.0072609045        0.0257187500        0.0012482050
  O         0.0064506946       -0.0016626867        0.0030729769
  O        -0.0007161032        0.0063913388       -0.0004408316
  O         0.0313125020       -0.0040526441        0.0290271307
  O        -0.0052446854        0.0094375534       -0.0095593608
  S         0.0152417338       -0.0251215178       -0.0279175962
  S        -0.0021971936       -0.0126160152       -0.0136904045
  S        -0.0164587515       -0.0057776620       -0.0091616222
  O        -0.0029848741       -0.0054574134        0.0109995369
  O        -0.0042130391       -0.0032063710       -0.0044892828
  O         0.0018816603        0.0009866982       -0.0009214263
  O        -0.0017331779        0.0139329836       -0.0029920790
  O         0.0097998130        0.0000490056        0.0114793290
  O         0.0028606517        0.0044574107        0.0030739154
  O        -0.0101955230        0.0227858149        0.0078433471
  O         0.0170580864        0.0184364458       -0.0317478940
  O         0.0109185521        0.0031112029        0.0152822733
  O         0.0025784416        0.0010707651        0.0218529957
  O         0.0162394470       -0.0249029474       -0.0111809457
  O         0.0036334861       -0.0017295954       -0.0067378292
  O         0.0255097372       -0.0128399987        0.0059944091
  O         0.0087787077        0.0085471858       -0.0034449553
  O         0.0059603443        0.0175611547       -0.0125275402
  H         0.0022171350       -0.0003009261        0.0001964177
  H         0.0080119369       -0.0062523659       -0.0079624522
  H        -0.0065159727       -0.0181558502        0.0116407082
  H        -0.0138692532        0.0083624945       -0.0046956370
  H        -0.0208881368       -0.0043156950        0.0160320829
  H         0.0030816024       -0.0030284921       -0.0008037956
 Ca        -0.0013879990        0.0023313724        0.0041533795
 Ca        -0.0001343643       -0.0002542873       -0.0000024102
 Ca        -0.0021311072        0.0026331021        0.0009021345
 Ca         0.0033143163       -0.0038781573        0.0012298214
 Ca        -0.0000391429        0.0017190786       -0.0017656854
 Ca         0.0023579526       -0.0039369637       -0.0031513804
  S        -0.0087763966       -0.0129807063        0.0134359591
  S         0.0061747743       -0.0340329356        0.0352928940
  S        -0.0108059369       -0.0113710535       -0.0075329592
  O        -0.0003143528        0.0071067971       -0.0039165167
  O         0.0086859567        0.0051920330       -0.0106507867
  O        -0.0015289897        0.0020417093       -0.0009526304
  O         0.0011878046        0.0024190341       -0.0011130616
  O        -0.0047854946        0.0049083575       -0.0006439374
  O        -0.0097919786       -0.0133798478        0.0090839408
  O         0.0033859729        0.0021163217       -0.0027899814
  O         0.0030534394        0.0207579921       -0.0101401738
  O         0.0180393777       -0.0090420176        0.0128105646
  O         0.0064540034        0.0044859793       -0.0111630090
  O        -0.0166804812        0.0115281733       -0.0243530093
  O        -0.0077607516        0.0191186251        0.0063133228
  S        -0.0285849138       -0.0244104218       -0.0287085070
  S         0.0481930883        0.0081415694       -0.0123566823
  S         0.0067467980       -0.0092907944       -0.0100389817
  O         0.0178598937        0.0130343563        0.0147987291
  O        -0.0176717725        0.0027359502       -0.0004682118
  O         0.0007100182        0.0121249826       -0.0010439192
  O        -0.0037797637       -0.0024383472        0.0001169765
  O        -0.0105516493       -0.0085290732        0.0051654677
  O        -0.0091501268        0.0116044269        0.0005607241
  O        -0.0064640924        0.0148872935       -0.0018334321
  O        -0.0001845389        0.0028484036       -0.0040082624
  O         0.0046221077        0.0040456594        0.0086654226
  O         0.0152239463       -0.0065487486        0.0197803174
  O         0.0097410226       -0.0078063829        0.0006759745
  O        -0.0046270670        0.0007649482       -0.0020705112
  O        -0.0002775110        0.0254030324        0.0030332061
  O        -0.0388590943        0.0158984528        0.0152521393
  O        -0.0173025135        0.0152747615        0.0123199349
  H         0.0113542346       -0.0063100136       -0.0071977945
  H         0.0245281762       -0.0167731874        0.0076218277
  H         0.0039979166        0.0022540168       -0.0038810969
  H        -0.0118134161       -0.0142275805        0.0059916745
  H         0.0083785728       -0.0117740337       -0.0199032199
  H         0.0087949099       -0.0110472362       -0.0017166290
 Ca         0.0025491059        0.0007872744       -0.0042768591
 Ca         0.0027501754       -0.0012372185        0.0005774424
 Ca        -0.0014734874       -0.0017285264       -0.0021268288
 Ca        -0.0007109462       -0.0030639250       -0.0001532735
 Ca        -0.0048886061        0.0001200429        0.0009848635
 Ca        -0.0000841982        0.0027717879       -0.0042644388
  S        -0.0200289106       -0.0132663141       -0.0039338806
  S        -0.0083962235       -0.0062484186        0.0137586258
  S         0.0176719460        0.0009144089       -0.0034180501
  O         0.0060139623       -0.0004992827        0.0018216252
  O         0.0093302131        0.0022857288        0.0015599554
  O        -0.0002179186       -0.0022357800       -0.0117508739
  O         0.0088752351        0.0042722684        0.0105225113
  O         0.0001263792        0.0046547999       -0.0019843620
  O        -0.0006041048        0.0078353729        0.0004384525
  O         0.0012767155       -0.0080163084        0.0093235064
  O        -0.0088275880       -0.0087641239       -0.0045773326
  O         0.0005155714       -0.0006752389       -0.0024784609
  O         0.0089678439        0.0153361253       -0.0055081327
  O         0.0008531073        0.0080453150       -0.0134361117
  O        -0.0039347811        0.0142000298       -0.0014238767
  S        -0.0152906113       -0.0318366206       -0.0142592692
  S         0.0222887238        0.0101218423        0.0236006684
  S        -0.0014279233        0.0287501946        0.0017634235
  O         0.0064035392        0.0198315664       -0.0015900397
  O        -0.0278468181        0.0083562869       -0.0196953905
  O         0.0078590745        0.0055569618       -0.0063943442
  O        -0.0011448124        0.0013030043       -0.0033917202
  O        -0.0002851522       -0.0163077005       -0.0006094703
  O         0.0122478514       -0.0157320832        0.0052215216
  O        -0.0024799121        0.0074823009        0.0034125931
  O        -0.0173427126       -0.0048716070        0.0118734080
  O        -0.0056482702       -0.0027482385       -0.0068937058
  O         0.0077035480        0.0016200309        0.0117141645
  O        -0.0034246506        0.0021711214        0.0015445158
  O        -0.0046382190       -0.0074717323        0.0057882241
  O         0.0367002117        0.0283153509       -0.0256390910
  O        -0.0020998952       -0.0166090180       -0.0043450169
  O         0.0013450879        0.0154806261       -0.0081229823
  H        -0.0348376273       -0.0132394222        0.0226311176
  H        -0.0008434982        0.0177108141       -0.0021540951
  H        -0.0087962548       -0.0023536921        0.0026435991
  H         0.0008269187       -0.0153649067       -0.0003746086
  H        -0.0003321612       -0.0037464374        0.0070975199
  H         0.0093332930       -0.0156088475        0.0021308385
     180
 i =        8, time =        4.000, E =     -2871.8858244270
 Ca        -0.0034748650        0.0007724079        0.0001562208
 Ca        -0.0030159370        0.0005419424        0.0013810331
 Ca         0.0007644316       -0.0016115618        0.0022136010
 Ca         0.0005328546        0.0008103139       -0.0027213902
 Ca         0.0002808230       -0.0018335424        0.0013002611
 Ca        -0.0031304081        0.0021356369        0.0013248893
  S        -0.0088694763        0.0220681505       -0.0184380940
  S         0.0208946837        0.0233652462        0.0117032048
  S         0.0286847638       -0.0179452266        0.0240350172
  O         0.0119719637       -0.0242402110        0.0073661986
  O        -0.0111307269       -0.0140867799        0.0099838317
  O        -0.0121159503       -0.0044103661       -0.0163320929
  O         0.0043091721       -0.0001275238        0.0122079071
  O         0.0003735761       -0.0093570545       -0.0089016218
  O        -0.0072181731       -0.0071757018        0.0117724396
  O        -0.0076830014       -0.0040069937       -0.0054333866
  O        -0.0004031694       -0.0032923292       -0.0160763356
  O        -0.0071591625        0.0073943851       -0.0088493127
  O        -0.0068927459       -0.0021435911        0.0070861169
  O        -0.0014322221       -0.0007549805       -0.0113335064
  O         0.0022984046       -0.0091697324       -0.0217127379
  S         0.0157074942        0.0127411373        0.0075699397
  S        -0.0382148890       -0.0010913672        0.0386727195
  S         0.0322794731        0.0016947526        0.0270026247
  O        -0.0045167307       -0.0053224721        0.0014880262
  O        -0.0143781620       -0.0056100115       -0.0126320738
  O        -0.0001648306        0.0248066957       -0.0070434207
  O        -0.0034620263       -0.0013836864        0.0048916017
  O         0.0176835454        0.0075764210        0.0067596922
  O        -0.0003775095       -0.0042061940        0.0031285717
  O         0.0025278017       -0.0117536691        0.0042659620
  O         0.0131839038       -0.0026895083       -0.0084788462
  O        -0.0351687013       -0.0085288862       -0.0373055846
  O        -0.0076510714       -0.0018273376       -0.0008587540
  O        -0.0160662471        0.0040453075        0.0160241891
  O         0.0042746780        0.0082647505        0.0011867270
  O         0.0025907230       -0.0117074636        0.0034717486
  O         0.0025651519       -0.0244384205       -0.0133270958
  O        -0.0069023092       -0.0114496820        0.0016648763
  H         0.0032377311        0.0025626053       -0.0020685705
  H        -0.0066197496       -0.0034938809        0.0103497067
  H         0.0055945859       -0.0004541400       -0.0008778797
  H        -0.0014592542        0.0074161492        0.0017185571
  H         0.0016604340        0.0068599620        0.0082240411
  H         0.0040793869        0.0150950263       -0.0009616352
 Ca         0.0036832901        0.0056787682        0.0009119130
 Ca        -0.0026287320       -0.0080073760        0.0034179356
 Ca         0.0011104357       -0.0010762293       -0.0016543833
 Ca         0.0037562609        0.0014293680        0.0025890509
 Ca         0.0016646713        0.0032568759        0.0023652798
 Ca        -0.0010424193        0.0009617237       -0.0003038485
  S        -0.0079126768        0.0152325362        0.0016082725
  S        -0.0377158633       -0.0426661532       -0.0313314920
  S         0.0011788617        0.0167596061        0.0020165060
  O         0.0173843757       -0.0166010248        0.0023386708
  O         0.0011456768        0.0126380047       -0.0030536434
  O        -0.0067398619        0.0030088020        0.0041007551
  O        -0.0129869434       -0.0004962030       -0.0084675858
  O        -0.0062370409        0.0137664095       -0.0021802605
  O        -0.0071164113        0.0081172318       -0.0028426624
  O        -0.0060657818        0.0018132255       -0.0084292548
  O         0.0079637615        0.0280286755        0.0013338193
  O         0.0072374124       -0.0018271857        0.0034291570
  O        -0.0007810285        0.0069440790       -0.0008459380
  O         0.0347492136       -0.0042889463        0.0324043076
  O        -0.0057434185        0.0105407758       -0.0098216936
  S         0.0172060942       -0.0282513837       -0.0311294897
  S        -0.0027884696       -0.0138710591       -0.0153670850
  S        -0.0183268991       -0.0064658714       -0.0100204560
  O        -0.0039768397       -0.0065048798        0.0029020100
  O        -0.0055082570       -0.0026599429       -0.0069567000
  O         0.0020165509        0.0011354295       -0.0005222005
  O        -0.0016064994        0.0152901787       -0.0029671208
  O         0.0112408289        0.0011400428        0.0128724758
  O         0.0032873982        0.0048792276        0.0033316543
  O        -0.0117913434        0.0247049270        0.0084487972
  O         0.0184647788        0.0195711582       -0.0346557390
  O         0.0114955132        0.0034959059        0.0171976303
  O         0.0025677219        0.0016240723        0.0243780021
  O         0.0175121628       -0.0266581618       -0.0118041920
  O         0.0037379278       -0.0017559935       -0.0079554397
  O         0.0252858894       -0.0146324364        0.0049799760
  O         0.0065625057        0.0124527350        0.0047243400
  O         0.0052753480        0.0108641390       -0.0092677080
  H         0.0021742529       -0.0000680417        0.0004785159
  H         0.0065621647       -0.0062011269       -0.0090114349
  H        -0.0042496055       -0.0137342941        0.0079098832
  H        -0.0076494380        0.0110170946       -0.0053062234
  H        -0.0179083448       -0.0085554302        0.0096502011
  H         0.0019034494       -0.0015492484       -0.0004468019
 Ca        -0.0015707474        0.0025791369        0.0044469893
 Ca        -0.0000693617       -0.0003194713        0.0000001181
 Ca        -0.0024546415        0.0030151946        0.0009821202
 Ca         0.0034677819       -0.0043549396        0.0014489878
 Ca        -0.0002307897        0.0019103986       -0.0019109337
 Ca         0.0025944037       -0.0043652752       -0.0035577695
  S        -0.0099806303       -0.0146395432        0.0151641651
  S         0.0070687079       -0.0374686104        0.0379327242
  S        -0.0121832287       -0.0135858217       -0.0084000590
  O        -0.0002942972        0.0077797982       -0.0042975007
  O         0.0097797638        0.0056807709       -0.0103720606
  O        -0.0017267639        0.0030200811       -0.0007856501
  O         0.0016057494        0.0025551665       -0.0014135501
  O        -0.0054610586        0.0054986780       -0.0005653491
  O        -0.0108600101       -0.0147934194        0.0098786539
  O         0.0043348169        0.0017732838       -0.0034382624
  O         0.0035369302        0.0216693474       -0.0110110025
  O         0.0201606708       -0.0099483900        0.0137705784
  O         0.0070922977        0.0051320797       -0.0127042408
  O        -0.0181054176        0.0127224380       -0.0260092725
  O        -0.0082435363        0.0207513603        0.0068424073
  S        -0.0313314032       -0.0266636580       -0.0316937402
  S         0.0536687835        0.0092325004       -0.0138470498
  S         0.0074596539       -0.0102880444       -0.0112004306
  O         0.0201348696        0.0149457824        0.0129266323
  O        -0.0195674550        0.0027418718       -0.0009495164
  O         0.0009253553        0.0133167717       -0.0010523110
  O        -0.0042067468       -0.0025807252        0.0001407783
  O        -0.0115451811       -0.0093816624        0.0025946305
  O        -0.0095075037        0.0130480199        0.0005911394
  O        -0.0072999449        0.0167270828       -0.0022797157
  O        -0.0004394197        0.0030419755       -0.0042305595
  O         0.0053646531        0.0041199119        0.0098057389
  O         0.0166306513       -0.0077902067        0.0219917416
  O         0.0106569877       -0.0088788876        0.0009035461
  O        -0.0046205277        0.0006252026       -0.0025572113
  O         0.0084872204        0.0280238763       -0.0035251420
  O        -0.0314184877        0.0135097987        0.0162586933
  O        -0.0139430796        0.0130435767        0.0107822322
  H         0.0034371853       -0.0078287589       -0.0025748393
  H         0.0192770474       -0.0159207270        0.0048750211
  H         0.0033955582        0.0007510433       -0.0027231324
  H        -0.0126412926       -0.0151110748        0.0062262549
  H         0.0064537001       -0.0116812099       -0.0180539525
  H         0.0058202128       -0.0070126400       -0.0016788330
 Ca         0.0029266877        0.0008901800       -0.0047869371
 Ca         0.0030222407       -0.0013871361        0.0006524210
 Ca        -0.0018133262       -0.0020350000       -0.0022925195
 Ca        -0.0008129305       -0.0035686239       -0.0002424800
 Ca        -0.0054372199       -0.0001478053        0.0012176600
 Ca         0.0000019310        0.0030578790       -0.0048722798
  S        -0.0223794452       -0.0150782176       -0.0041120809
  S        -0.0098939412       -0.0071297922        0.0154568609
  S         0.0186411513        0.0008722742       -0.0037640513
  O         0.0063727724       -0.0006151976        0.0026638575
  O         0.0103217930        0.0026239317        0.0014957419
  O        -0.0000656536       -0.0020527745       -0.0131544818
  O         0.0094291520        0.0045780685        0.0114569984
  O         0.0000283724        0.0053682941       -0.0022792859
  O        -0.0006138441        0.0087889025        0.0002831643
  O         0.0014727625       -0.0085233270        0.0097921904
  O        -0.0098419865       -0.0097555390       -0.0046951977
  O         0.0010900313       -0.0011902323       -0.0025226882
  O         0.0104555391        0.0171165081       -0.0060220951
  O         0.0013237900        0.0086490855       -0.0134904957
  O        -0.0049203958        0.0131673806        0.0032860853
  S        -0.0165299781       -0.0350865812       -0.0157303888
  S         0.0249191677        0.0111290598        0.0262687402
  S        -0.0020383945        0.0324918906        0.0019185673
  O         0.0069931517        0.0215073929       -0.0017048269
  O        -0.0302866524        0.0096184879       -0.0221730352
  O         0.0096024379        0.0056639483       -0.0075547113
  O        -0.0013726040        0.0017147292       -0.0037508363
  O         0.0000366323       -0.0177130676       -0.0003089179
  O         0.0142773024       -0.0185500184        0.0051161890
  O        -0.0026464487        0.0086502689        0.0041174845
  O        -0.0189911066       -0.0055351188        0.0133461619
  O        -0.0062477998       -0.0029853564       -0.0075851107
  O         0.0084578540        0.0024503182        0.0120381221
  O        -0.0037835481        0.0016794099        0.0018403965
  O        -0.0056501580       -0.0080310157        0.0050324117
  O         0.0285626949        0.0255420501       -0.0204314814
  O        -0.0048553402       -0.0179537660       -0.0038381242
  O         0.0071748246        0.0091644120       -0.0093274161
  H        -0.0248802685       -0.0114508933        0.0164872738
  H         0.0001996435        0.0185756518       -0.0016789693
  H        -0.0092766126       -0.0022953570        0.0022491801
  H        -0.0007226288       -0.0143340058        0.0003017157
  H         0.0008506790       -0.0047825785        0.0062969364
  H         0.0042570336       -0.0094069376        0.0035428909
     180
 i =        9, time =        4.500, E =     -2871.8756727464
 Ca        -0.0038923008        0.0007522150        0.0003543050
 Ca        -0.0033093343        0.0005353079        0.0014975188
 Ca         0.0011067265       -0.0018211070        0.0020943866
 Ca         0.0006020252        0.0009494464       -0.0030998694
 Ca         0.0003193435       -0.0018939934        0.0012717393
 Ca        -0.0034303107        0.0024385429        0.0014151720
  S        -0.0098311765        0.0244584682       -0.0202877786
  S         0.0224919614        0.0253066713        0.0132276084
  S         0.0317539695       -0.0197762234        0.0259553759
  O         0.0132933192       -0.0260192005        0.0080752110
  O        -0.0127198821       -0.0150465059        0.0103757929
  O        -0.0129986026       -0.0047069657       -0.0179346580
  O         0.0049302006        0.0002090144        0.0136155883
  O         0.0003116934       -0.0103051443       -0.0098481296
  O        -0.0076827021       -0.0075241333        0.0126416118
  O        -0.0078070522       -0.0042494976       -0.0063378355
  O        -0.0006996419       -0.0018192609       -0.0175723002
  O        -0.0076691918        0.0079029137       -0.0093997355
  O        -0.0075102066       -0.0021892150        0.0077439870
  O        -0.0015522722       -0.0005631117       -0.0123076893
  O         0.0027541872       -0.0101296488       -0.0216564156
  S         0.0170457485        0.0137876486        0.0083860226
  S        -0.0410728643       -0.0010850299        0.0413782754
  S         0.0359747189        0.0017509920        0.0300440602
  O        -0.0051296735       -0.0053793693        0.0016367123
  O        -0.0157989685       -0.0063149963       -0.0126926674
  O        -0.0002281514        0.0277830176       -0.0076895584
  O        -0.0037178936       -0.0014869116        0.0052926100
  O         0.0184776875        0.0084213951        0.0079641922
  O        -0.0010175341       -0.0047207229        0.0037497212
  O         0.0035379652       -0.0130288022        0.0047355548
  O         0.0146130356       -0.0027528447       -0.0091336581
  O        -0.0382046336       -0.0087129880       -0.0418798718
  O        -0.0087312106       -0.0019059236       -0.0008844861
  O        -0.0168404603        0.0041187833        0.0169915514
  O         0.0050385092        0.0095492439        0.0013763900
  O         0.0072979378       -0.0057668613       -0.0009870516
  O         0.0005472484       -0.0262915071       -0.0100375969
  O        -0.0065801860       -0.0053252965       -0.0015241966
  H        -0.0049024835        0.0006525932        0.0038125573
  H        -0.0070441692       -0.0038508861        0.0109190912
  H         0.0035904726       -0.0036255062        0.0027198870
  H         0.0011305333        0.0039488864        0.0009248133
  H         0.0037062012        0.0067292981        0.0048023480
  H         0.0059626661        0.0126184296       -0.0012685246
 Ca         0.0039586287        0.0063297806        0.0011445575
 Ca        -0.0030204847       -0.0088964921        0.0039554973
 Ca         0.0012966635       -0.0011344494       -0.0019930575
 Ca         0.0041523508        0.0017464684        0.0029328774
 Ca         0.0020271878        0.0037320392        0.0025577687
 Ca        -0.0011743070        0.0010125143       -0.0003397629
  S        -0.0087291070        0.0169462322        0.0016837677
  S        -0.0410258124       -0.0466434537       -0.0336445245
  S         0.0014272049        0.0179693881        0.0020318847
  O         0.0196416857       -0.0187867227        0.0031064649
  O         0.0012022227        0.0137791285       -0.0039146660
  O        -0.0065466656        0.0033099671        0.0040986131
  O        -0.0162077897       -0.0000539814       -0.0084396522
  O        -0.0067800516        0.0150645449       -0.0023765659
  O        -0.0081541810        0.0087021383       -0.0028510520
  O        -0.0131324851        0.0005028761       -0.0094186349
  O         0.0085386606        0.0299999613        0.0014338458
  O         0.0079608261       -0.0019527886        0.0037546884
  O        -0.0008273014        0.0074715795       -0.0014209863
  O         0.0377882410       -0.0046791223        0.0353354560
  O        -0.0060765828        0.0116093291       -0.0094325330
  S         0.0190696012       -0.0311606049       -0.0341202662
  S        -0.0034181052       -0.0149490714       -0.0169499213
  S        -0.0200542270       -0.0071014241       -0.0107617845
  O        -0.0057009004       -0.0078086029       -0.0004749396
  O        -0.0068436394       -0.0020703227       -0.0092791604
  O         0.0020824806        0.0012155893       -0.0000067760
  O        -0.0015186520        0.0164308692       -0.0029503749
  O         0.0127844668        0.0024880462        0.0142544530
  O         0.0036908904        0.0052776625        0.0035059326
  O        -0.0130106689        0.0263502794        0.0091636805
  O         0.0197600476        0.0204025102       -0.0372215498
  O         0.0118846663        0.0038938194        0.0187844469
  O         0.0024557409        0.0022950675        0.0261746568
  O         0.0184339830       -0.0276887441       -0.0119757156
  O         0.0039681880       -0.0015706864       -0.0090734215
  O         0.0241112719       -0.0160875594        0.0040288175
  O         0.0043963258        0.0165428578        0.0130904564
  O         0.0042952760        0.0021873675       -0.0051933346
  H         0.0020759871        0.0002229382        0.0007692296
  H         0.0046866532       -0.0059464863       -0.0099261552
  H        -0.0013233535       -0.0076761371        0.0030250042
  H        -0.0011403379        0.0135760634       -0.0058238409
  H        -0.0144703702       -0.0129660854        0.0030189346
  H         0.0005603511        0.0001209867       -0.0000049949
 Ca        -0.0017482183        0.0027934839        0.0046830325
 Ca         0.0000116653       -0.0003885265        0.0000100350
 Ca        -0.0027657041        0.0034012092        0.0010999565
 Ca         0.0035386353       -0.0048016911        0.0016620882
 Ca        -0.0004468089        0.0020644148       -0.0020548733
 Ca         0.0027992349       -0.0047581519       -0.0039600974
  S        -0.0111322090       -0.0162225357        0.0168184474
  S         0.0079729033       -0.0404721689        0.0399046795
  S        -0.0134503740       -0.0158837848       -0.0091390601
  O        -0.0002841266        0.0084294440       -0.0046556315
  O         0.0107750063        0.0063121707       -0.0096356998
  O        -0.0020132308        0.0040955607       -0.0005790522
  O         0.0020382843        0.0025512922       -0.0016641511
  O        -0.0061053406        0.0060130657       -0.0004477735
  O        -0.0118871069       -0.0159106018        0.0108750003
  O         0.0058847590        0.0013481586       -0.0041855782
  O         0.0039986526        0.0226136829       -0.0115394011
  O         0.0220153363       -0.0105866418        0.0145888783
  O         0.0076624064        0.0057241770       -0.0142271709
  O        -0.0192136666        0.0137081208       -0.0271573309
  O        -0.0085640787        0.0220155128        0.0072804333
  S        -0.0336035574       -0.0285311253       -0.0342439229
  S         0.0586172194        0.0102812722       -0.0152183970
  S         0.0081174256       -0.0111873252       -0.0122744009
  O         0.0224953653        0.0164686343        0.0075292857
  O        -0.0213915209        0.0028293120       -0.0011969649
  O         0.0011747759        0.0143513882       -0.0009599995
  O        -0.0045990273       -0.0028684619        0.0002437070
  O        -0.0123068043       -0.0101064731        0.0011205843
  O        -0.0095175383        0.0143221129        0.0006541389
  O        -0.0080397534        0.0184212771       -0.0026091453
  O        -0.0006826291        0.0027592491       -0.0044077950
  O         0.0061081089        0.0040255886        0.0108649343
  O         0.0178002727       -0.0085964429        0.0238683228
  O         0.0113957605       -0.0098924733        0.0011516002
  O        -0.0045043267        0.0006144375       -0.0033128683
  O         0.0168755361        0.0293304689       -0.0105638350
  O        -0.0217256096        0.0103227412        0.0164453694
  O        -0.0100153755        0.0104065277        0.0085002724
  H        -0.0045413317       -0.0088257831        0.0019671853
  H         0.0128732693       -0.0146007917        0.0015866867
  H         0.0026023234       -0.0009457290       -0.0013377539
  H        -0.0132632102       -0.0153561737        0.0063414993
  H         0.0037918940       -0.0110268576       -0.0149741303
  H         0.0023813977       -0.0024261540       -0.0015640113
 Ca         0.0032905679        0.0009898245       -0.0052749484
 Ca         0.0032565245       -0.0015387584        0.0007233911
 Ca        -0.0021664284       -0.0023494545       -0.0024151800
 Ca        -0.0009186981       -0.0040706794       -0.0003400814
 Ca        -0.0059547220       -0.0004935176        0.0014496435
 Ca         0.0001099823        0.0033081378       -0.0054480457
  S        -0.0245453508       -0.0168182136       -0.0042210627
  S        -0.0114668510       -0.0080046167        0.0170394401
  S         0.0192139385        0.0008192226       -0.0039908999
  O         0.0064307864       -0.0006124143        0.0036031626
  O         0.0113466242        0.0029589900        0.0014635859
  O         0.0001292498       -0.0017836623       -0.0144612388
  O         0.0099195883        0.0048610204        0.0122861874
  O        -0.0001980080        0.0061443348       -0.0027594252
  O        -0.0006367199        0.0096967362        0.0001420787
  O         0.0015948144       -0.0087696693        0.0101118341
  O        -0.0107209251       -0.0106363067       -0.0047114399
  O         0.0018473931       -0.0016634279       -0.0024806372
  O         0.0119381744        0.0186385311       -0.0064185108
  O         0.0021467363        0.0094888198       -0.0121886387
  O        -0.0056685070        0.0120004012        0.0049957182
  S        -0.0174863384       -0.0379420096       -0.0169946968
  S         0.0272800137        0.0120797918        0.0286230938
  S        -0.0027026616        0.0360423989        0.0020452886
  O         0.0074849867        0.0228635826       -0.0018203083
  O        -0.0327360461        0.0106807266       -0.0242600046
  O         0.0112956116        0.0059964815       -0.0080155281
  O        -0.0016313798        0.0021609839       -0.0041077619
  O         0.0004987035       -0.0189772019       -0.0000429723
  O         0.0164036840       -0.0213324567        0.0040729607
  O        -0.0027809155        0.0096536183        0.0048889215
  O        -0.0204847129       -0.0061767157        0.0145882791
  O        -0.0067739970       -0.0031870870       -0.0081856753
  O         0.0091730702        0.0033635524        0.0116736406
  O        -0.0039484419        0.0009325013        0.0021800333
  O        -0.0068346547       -0.0084148223        0.0023649611
  O         0.0166406646        0.0208328248       -0.0127245611
  O        -0.0081119205       -0.0186533597       -0.0033908888
  O         0.0129550217        0.0022218774       -0.0101633113
  H        -0.0108037478       -0.0085659810        0.0076832505
  H         0.0016731648        0.0188134717       -0.0009127771
  H        -0.0094723321       -0.0020055391        0.0015927057
  H        -0.0026208898       -0.0124180388        0.0011281699
  H         0.0021763206       -0.0057992282        0.0052633187
  H        -0.0011172838       -0.0027298861        0.0048908651
     180
 i =       10, time =        5.000, E =     -2871.8639814366
 Ca        -0.0042834252        0.0007154409        0.0005679175
 Ca        -0.0035761601        0.0005116278        0.0016054828
 Ca         0.0014620511       -0.0020246925        0.0019422560
 Ca         0.0005975101        0.0011196124       -0.0034628276
 Ca         0.0002771524       -0.0019085591        0.0012143639
 Ca        -0.0036968757        0.0027411766        0.0014805910
  S        -0.0106765403        0.0266633894       -0.0219867019
  S         0.0238084746        0.0269473427        0.0146636962
  S         0.0344624689       -0.0213744164        0.0276174568
  O         0.0146654929       -0.0276418378        0.0086773236
  O        -0.0140407102       -0.0153184606        0.0106934139
  O        -0.0137473438       -0.0048976249       -0.0194947168
  O         0.0054788561        0.0005336944        0.0150862199
  O         0.0001362462       -0.0111176740       -0.0106562173
  O        -0.0080028775       -0.0079551908        0.0133046697
  O        -0.0077708367       -0.0046129883       -0.0072686921
  O        -0.0011793182       -0.0000773033       -0.0182921102
  O        -0.0079882027        0.0082234695       -0.0097957812
  O        -0.0081045770       -0.0021822187        0.0083393482
  O        -0.0015317776       -0.0005537731       -0.0131895059
  O         0.0032529715       -0.0110589257       -0.0193207973
  S         0.0181975359        0.0146443433        0.0091334573
  S        -0.0433614499       -0.0011589782        0.0435345870
  S         0.0393568947        0.0017521873        0.0327206182
  O        -0.0055609770       -0.0053423706        0.0019099837
  O        -0.0168538080       -0.0065289624       -0.0119591991
  O        -0.0002893937        0.0305172157       -0.0082344656
  O        -0.0039409544       -0.0015914050        0.0056228188
  O         0.0189888056        0.0090401436        0.0091121306
  O        -0.0018872393       -0.0051865480        0.0042998031
  O         0.0045668175       -0.0143827842        0.0056637682
  O         0.0159217813       -0.0027893797       -0.0097091417
  O        -0.0408887607       -0.0089380809       -0.0459481945
  O        -0.0097416431       -0.0018521885       -0.0012794894
  O        -0.0176370857        0.0043037487        0.0180228930
  O         0.0057619713        0.0106503004        0.0017908864
  O         0.0101179987       -0.0000596029       -0.0049248666
  O        -0.0016750286       -0.0276863967       -0.0063111235
  O        -0.0064028446        0.0012245855       -0.0044072143
  H        -0.0118251451       -0.0010354920        0.0088836424
  H        -0.0071838530       -0.0042222215        0.0113000566
  H         0.0016303104       -0.0063654128        0.0061385708
  H         0.0037474430        0.0003663006        0.0001681070
  H         0.0056473359        0.0065654313        0.0011766839
  H         0.0079372910        0.0092401962       -0.0015831056
 Ca         0.0041912897        0.0069319080        0.0013577171
 Ca        -0.0034110488       -0.0097321596        0.0045162415
 Ca         0.0014915563       -0.0012010879       -0.0023300316
 Ca         0.0044708276        0.0020666295        0.0032661828
 Ca         0.0023930931        0.0042080334        0.0027284621
 Ca        -0.0013001070        0.0010459531       -0.0003663152
  S        -0.0094536303        0.0185126670        0.0017162697
  S        -0.0436974556       -0.0502103440       -0.0354414610
  S         0.0017817845        0.0188884129        0.0019772293
  O         0.0218544224       -0.0207040605        0.0044841163
  O         0.0014072812        0.0149388142       -0.0047035083
  O        -0.0063601272        0.0035774453        0.0041180151
  O        -0.0196569693        0.0006538880       -0.0095406783
  O        -0.0073006226        0.0162537005       -0.0025257813
  O        -0.0091514455        0.0091589468       -0.0028166763
  O        -0.0191284944       -0.0005880466       -0.0102435767
  O         0.0089512241        0.0316450546        0.0015383773
  O         0.0086044109       -0.0020376328        0.0040368926
  O        -0.0007943050        0.0079828961       -0.0020256558
  O         0.0403570647       -0.0051086943        0.0376978027
  O        -0.0062766786        0.0126051493       -0.0077778216
  S         0.0207674684       -0.0337866809       -0.0367928493
  S        -0.0040781410       -0.0158007126       -0.0184115812
  S        -0.0216216386       -0.0076706647       -0.0113881920
  O        -0.0078685101       -0.0091680178        0.0003247177
  O        -0.0080068836       -0.0015630491       -0.0105197419
  O         0.0020622140        0.0011782398        0.0005351853
  O        -0.0014768011        0.0175554685       -0.0030552916
  O         0.0143442515        0.0037699915        0.0155980497
  O         0.0040144717        0.0056580871        0.0035966363
  O        -0.0137260950        0.0278780619        0.0098521748
  O         0.0209932912        0.0210734227       -0.0394707197
  O         0.0121611287        0.0042804920        0.0200094538
  O         0.0021863372        0.0029920391        0.0279880437
  O         0.0189768010       -0.0288446483       -0.0117014652
  O         0.0042953392       -0.0012283489       -0.0097021972
  O         0.0209196628       -0.0171283273        0.0037520987
  O         0.0025452019        0.0203498848        0.0207002698
  O         0.0029827707       -0.0073649378       -0.0005714359
  H         0.0019642437        0.0005459628        0.0010244471
  H         0.0025825008       -0.0055326687       -0.0106607541
  H         0.0020380384       -0.0004529437       -0.0026332910
  H         0.0047342322        0.0157376360       -0.0062032898
  H        -0.0110244152       -0.0170571787       -0.0030478775
  H        -0.0007621797        0.0017646692        0.0004771635
 Ca        -0.0019184054        0.0029719093        0.0048731190
 Ca         0.0001013930       -0.0004549815        0.0000314922
 Ca        -0.0030605663        0.0037860972        0.0012552423
 Ca         0.0035446642       -0.0052135324        0.0018531982
 Ca        -0.0006692539        0.0021742740       -0.0022045568
 Ca         0.0029738210       -0.0051168386       -0.0043293474
  S        -0.0122074069       -0.0176951174        0.0183698325
  S         0.0088437006       -0.0430154271        0.0412568794
  S        -0.0145628713       -0.0181722724       -0.0097013501
  O        -0.0002911492        0.0090392332       -0.0049858950
  O         0.0115222134        0.0070874069       -0.0086297072
  O        -0.0023473188        0.0051753721       -0.0003761829
  O         0.0024262638        0.0024198469       -0.0018624951
  O        -0.0066910067        0.0064318071       -0.0003057781
  O        -0.0133600214       -0.0171229476        0.0117824505
  O         0.0073294341        0.0011770206       -0.0048230638
  O         0.0042374278        0.0240225151       -0.0117848670
  O         0.0235972901       -0.0109932720        0.0152686029
  O         0.0081662124        0.0062477758       -0.0156880061
  O        -0.0199720329        0.0145060612       -0.0278851605
  O        -0.0087672081        0.0229479764        0.0076096558
  S        -0.0353516943       -0.0299742227       -0.0363531132
  S         0.0629302089        0.0112730001       -0.0164532256
  S         0.0087197399       -0.0119746611       -0.0132401987
  O         0.0241608375        0.0170923666        0.0070659836
  O        -0.0231132808        0.0030094911       -0.0013526079
  O         0.0014398238        0.0151775047       -0.0007807502
  O        -0.0049750068       -0.0032457128        0.0004615386
  O        -0.0129210037       -0.0105795725        0.0012002161
  O        -0.0093531433        0.0154102318        0.0008331289
  O        -0.0086562693        0.0199333253       -0.0028076338
  O        -0.0008964144        0.0021553363       -0.0046115342
  O         0.0068255063        0.0037758243        0.0118298339
  O         0.0185857081       -0.0092936717        0.0253407327
  O         0.0119950328       -0.0108333255        0.0014295844
  O        -0.0043388972        0.0007501290       -0.0041669675
  O         0.0240213377        0.0290734758       -0.0160975523
  O        -0.0109468309        0.0065648715        0.0153028217
  O        -0.0058780017        0.0077696901        0.0056667507
  H        -0.0115717921       -0.0091811793        0.0058530118
  H         0.0063103775       -0.0130375713       -0.0017526514
  H         0.0017265743       -0.0026195921        0.0000923755
  H        -0.0136938915       -0.0148776548        0.0063581511
  H         0.0004405039       -0.0097689749       -0.0106422029
  H        -0.0010642397        0.0020901665       -0.0013789530
 Ca         0.0036277102        0.0010858824       -0.0057419917
 Ca         0.0034506547       -0.0016961812        0.0007896515
 Ca        -0.0025134566       -0.0026561296       -0.0025000030
 Ca        -0.0010278749       -0.0045555218       -0.0004337183
 Ca        -0.0064362192       -0.0008946610        0.0016629930
 Ca         0.0002296739        0.0035195136       -0.0059727127
  S        -0.0264945783       -0.0184501603       -0.0042748073
  S        -0.0130728954       -0.0088645871        0.0185011173
  S         0.0194281912        0.0007750197       -0.0040693841
  O         0.0061847508       -0.0005020335        0.0044964507
  O         0.0123648812        0.0032814654        0.0014870865
  O         0.0003618301       -0.0014649457       -0.0156549408
  O         0.0102800524        0.0051289183        0.0130124466
  O        -0.0004865588        0.0069476652       -0.0033835823
  O        -0.0006912355        0.0105323303        0.0000074430
  O         0.0016206702       -0.0087917304        0.0101807828
  O        -0.0114303861       -0.0113588156       -0.0046794643
  O         0.0027156433       -0.0020562671       -0.0023795199
  O         0.0133164879        0.0199654074       -0.0067920175
  O         0.0031219505        0.0106098589       -0.0112323851
  O        -0.0060175854        0.0115893671        0.0049662568
  S        -0.0181723764       -0.0403714144       -0.0180073781
  S         0.0293083380        0.0129856567        0.0305899152
  S        -0.0033722294        0.0393234592        0.0020794706
  O         0.0078800041        0.0239092841       -0.0019355232
  O        -0.0354355531        0.0116177565       -0.0258802560
  O         0.0128131883        0.0066332590       -0.0075972424
  O        -0.0018978859        0.0026473864       -0.0044443138
  O         0.0010969284       -0.0201437241        0.0001337727
  O         0.0184202745       -0.0239623312        0.0039577465
  O        -0.0029845504        0.0104743328        0.0056890351
  O        -0.0217806885       -0.0067105425        0.0157034531
  O        -0.0072336880       -0.0033484558       -0.0086888437
  O         0.0097921579        0.0042698523        0.0108445318
  O        -0.0039817395        0.0000809439        0.0025076461
  O        -0.0080916002       -0.0086702902        0.0001452214
  O         0.0014523594        0.0143226525       -0.0028146386
  O        -0.0117558733       -0.0181502023       -0.0031732137
  O         0.0179491118       -0.0044305158       -0.0104785900
  H         0.0068384757       -0.0046884933       -0.0034738266
  H         0.0035383673        0.0184173558        0.0001231180
  H        -0.0093813939       -0.0014945154        0.0007235517
  H        -0.0047623169       -0.0096823084        0.0020503187
  H         0.0034902476       -0.0067009144        0.0041533718
  H        -0.0060591186        0.0035134626        0.0060092367
     180
 i =       11, time =        5.500, E =     -2871.8507706326
 Ca        -0.0046481782        0.0006720864        0.0007863416
 Ca        -0.0038176880        0.0004709913        0.0017062758
 Ca         0.0018122265       -0.0022292526        0.0017862680
 Ca         0.0005217062        0.0013136516       -0.0037976291
 Ca         0.0001438669       -0.0018787107        0.0011367802
 Ca        -0.0039275537        0.0030435874        0.0015263962
  S        -0.0113865101        0.0286813403       -0.0235381938
  S         0.0248547096        0.0283001859        0.0159961209
  S         0.0367529765       -0.0227377854        0.0290503007
  O         0.0159802242       -0.0292645196        0.0092692931
  O        -0.0150306234       -0.0153037269        0.0109953872
  O        -0.0143422154       -0.0049892980       -0.0209794426
  O         0.0059475329        0.0008462136        0.0164903900
  O        -0.0001598812       -0.0117882524       -0.0112773362
  O        -0.0082692694       -0.0083997709        0.0138538280
  O        -0.0076737027       -0.0051145850       -0.0082323532
  O        -0.0017199276        0.0014457930       -0.0179025352
  O        -0.0081007072        0.0083446349       -0.0100646186
  O        -0.0086842278       -0.0021342328        0.0088810296
  O        -0.0013744381       -0.0007545174       -0.0139903834
  O         0.0035696614       -0.0118637016       -0.0170528592
  S         0.0191635363        0.0153068201        0.0098152752
  S        -0.0450822326       -0.0013190717        0.0451543684
  S         0.0423946516        0.0016907555        0.0349667737
  O        -0.0058888219       -0.0052198835        0.0022002745
  O        -0.0178764009       -0.0063378176       -0.0095678155
  O        -0.0003270019        0.0329837892       -0.0086676093
  O        -0.0041228707       -0.0017080544        0.0058836241
  O         0.0194856620        0.0095455531        0.0101234094
  O        -0.0028294803       -0.0055931527        0.0047767996
  O         0.0055540803       -0.0157588914        0.0058189222
  O         0.0170912184       -0.0028060728       -0.0102341876
  O        -0.0434398692       -0.0093228504       -0.0495448240
  O        -0.0106810699       -0.0016620332       -0.0019193935
  O        -0.0186100413        0.0044359319        0.0192628747
  O         0.0064331990        0.0115629103        0.0024111242
  O         0.0118706548        0.0047962868       -0.0081391488
  O        -0.0039121434       -0.0287644873       -0.0024738826
  O        -0.0064345927        0.0076748401       -0.0067415990
  H        -0.0170307007       -0.0023771243        0.0127729480
  H        -0.0070181761       -0.0046138656        0.0114949952
  H        -0.0000990791       -0.0084025560        0.0090705160
  H         0.0061626107       -0.0030123664       -0.0004687273
  H         0.0073177528        0.0064117762       -0.0023397388
  H         0.0098946733        0.0052121400       -0.0018772009
 Ca         0.0043907270        0.0074799656        0.0015402386
 Ca        -0.0037922428       -0.0105186923        0.0051003798
 Ca         0.0016952331       -0.0012745289       -0.0026551741
 Ca         0.0046951331        0.0023773681        0.0035857913
 Ca         0.0027514580        0.0046874612        0.0028826194
 Ca        -0.0014200091        0.0010599070       -0.0003794931
  S        -0.0100836663        0.0199218556        0.0016852359
  S        -0.0456553589       -0.0533636178       -0.0367418835
  S         0.0022955881        0.0195053087        0.0018444972
  O         0.0238846243       -0.0222808931        0.0062944382
  O         0.0017326868        0.0160802692       -0.0053456514
  O        -0.0062970376        0.0038683749        0.0042139417
  O        -0.0225506771        0.0014345977       -0.0110295125
  O        -0.0077628230        0.0172847569       -0.0026594350
  O        -0.0100893397        0.0095131983       -0.0027509679
  O        -0.0235308992       -0.0012973881       -0.0108654771
  O         0.0091936053        0.0330000192        0.0016294097
  O         0.0091586334       -0.0020726291        0.0042664572
  O        -0.0006323024        0.0084919696       -0.0025926618
  O         0.0424087676       -0.0054956874        0.0395364674
  O        -0.0064188378        0.0135468814       -0.0062155375
  S         0.0222800706       -0.0361350676       -0.0391292993
  S        -0.0047690860       -0.0164276513       -0.0197579126
  S        -0.0230313167       -0.0081657161       -0.0119032200
  O        -0.0095743772       -0.0103749169        0.0027404055
  O        -0.0090028592       -0.0011596690       -0.0109987881
  O         0.0020159362        0.0010402771        0.0011562176
  O        -0.0014744472        0.0186929117       -0.0033619371
  O         0.0157986499        0.0050912771        0.0168057180
  O         0.0042223925        0.0060533881        0.0036329690
  O        -0.0140008228        0.0293148245        0.0104908838
  O         0.0221696692        0.0215097668       -0.0414834350
  O         0.0124188693        0.0046564707        0.0209425454
  O         0.0018562377        0.0036480903        0.0282032729
  O         0.0192328587       -0.0299825153       -0.0111057479
  O         0.0047196276       -0.0009451588       -0.0100018823
  O         0.0152380166       -0.0178065588        0.0038433200
  O         0.0010054163        0.0235300455        0.0269604229
  O         0.0013974374       -0.0168150398        0.0042404563
  H         0.0018356372        0.0008953974        0.0012418783
  H         0.0004550619       -0.0050158295       -0.0111647040
  H         0.0055341643        0.0072776872       -0.0085566229
  H         0.0094247477        0.0173238906       -0.0064243133
  H        -0.0078058697       -0.0205471438       -0.0081580725
  H        -0.0019232670        0.0032177708        0.0009553997
 Ca        -0.0020842510        0.0031136264        0.0050424605
 Ca         0.0001915431       -0.0005162715        0.0000624557
 Ca        -0.0033416507        0.0041749111        0.0014494162
 Ca         0.0035069242       -0.0055989804        0.0020165933
 Ca        -0.0008822615        0.0022291315       -0.0023664570
 Ca         0.0031212942       -0.0054503613       -0.0046657712
  S        -0.0132003291       -0.0190568304        0.0198334526
  S         0.0096495331       -0.0451041424        0.0420507126
  S        -0.0154842561       -0.0203909356       -0.0100868855
  O        -0.0003233247        0.0096076757       -0.0052934860
  O         0.0119510466        0.0079780896       -0.0075029060
  O        -0.0027289127        0.0061930255       -0.0001763464
  O         0.0027229525        0.0022075711       -0.0020036981
  O        -0.0072064529        0.0067394281       -0.0001451150
  O        -0.0151207344       -0.0183037736        0.0125305137
  O         0.0079898933        0.0014261495       -0.0052982358
  O         0.0042859806        0.0257729976       -0.0106642945
  O         0.0248817599       -0.0112564480        0.0158219896
  O         0.0086027976        0.0067006254       -0.0170742775
  O        -0.0204296278        0.0151462191       -0.0285279055
  O        -0.0088764688        0.0236176066        0.0078246100
  S        -0.0365550594       -0.0309838042       -0.0379489999
  S         0.0666165790        0.0122112799       -0.0175332613
  S         0.0092857019       -0.0126604447       -0.0141040293
  O         0.0252102569        0.0167285234        0.0084326166
  O        -0.0246375731        0.0032810860       -0.0018908804
  O         0.0017046751        0.0158061653       -0.0005441489
  O        -0.0053633685       -0.0037278036        0.0006641386
  O        -0.0134018517       -0.0109239512        0.0015805687
  O        -0.0092320332        0.0163560213        0.0009910184
  O        -0.0091465061        0.0212650366       -0.0028852224
  O        -0.0010270273        0.0013455043       -0.0048425548
  O         0.0074999196        0.0034012585        0.0126893783
  O         0.0188300575       -0.0102006418        0.0263259525
  O         0.0124257386       -0.0116641260        0.0017713966
  O        -0.0041755647        0.0009443995       -0.0049303086
  O         0.0294357392        0.0272867568       -0.0197844171
  O         0.0002655400        0.0023192816        0.0125379399
  O        -0.0020220628        0.0053280467        0.0021336290
  H        -0.0171115877       -0.0088937267        0.0088067099
  H         0.0002064538       -0.0113718478       -0.0048191524
  H         0.0008538020       -0.0041066422        0.0014257206
  H        -0.0139618131       -0.0136311887        0.0063278389
  H        -0.0035761217       -0.0078796731       -0.0050248761
  H        -0.0042157515        0.0061368948       -0.0011337491
 Ca         0.0039319494        0.0011797241       -0.0061917022
 Ca         0.0036073704       -0.0018678594        0.0008507742
 Ca        -0.0028422321       -0.0029551420       -0.0025534874
 Ca        -0.0011410473       -0.0050142546       -0.0005130115
 Ca        -0.0068895687       -0.0013196014        0.0018536982
 Ca         0.0003461458        0.0036972742       -0.0064455894
  S        -0.0282339656       -0.0199695592       -0.0042858416
  S        -0.0147363705       -0.0097057428        0.0198359894
  S         0.0193456639        0.0007537611       -0.0039622008
  O         0.0057443825       -0.0003438690        0.0051874940
  O         0.0133510247        0.0035881021        0.0015801773
  O         0.0006261078       -0.0011172394       -0.0167423852
  O         0.0105433353        0.0053714050        0.0136547276
  O        -0.0007426628        0.0077728581       -0.0041297851
  O        -0.0007779578        0.0112836968       -0.0000943351
  O         0.0014588957       -0.0086295347        0.0106951087
  O        -0.0119701653       -0.0119455828       -0.0046518222
  O         0.0036563274       -0.0023981867       -0.0022445713
  O         0.0145309664        0.0211831997       -0.0072022763
  O         0.0040740869        0.0119283411       -0.0117404924
  O        -0.0059010748        0.0111307231        0.0039316968
  S        -0.0185960153       -0.0423911440       -0.0187698453
  S         0.0309928575        0.0138644465        0.0321593964
  S        -0.0040290479        0.0423223642        0.0020625436
  O         0.0081608702        0.0246569296       -0.0019994626
  O        -0.0383077496        0.0124409172       -0.0271220703
  O         0.0141044800        0.0075495442       -0.0063272337
  O        -0.0021605313        0.0031143877       -0.0047657043
  O         0.0018152047       -0.0212427402        0.0002262174
  O         0.0201744425       -0.0263622651       -0.0007492520
  O        -0.0035378548        0.0110083889        0.0062840936
  O        -0.0229567576       -0.0070800036        0.0165760435
  O        -0.0076202335       -0.0034754939       -0.0090963273
  O         0.0103079178        0.0052453174        0.0094630458
  O        -0.0039252511       -0.0010659863        0.0027369747
  O        -0.0093049376       -0.0088708051        0.0002243593
  O        -0.0157519414        0.0064109642        0.0084580984
  O        -0.0154138995       -0.0173188615       -0.0033580746
  O         0.0218313657       -0.0103045193       -0.0103958861
  H         0.0266036469       -0.0001661208       -0.0161102931
  H         0.0057647433        0.0174143784        0.0014081869
  H        -0.0090374236       -0.0007914318       -0.0003008707
  H        -0.0070349337       -0.0062160387        0.0030060287
  H         0.0046683969       -0.0074178483        0.0031054477
  H        -0.0101749206        0.0088191524        0.0068096936
     180
 i =       12, time =        6.000, E =     -2871.8367197312
 Ca        -0.0049898692        0.0006313396        0.0009983800
 Ca        -0.0040392653        0.0004143544        0.0018039649
 Ca         0.0021399157       -0.0024377848        0.0016525469
 Ca         0.0003802070        0.0015316637       -0.0041048876
 Ca        -0.0000850731       -0.0018124409        0.0010527773
 Ca        -0.0041249200        0.0033500503        0.0015540334
  S        -0.0119542252        0.0305369942       -0.0249635090
  S         0.0256647787        0.0294026895        0.0172099120
  S         0.0386061309       -0.0238488530        0.0303325182
  O         0.0171069460       -0.0309086108        0.0098070083
  O        -0.0156248947       -0.0153892288        0.0114258108
  O        -0.0148190516       -0.0050169266       -0.0223682677
  O         0.0063348231        0.0011226429        0.0177495547
  O        -0.0005913187       -0.0123206516       -0.0117106898
  O        -0.0085647723       -0.0088138327        0.0143873924
  O        -0.0076980827       -0.0057722112       -0.0091333981
  O        -0.0021700449        0.0024941256       -0.0156188669
  O        -0.0080122716        0.0082673166       -0.0101781622
  O        -0.0092641544       -0.0020565419        0.0093703528
  O        -0.0011135612       -0.0011126578       -0.0147123965
  O         0.0036441203       -0.0124262590       -0.0171626386
  S         0.0199672941        0.0157725410        0.0104225194
  S        -0.0462697462       -0.0015909868        0.0462829859
  S         0.0450867940        0.0015645328        0.0367406842
  O        -0.0061597009       -0.0050083016        0.0024561357
  O        -0.0190193953       -0.0055448395       -0.0080746622
  O        -0.0003446664        0.0351813843       -0.0089907373
  O        -0.0042762214       -0.0018017242        0.0061063284
  O         0.0201902934        0.0100450195        0.0110624853
  O        -0.0036421954       -0.0059377876        0.0052329050
  O         0.0063960560       -0.0170656573        0.0054478725
  O         0.0181595880       -0.0027176156       -0.0107065937
  O        -0.0459537941       -0.0097964826       -0.0526244903
  O        -0.0114873779       -0.0013442340       -0.0034271046
  O        -0.0196627283        0.0049613156        0.0207051787
  O         0.0070293339        0.0122802244        0.0031292609
  O         0.0122054467        0.0084595245       -0.0104013567
  O        -0.0060226538       -0.0297129067        0.0012640350
  O        -0.0066588360        0.0135524138       -0.0083854429
  H        -0.0202616925       -0.0033021235        0.0152861901
  H        -0.0065493568       -0.0050162221        0.0115013410
  H        -0.0014736689       -0.0095669010        0.0113004774
  H         0.0082114152       -0.0059523251       -0.0009287969
  H         0.0086056460        0.0062879574       -0.0055386194
  H         0.0117087965        0.0008637194       -0.0021092171
 Ca         0.0045656596        0.0079714196        0.0016737365
 Ca        -0.0041605975       -0.0112658889        0.0057028447
 Ca         0.0019118185       -0.0013773590       -0.0029508272
 Ca         0.0048140756        0.0026688812        0.0038895530
 Ca         0.0030927209        0.0051736767        0.0030254719
 Ca        -0.0015343822        0.0010545017       -0.0003769167
  S        -0.0106183558        0.0211602793        0.0015831427
  S        -0.0468567013       -0.0561398195       -0.0376004741
  S         0.0029914740        0.0198455602        0.0017013003
  O         0.0257180387       -0.0234555851        0.0081171699
  O         0.0021044767        0.0171803425       -0.0058046121
  O        -0.0064471233        0.0042275074        0.0043375201
  O        -0.0245322499        0.0021113082       -0.0125079737
  O        -0.0081309517        0.0181332680        0.0004402365
  O        -0.0109791114        0.0097937706       -0.0026608698
  O        -0.0260396338       -0.0015680049       -0.0113141760
  O         0.0092752387        0.0340868954        0.0017145854
  O         0.0096251576       -0.0020639561        0.0044486167
  O        -0.0002720224        0.0089392359       -0.0030547188
  O         0.0439015216       -0.0057599952        0.0408268237
  O        -0.0065379598        0.0143498735       -0.0059815874
  S         0.0236250836       -0.0382136014       -0.0411543988
  S        -0.0054983230       -0.0168225949       -0.0209721407
  S        -0.0243075882       -0.0085869395       -0.0123245473
  O        -0.0104542404       -0.0112374008        0.0056658747
  O        -0.0097986500       -0.0007140560       -0.0113978667
  O         0.0019125801        0.0007842228        0.0018217415
  O        -0.0014847238        0.0198691827       -0.0038453640
  O         0.0170726761        0.0061697757        0.0178668590
  O         0.0043261126        0.0064850854        0.0036166824
  O        -0.0139989513        0.0305208968        0.0110260476
  O         0.0232516185        0.0218288707       -0.0432770914
  O         0.0127177217        0.0050167614        0.0215469013
  O         0.0013706727        0.0042282864        0.0292535330
  O         0.0193149555       -0.0294790277       -0.0104505094
  O         0.0052115254       -0.0010775346       -0.0105052255
  O         0.0098137769       -0.0182333219        0.0040941487
  O        -0.0002897604        0.0261312611        0.0316419534
  O        -0.0002138407       -0.0253042428        0.0086245382
  H         0.0016936781        0.0012574426        0.0013993818
  H        -0.0015627765       -0.0044336936       -0.0114085922
  H         0.0087675044        0.0146057462       -0.0140699428
  H         0.0126282343        0.0182361710       -0.0064781748
  H        -0.0049032237       -0.0233092663       -0.0121902719
  H        -0.0028117742        0.0043511443        0.0013918417
 Ca        -0.0022487652        0.0032197575        0.0052123715
 Ca         0.0002752753       -0.0005681956        0.0001039995
 Ca        -0.0036101635        0.0045761044        0.0016918142
 Ca         0.0034488910       -0.0059697598        0.0021377024
 Ca        -0.0010719507        0.0022323185       -0.0025429574
 Ca         0.0032462365       -0.0057721013       -0.0049796152
  S        -0.0141169044       -0.0203275368        0.0212259312
  S         0.0103620393       -0.0467763049        0.0423557950
  S        -0.0161846764       -0.0225135139       -0.0102735335
  O        -0.0003809091        0.0101587018       -0.0055795598
  O         0.0121117870        0.0089152606       -0.0063645382
  O        -0.0031328909        0.0071136795        0.0000188947
  O         0.0028991011        0.0019869798       -0.0020835187
  O        -0.0076390918        0.0069285162        0.0000278129
  O        -0.0166226212       -0.0190301517        0.0132192714
  O         0.0079204838        0.0019395467       -0.0051898814
  O         0.0042875138        0.0274261581       -0.0036014316
  O         0.0259010116       -0.0114509763        0.0162426621
  O         0.0089961454        0.0070594635       -0.0183681790
  O        -0.0206560314        0.0156512766       -0.0287595031
  O        -0.0089304277        0.0241379172        0.0079253960
  S        -0.0372631718       -0.0316030185       -0.0390291061
  S         0.0696858874        0.0131128283       -0.0184657973
  S         0.0098324484       -0.0132525400       -0.0148804880
  O         0.0261176409        0.0161187774        0.0107696970
  O        -0.0259678462        0.0036093320       -0.0041766785
  O         0.0019482330        0.0162327532       -0.0002407594
  O        -0.0057410516       -0.0043202756        0.0009808100
  O        -0.0137447082       -0.0112453710        0.0022970950
  O        -0.0092913534        0.0171740965        0.0010905230
  O        -0.0095277353        0.0224485200       -0.0028112679
  O        -0.0011032460        0.0001942185       -0.0051268323
  O         0.0081158110        0.0029468814        0.0134569171
  O         0.0185401401       -0.0112174288        0.0267925542
  O         0.0127566340       -0.0123912775        0.0021465799
  O        -0.0040872048        0.0010680037       -0.0054961774
  O         0.0331428816        0.0240988082       -0.0216582228
  O         0.0114555280       -0.0022789878        0.0080555633
  O         0.0011054869        0.0031560308       -0.0020963567
  H        -0.0208878615       -0.0079979433        0.0107141972
  H        -0.0051599424       -0.0096582709       -0.0074457089
  H         0.0000497050       -0.0052755795        0.0025564216
  H        -0.0140854258       -0.0115678027        0.0062617025
  H        -0.0081739054       -0.0053893447        0.0017823532
  H        -0.0068909948        0.0094754993       -0.0008342282
 Ca         0.0042017114        0.0012771820       -0.0066411156
 Ca         0.0037289970       -0.0020628137        0.0009050264
 Ca        -0.0031415864       -0.0032531272       -0.0025818223
 Ca        -0.0012610521       -0.0054423761       -0.0005695081
 Ca        -0.0073254914       -0.0017443826        0.0020075658
 Ca         0.0004452042        0.0038495482       -0.0068749285
  S        -0.0297939074       -0.0213802865       -0.0042764234
  S        -0.0164662463       -0.0105270907        0.0210330197
  S         0.0190145526        0.0007718303       -0.0036258530
  O         0.0052859568       -0.0002352303        0.0056945348
  O         0.0142815926        0.0038788065        0.0017519008
  O         0.0009233952       -0.0007571050       -0.0177348125
  O         0.0108641850        0.0055890507        0.0142663525
  O        -0.0008853797        0.0085678110       -0.0049684597
  O        -0.0009111714        0.0119556438       -0.0001422651
  O         0.0010543324       -0.0082018282        0.0115924165
  O        -0.0123753369       -0.0124041013       -0.0046752543
  O         0.0046220456       -0.0026962874       -0.0020759769
  O         0.0156268025        0.0223543846       -0.0076076751
  O         0.0049004603        0.0132755501       -0.0132046907
  O        -0.0053073680        0.0111324218        0.0018222796
  S        -0.0187826318       -0.0440450518       -0.0192965316
  S         0.0323167876        0.0147653720        0.0333251439
  S        -0.0046373676        0.0450506344        0.0019576788
  O         0.0083237912        0.0251611260       -0.0020986394
  O        -0.0410078101        0.0131043353       -0.0280758957
  O         0.0150826720        0.0086708265       -0.0048084310
  O        -0.0024112677        0.0035217776       -0.0050460691
  O         0.0025848304       -0.0223050465        0.0003158993
  O         0.0216010227       -0.0284689441       -0.0022562122
  O        -0.0044941222        0.0112710433        0.0065528350
  O        -0.0239436818       -0.0072658109        0.0172375353
  O        -0.0079495910       -0.0035727693       -0.0094106175
  O         0.0107362835        0.0061965928        0.0084136277
  O        -0.0037699756       -0.0025011734        0.0028403556
  O        -0.0103712043       -0.0090944437        0.0008026021
  O        -0.0321490220       -0.0020988872        0.0193185130
  O        -0.0189241019       -0.0167201771       -0.0039141815
  O         0.0244220721       -0.0150906523       -0.0098986115
  H         0.0455457664        0.0042794208       -0.0283410498
  H         0.0082968282        0.0158618097        0.0029051859
  H        -0.0084800681        0.0000511913       -0.0014551535
  H        -0.0092986462       -0.0021341490        0.0039138639
  H         0.0056026403       -0.0078960616        0.0022144128
  H        -0.0132587793        0.0129219236        0.0072562869
     180
 i =       13, time =        6.500, E =     -2871.8233038351
 Ca        -0.0053084297        0.0006026582        0.0011935727
 Ca        -0.0042435001        0.0003423937        0.0018988047
 Ca         0.0024273176       -0.0026535664        0.0015687798
 Ca         0.0001897016        0.0017638646       -0.0043730283
 Ca        -0.0004106533       -0.0017150187        0.0009744999
 Ca        -0.0042883949        0.0036614577        0.0015649076
  S        -0.0123536118        0.0322129340       -0.0262626832
  S         0.0262528007        0.0302615432        0.0182460711
  S         0.0399615007       -0.0246804615        0.0314958609
  O         0.0179393284       -0.0325564409        0.0103852875
  O        -0.0157135824       -0.0158854879        0.0120878622
  O        -0.0151914231       -0.0049927558       -0.0236206138
  O         0.0066377790        0.0013455284        0.0187627901
  O        -0.0011123809       -0.0126841500       -0.0121344684
  O        -0.0089054738       -0.0092061018        0.0149577122
  O        -0.0080161046       -0.0066069948       -0.0098877794
  O        -0.0023938880        0.0030238501       -0.0095887879
  O        -0.0077132644        0.0079785272       -0.0102086476
  O        -0.0098371397       -0.0019389606        0.0098169327
  O        -0.0008003321       -0.0015420858       -0.0153335580
  O         0.0033639281       -0.0126662030       -0.0176902245
  S         0.0206105812        0.0160357234        0.0109388328
  S        -0.0469110353       -0.0020079316        0.0469737662
  S         0.0473938963        0.0013695229        0.0379647373
  O        -0.0064256765       -0.0047700347        0.0026680632
  O        -0.0204651683       -0.0045444840       -0.0083416819
  O        -0.0003634430        0.0371040608       -0.0092810960
  O        -0.0043983630       -0.0018894532        0.0062843953
  O         0.0212036123        0.0105014894        0.0122735121
  O        -0.0041287045       -0.0061987817        0.0057379178
  O         0.0070291810       -0.0181854007        0.0047998808
  O         0.0191316287       -0.0024113015       -0.0110933729
  O        -0.0483930509       -0.0102259554       -0.0551249312
  O        -0.0121858050       -0.0009231418       -0.0045959958
  O        -0.0206526126        0.0085892881        0.0223879093
  O         0.0075545144        0.0128481477        0.0038615879
  O         0.0113507434        0.0106717249       -0.0114909149
  O        -0.0078614605       -0.0306171569        0.0046856038
  O        -0.0069920026        0.0182582805       -0.0092045291
  H        -0.0213855638       -0.0037656901        0.0162828165
  H        -0.0057885864       -0.0054137898        0.0113192388
  H        -0.0023897212       -0.0097416969        0.0126397610
  H         0.0097495490       -0.0082641127       -0.0011690137
  H         0.0094185079        0.0062003374       -0.0082526329
  H         0.0132075973       -0.0033223499       -0.0022208325
 Ca         0.0047252637        0.0083973000        0.0017463042
 Ca        -0.0045095867       -0.0119724653        0.0063271354
 Ca         0.0021450462       -0.0015135038       -0.0032079715
 Ca         0.0048193776        0.0029276551        0.0041707003
 Ca         0.0034085845        0.0056629046        0.0031617157
 Ca        -0.0016428448        0.0010302126       -0.0003575140
  S        -0.0110497815        0.0222072463        0.0013864879
  S        -0.0472344567       -0.0584978085       -0.0379569182
  S         0.0038887343        0.0199135443        0.0015463403
  O         0.0274148004       -0.0241859356        0.0096081797
  O         0.0024310605        0.0181891673       -0.0060517699
  O        -0.0068570321        0.0046905115        0.0046920303
  O        -0.0256656765        0.0025936463       -0.0135638878
  O        -0.0084078869        0.0187522453        0.0032212104
  O        -0.0118056889        0.0100168596       -0.0025528829
  O        -0.0264955426       -0.0013882947       -0.0114549925
  O         0.0091973541        0.0349223833        0.0017728592
  O         0.0100085504       -0.0020105779        0.0045768288
  O         0.0003231966        0.0092480634       -0.0032990780
  O         0.0447943122       -0.0058183179        0.0415406054
  O        -0.0066605099        0.0149572681       -0.0064948053
  S         0.0247866340       -0.0400019257       -0.0428320360
  S        -0.0062702818       -0.0169872035       -0.0220448365
  S        -0.0254543462       -0.0089292968       -0.0126641377
  O        -0.0108632331       -0.0117009743        0.0087862261
  O        -0.0102866779       -0.0002219734       -0.0121299299
  O         0.0017986037        0.0003801783        0.0023961332
  O        -0.0015060869        0.0210489151       -0.0044520239
  O         0.0181513402        0.0069853328        0.0188273831
  O         0.0043103452        0.0069737064        0.0036042051
  O        -0.0138625172        0.0313558155        0.0114903500
  O         0.0241988437        0.0221104326       -0.0448676955
  O         0.0131089272        0.0053588060        0.0218009680
  O         0.0008377721        0.0047150426        0.0287134594
  O         0.0192818112       -0.0229683408       -0.0099319208
  O         0.0056706722       -0.0016638749       -0.0089308679
  O         0.0075909631       -0.0183332360        0.0045427697
  O        -0.0012578433        0.0280815246        0.0346171751
  O        -0.0014123214       -0.0318560600        0.0117117278
  H         0.0015429979        0.0016279423        0.0014872694
  H        -0.0033359647       -0.0038247586       -0.0113549606
  H         0.0112150397        0.0203013446       -0.0182815727
  H         0.0140980326        0.0183988757       -0.0063647267
  H        -0.0023827951       -0.0252656097       -0.0151096233
  H        -0.0033340443        0.0050558008        0.0017480735
 Ca        -0.0024131554        0.0032916241        0.0054046196
 Ca         0.0003455991       -0.0006089385        0.0001597814
 Ca        -0.0038589545        0.0049896839        0.0020016408
 Ca         0.0033945106       -0.0063307406        0.0022059071
 Ca        -0.0012274109        0.0021871509       -0.0027392755
 Ca         0.0033489080       -0.0060932208       -0.0052694415
  S        -0.0149515414       -0.0214986270        0.0225448145
  S         0.0109269639       -0.0480357187        0.0422942520
  S        -0.0166194340       -0.0244848912       -0.0102370040
  O        -0.0004648697        0.0106942107       -0.0058467631
  O         0.0121028551        0.0097719742       -0.0052915176
  O        -0.0035521842        0.0078928327        0.0002030949
  O         0.0029418716        0.0018449285       -0.0021282492
  O        -0.0079670775        0.0069902706        0.0001973674
  O        -0.0176329093       -0.0192809605        0.0138548177
  O         0.0076702478        0.0025106080       -0.0050715701
  O         0.0043868186        0.0286991634        0.0005780555
  O         0.0266662368       -0.0115948065        0.0165201167
  O         0.0093267974        0.0073224849       -0.0195758601
  O        -0.0206675974        0.0160626877       -0.0291547630
  O        -0.0088945478        0.0243440798        0.0079331967
  S        -0.0374855176       -0.0318267648       -0.0395804852
  S         0.0721001915        0.0139824637       -0.0192891816
  S         0.0103746098       -0.0137495599       -0.0155639734
  O         0.0274915618        0.0160183718        0.0131080305
  O        -0.0270911581        0.0038009733       -0.0058658361
  O         0.0021497258        0.0164790318        0.0001284097
  O        -0.0060813199       -0.0050086065        0.0010137450
  O        -0.0138903750       -0.0116952893        0.0033448191
  O        -0.0096147250        0.0178249843        0.0010605504
  O        -0.0097949162        0.0234878090       -0.0026160161
  O        -0.0011243241       -0.0007115501       -0.0054857992
  O         0.0086482932        0.0024728286        0.0140894106
  O         0.0179195222       -0.0120988888        0.0267690561
  O         0.0130270326       -0.0129829545        0.0025874069
  O        -0.0042457398        0.0010321837       -0.0059769969
  O         0.0351853787        0.0196191030       -0.0220118944
  O         0.0221587997       -0.0070665125        0.0021698531
  O         0.0032004762        0.0012964886       -0.0051688489
  H        -0.0227105250       -0.0065621921        0.0115065358
  H        -0.0096511901       -0.0079354328       -0.0095386630
  H        -0.0006181304       -0.0060140392        0.0033722511
  H        -0.0140688984       -0.0087084610        0.0061752360
  H        -0.0130736761       -0.0024604487        0.0093771567
  H        -0.0089519967        0.0119367264       -0.0005040143
 Ca         0.0044336686        0.0013832219       -0.0070987775
 Ca         0.0038159276       -0.0022896252        0.0009517820
 Ca        -0.0034012106       -0.0035539676       -0.0025998305
 Ca        -0.0013881064       -0.0058273710       -0.0005930629
 Ca        -0.0077503862       -0.0021359974        0.0021122857
 Ca         0.0005166777        0.0039807177       -0.0072580369
  S        -0.0311765265       -0.0226689255       -0.0042589143
  S        -0.0182669498       -0.0113194578        0.0220629957
  S         0.0184769596        0.0008386756       -0.0030228576
  O         0.0050686871       -0.0001827235        0.0061431995
  O         0.0151377840        0.0041497354        0.0020189464
  O         0.0012551847       -0.0004369056       -0.0186300225
  O         0.0113995121        0.0057932272        0.0148833390
  O        -0.0008387820        0.0093110182       -0.0058995376
  O        -0.0011189981        0.0125336445       -0.0001476559
  O         0.0006937159       -0.0074823278        0.0123058490
  O        -0.0126705168       -0.0127651597       -0.0047187895
  O         0.0055696497       -0.0029869403       -0.0018736069
  O         0.0166439848        0.0234753854       -0.0080031256
  O         0.0055185527        0.0143213837       -0.0149171414
  O        -0.0044779816        0.0121256433       -0.0007398002
  S        -0.0187577569       -0.0453337958       -0.0195949604
  S         0.0332515030        0.0157046702        0.0340508908
  S        -0.0051683634        0.0474797555        0.0017676375
  O         0.0083357196        0.0254368425       -0.0022223167
  O        -0.0432267094        0.0135911875       -0.0287306005
  O         0.0157430840        0.0099169611       -0.0029295096
  O        -0.0026582397        0.0038400512       -0.0052797071
  O         0.0033465911       -0.0232595374        0.0003887993
  O         0.0226702319       -0.0301749794       -0.0019846326
  O        -0.0054782095        0.0114480657        0.0067906891
  O        -0.0246845643       -0.0072217599        0.0176266662
  O        -0.0082221650       -0.0036395862       -0.0096338375
  O         0.0110649501        0.0071134801        0.0080661558
  O        -0.0035739299       -0.0039606497        0.0028031669
  O        -0.0111997502       -0.0093869170        0.0016363931
  O        -0.0432736746       -0.0099305225        0.0268171504
  O        -0.0220850069       -0.0160553608       -0.0048197344
  O         0.0256494134       -0.0185083843       -0.0090909608
  H         0.0590474844        0.0075379559       -0.0371664988
  H         0.0110037617        0.0138705514        0.0045351045
  H        -0.0077680458        0.0009501555       -0.0026634674
  H        -0.0113434790        0.0023143180        0.0046629881
  H         0.0062036981       -0.0080879950        0.0015649567
  H        -0.0151739345        0.0156414721        0.0073331182
     180
 i =       14, time =        7.000, E =     -2871.8125410962
 Ca        -0.0055960041        0.0006025964        0.0013530945
 Ca        -0.0044259678        0.0002567021        0.0019959418
 Ca         0.0026508703       -0.0028593232        0.0015561059
 Ca        -0.0000380489        0.0020025990       -0.0045888051
 Ca        -0.0008140790       -0.0015957918        0.0009112836
 Ca        -0.0044111454        0.0039685521        0.0015621071
  S        -0.0125520538        0.0336486692       -0.0273996267
  S         0.0266064777        0.0308478722        0.0191156617
  S         0.0407360408       -0.0251944750        0.0325109924
  O         0.0183509149       -0.0341653620        0.0108819562
  O        -0.0152439085       -0.0169770772        0.0129971460
  O        -0.0154769623       -0.0049110525       -0.0247398747
  O         0.0068282525        0.0014715232        0.0195135865
  O        -0.0016654451       -0.0128144467       -0.0124097969
  O        -0.0092125711       -0.0096656823        0.0155319348
  O        -0.0085957363       -0.0075847779       -0.0104870711
  O        -0.0023280195        0.0032266399       -0.0061530795
  O        -0.0072213671        0.0074764112       -0.0101517130
  O        -0.0104041608       -0.0017953389        0.0102010710
  O        -0.0004865504       -0.0020000115       -0.0157978065
  O         0.0027779693       -0.0125866769       -0.0180676418
  S         0.0210708803        0.0160788740        0.0113182142
  S        -0.0469701772       -0.0024724901        0.0472016890
  S         0.0492105058        0.0011085317        0.0385384444
  O        -0.0066619285       -0.0045430818        0.0027247260
  O        -0.0222150642       -0.0030155004       -0.0094343870
  O        -0.0003543095        0.0386694101       -0.0095357792
  O        -0.0045097500       -0.0019583898        0.0064235833
  O         0.0224472914        0.0109011854        0.0141672458
  O        -0.0041554091       -0.0063371341        0.0063637049
  O         0.0074051699       -0.0190285532        0.0041199696
  O         0.0200162609       -0.0024287826       -0.0114579730
  O        -0.0505290736       -0.0104707084       -0.0568513029
  O        -0.0127205117       -0.0005208374       -0.0056979742
  O        -0.0216597572        0.0106464121        0.0238661291
  O         0.0080066325        0.0133114745        0.0044877916
  O         0.0099528834        0.0112443132       -0.0111608945
  O        -0.0092568323       -0.0314443742        0.0075249971
  O        -0.0073057545        0.0210666282       -0.0091346123
  H        -0.0203158981       -0.0037250932        0.0156657038
  H        -0.0047983276       -0.0057704756        0.0109549861
  H        -0.0027556743       -0.0088865945        0.0129344661
  H         0.0106257379       -0.0097574855       -0.0011603054
  H         0.0096934939        0.0061430780       -0.0102906593
  H         0.0141802041       -0.0066822904       -0.0021457090
 Ca         0.0048732898        0.0087392834        0.0017475224
 Ca        -0.0048287788       -0.0126165932        0.0069764955
 Ca         0.0023861691       -0.0016779943       -0.0034109333
 Ca         0.0047144458        0.0031341845        0.0044187107
 Ca         0.0036793368        0.0061329548        0.0032852291
 Ca        -0.0017404557        0.0009843448       -0.0003182541
  S        -0.0113505370        0.0230150162        0.0010977560
  S        -0.0467132870       -0.0603665328       -0.0378401939
  S         0.0049740692        0.0197146389        0.0013880857
  O         0.0290693341       -0.0245859979        0.0107405708
  O         0.0026071864        0.0190494871       -0.0060204482
  O        -0.0074874008        0.0052691578        0.0048308942
  O        -0.0262414905        0.0029174238       -0.0142995444
  O        -0.0086343056        0.0191244726        0.0038450582
  O        -0.0125394691        0.0101991058       -0.0024259485
  O        -0.0249665027       -0.0007467359       -0.0111440648
  O         0.0089807360        0.0354908484        0.0018033824
  O         0.0102909179       -0.0019101854        0.0046433998
  O         0.0011061895        0.0094050307       -0.0032558614
  O         0.0450162858       -0.0055780418        0.0416415440
  O        -0.0067545131        0.0153299827       -0.0071510305
  S         0.0257161082       -0.0414285088       -0.0441260767
  S        -0.0070611092       -0.0168798168       -0.0229229985
  S        -0.0264552555       -0.0091810393       -0.0129599707
  O        -0.0112383150       -0.0118506717        0.0117894276
  O        -0.0105389650        0.0005150525       -0.0134693483
  O         0.0016373402       -0.0001541586        0.0029011458
  O        -0.0015264092        0.0221752004       -0.0051110349
  O         0.0189744106        0.0072242534        0.0197490966
  O         0.0042243290        0.0075171558        0.0035716985
  O        -0.0136751609        0.0316409354        0.0119023977
  O         0.0249785368        0.0225284309       -0.0462250552
  O         0.0136100159        0.0056644387        0.0210660672
  O         0.0001853930        0.0050917343        0.0290428032
  O         0.0190919583       -0.0202820632       -0.0093793685
  O         0.0059390558       -0.0023182851       -0.0053221913
  O         0.0067553527       -0.0182374862        0.0048260416
  O        -0.0018644303        0.0293039477        0.0358546670
  O        -0.0017552611       -0.0351192235        0.0126426540
  H         0.0014278877        0.0019842431        0.0014881326
  H        -0.0047186896       -0.0032314697       -0.0109836964
  H         0.0123359920        0.0230353101       -0.0202515918
  H         0.0137026854        0.0177881880       -0.0060958609
  H        -0.0003379501       -0.0263471871       -0.0168818256
  H        -0.0034170580        0.0052463704        0.0019873062
 Ca        -0.0025742217        0.0033290723        0.0056273710
 Ca         0.0003935050       -0.0006364251        0.0002328049
 Ca        -0.0040827648        0.0054056627        0.0023821066
 Ca         0.0033721808       -0.0066787075        0.0022106631
 Ca        -0.0013334210        0.0021046650       -0.0029538807
 Ca         0.0034294573       -0.0064117350       -0.0055220522
  S        -0.0156710224       -0.0225290547        0.0237545880
  S         0.0112659081       -0.0488459210        0.0419571943
  S        -0.0167429584       -0.0261851339       -0.0099610763
  O        -0.0005637431        0.0112040574       -0.0060884970
  O         0.0120795219        0.0104216478       -0.0043183546
  O        -0.0039825519        0.0084729804        0.0003443415
  O         0.0028706149        0.0018303312       -0.0021753778
  O        -0.0081620196        0.0069077633        0.0003450294
  O        -0.0183067422       -0.0195087420        0.0142381613
  O         0.0076435098        0.0029170065       -0.0050334081
  O         0.0046778483        0.0295381125        0.0038508605
  O         0.0272421749       -0.0117022072        0.0166539807
  O         0.0096142744        0.0074897864       -0.0206437867
  O        -0.0205199992        0.0163535798       -0.0294954608
  O        -0.0087067957        0.0244368001        0.0077926719
  S        -0.0372345341       -0.0316386508       -0.0395671156
  S         0.0738068619        0.0147757386       -0.0199706165
  S         0.0109064253       -0.0141368570       -0.0161339261
  O         0.0291566756        0.0161176839        0.0155869685
  O        -0.0280248898        0.0037241636       -0.0056313184
  O         0.0022911343        0.0165418108        0.0005407924
  O        -0.0063539203       -0.0056560602        0.0010587919
  O        -0.0137930031       -0.0122373983        0.0047297891
  O        -0.0101835222        0.0182498967        0.0008658813
  O        -0.0099427273        0.0243687940       -0.0021642484
  O        -0.0010705097       -0.0016231221       -0.0059656214
  O         0.0090489295        0.0020603244        0.0145897684
  O         0.0171122123       -0.0124089286        0.0262046232
  O         0.0132346613       -0.0134080447        0.0030916377
  O        -0.0048128267        0.0008131654       -0.0065630853
  O         0.0351138248        0.0141851996       -0.0212616942
  O         0.0315363267       -0.0115468105       -0.0040369449
  O         0.0041339446       -0.0002074114       -0.0071253775
  H        -0.0224330671       -0.0047240326        0.0111594593
  H        -0.0132127682       -0.0062567122       -0.0110509522
  H        -0.0010792282       -0.0062309018        0.0037741722
  H        -0.0139088283       -0.0052404995        0.0060738686
  H        -0.0176124774        0.0004684527        0.0167236159
  H        -0.0102625647        0.0133800388       -0.0001661727
 Ca         0.0046164234        0.0014960074       -0.0075569099
 Ca         0.0038691273       -0.0025487399        0.0009876431
 Ca        -0.0036045892       -0.0038450949       -0.0026209006
 Ca        -0.0015191981       -0.0061484717       -0.0005803009
 Ca        -0.0081475047       -0.0024535999        0.0021535656
 Ca         0.0005488844        0.0040941379       -0.0075871602
  S        -0.0323405041       -0.0237760137       -0.0042435636
  S        -0.0200883944       -0.0120526496        0.0228704429
  S         0.0177932781        0.0009493833       -0.0021462400
  O         0.0053000236       -0.0001628639        0.0065744701
  O         0.0158777825        0.0043811668        0.0023805036
  O         0.0016072349       -0.0001813606       -0.0194016719
  O         0.0121672312        0.0059655206        0.0154729107
  O        -0.0006016538        0.0099430634       -0.0068005349
  O        -0.0013996061        0.0129865782       -0.0001109547
  O         0.0003443786       -0.0067085768        0.0130630760
  O        -0.0128567125       -0.0130256165       -0.0048038505
  O         0.0064285962       -0.0033000936       -0.0016488537
  O         0.0175930509        0.0244712945       -0.0084262243
  O         0.0059611885        0.0149580995       -0.0165896219
  O        -0.0038876336        0.0133979937       -0.0026982640
  S        -0.0185362790       -0.0462288499       -0.0196486125
  S         0.0337412645        0.0166791601        0.0342870627
  S        -0.0055851246        0.0495185203        0.0015100446
  O         0.0082040673        0.0254898762       -0.0023777398
  O        -0.0448009657        0.0138030100       -0.0289901963
  O         0.0161126910        0.0111110936       -0.0019577868
  O        -0.0028856375        0.0040483548       -0.0054692281
  O         0.0040630293       -0.0240730178        0.0004252195
  O         0.0233648780       -0.0313446011       -0.0016498604
  O        -0.0059117799        0.0117788709        0.0073044455
  O        -0.0251983750       -0.0069316229        0.0177329831
  O        -0.0084358067       -0.0036819533       -0.0097686978
  O         0.0112729169        0.0079691636        0.0080417268
  O        -0.0034473590       -0.0052977100        0.0026584982
  O        -0.0117252588       -0.0097533633        0.0023115896
  O        -0.0449411839       -0.0154540668        0.0280298542
  O        -0.0243986921       -0.0152674591       -0.0059148928
  O         0.0254586357       -0.0202883491       -0.0081141831
  H         0.0623875892        0.0085391691       -0.0394720316
  H         0.0135999058        0.0116793710        0.0061269901
  H        -0.0069993893        0.0017767662       -0.0037990783
  H        -0.0128653144        0.0066050345        0.0051067937
  H         0.0063948113       -0.0079654408        0.0012330482
  H        -0.0158137327        0.0168165451        0.0070521791
     180
 i =       15, time =        7.500, E =     -2871.8053725748
 Ca        -0.0058510212        0.0006432050        0.0014638107
 Ca        -0.0045859844        0.0001549674        0.0020911407
 Ca         0.0028008910       -0.0030558306        0.0016303909
 Ca        -0.0002980276        0.0022378476       -0.0047519509
 Ca        -0.0012705009       -0.0014560004        0.0008708203
 Ca        -0.0044919260        0.0042648054        0.0015435503
  S        -0.0125361924        0.0348114949       -0.0283646963
  S         0.0267439646        0.0311727142        0.0197748039
  S         0.0409391397       -0.0253895291        0.0333718567
  O         0.0183044243       -0.0357770349        0.0113386360
  O        -0.0143915532       -0.0185062277        0.0139569418
  O        -0.0156880124       -0.0047618068       -0.0256696644
  O         0.0069088437        0.0014812659        0.0200180829
  O        -0.0021914717       -0.0126859084       -0.0126664476
  O        -0.0093953897       -0.0103098432        0.0160289618
  O        -0.0092914620       -0.0085941239       -0.0108406792
  O        -0.0019890304        0.0033744702       -0.0031958948
  O        -0.0065566499        0.0067872095       -0.0100088674
  O        -0.0109513173       -0.0016248631        0.0105172339
  O        -0.0001602340       -0.0024060236       -0.0160698903
  O         0.0020140503       -0.0122424775       -0.0184889786
  S         0.0213433852        0.0159051439        0.0115456967
  S        -0.0465079237       -0.0029482899        0.0470080244
  S         0.0505011465        0.0007899351        0.0384155870
  O        -0.0067347208       -0.0043848442        0.0027826698
  O        -0.0240482480       -0.0012148762       -0.0108082226
  O        -0.0003529988        0.0398459789       -0.0097683649
  O        -0.0046019024       -0.0020219245        0.0065077261
  O         0.0237375747        0.0111801614        0.0167277623
  O        -0.0037248740       -0.0063394145        0.0071702177
  O         0.0075788800       -0.0195632422        0.0034796457
  O         0.0208504754       -0.0023422275       -0.0117604277
  O        -0.0521645816       -0.0104954008       -0.0577552847
  O        -0.0131251427       -0.0001893377       -0.0062569799
  O        -0.0225841406        0.0110924909        0.0250505220
  O         0.0083831692        0.0137284372        0.0050124890
  O         0.0078759644        0.0102645321       -0.0094352854
  O        -0.0101459050       -0.0320778016        0.0097508521
  O        -0.0075167067        0.0215395420       -0.0082213964
  H        -0.0171254980       -0.0031785407        0.0134564074
  H        -0.0036624402       -0.0060399355        0.0104185777
  H        -0.0025416192       -0.0070577572        0.0121424036
  H         0.0107847216       -0.0103588380       -0.0008996617
  H         0.0094338146        0.0061025413       -0.0115883444
  H         0.0144961500       -0.0086919172       -0.0018343341
 Ca         0.0050146344        0.0089876286        0.0016755034
 Ca        -0.0051068995       -0.0131901269        0.0076418548
 Ca         0.0026302118       -0.0018679737       -0.0035544497
 Ca         0.0045086230        0.0032861182        0.0046345131
 Ca         0.0039026280        0.0065722360        0.0033974754
 Ca        -0.0018280137        0.0009196736       -0.0002619851
  S        -0.0115043978        0.0235624819        0.0007125186
  S        -0.0453209237       -0.0617098869       -0.0372553802
  S         0.0062172935        0.0192614504        0.0012407662
  O         0.0307292676       -0.0248800778        0.0117272217
  O         0.0025954601        0.0197139620       -0.0057394811
  O        -0.0082624181        0.0059628880        0.0050399675
  O        -0.0266260443        0.0031847135       -0.0148411412
  O        -0.0088510091        0.0192161041        0.0032243586
  O        -0.0131754991        0.0103496705       -0.0022746417
  O        -0.0215038540        0.0003285960       -0.0102794138
  O         0.0086770392        0.0357941880        0.0017966735
  O         0.0104740482       -0.0017684216        0.0046578119
  O         0.0019045662        0.0094620771       -0.0030835834
  O         0.0445646838       -0.0050474235        0.0411317663
  O        -0.0067659269        0.0154931710       -0.0078792922
  S         0.0264017590       -0.0424679983       -0.0450102393
  S        -0.0078501040       -0.0164948835       -0.0236026554
  S        -0.0273058076       -0.0093440965       -0.0131341208
  O        -0.0117065542       -0.0119907294        0.0144420102
  O        -0.0107422194        0.0012237661       -0.0153082410
  O         0.0014419011       -0.0008059827        0.0033538766
  O        -0.0015407677        0.0232319551       -0.0057818395
  O         0.0195728712        0.0069487702        0.0206571732
  O         0.0041329849        0.0081099163        0.0036168293
  O        -0.0133523775        0.0313916355        0.0123281398
  O         0.0255812273        0.0228002557       -0.0473762935
  O         0.0141613703        0.0059317919        0.0207718290
  O        -0.0005423849        0.0053501251        0.0291847139
  O         0.0186835457       -0.0193515372       -0.0088004679
  O         0.0059739043       -0.0027317735       -0.0045847090
  O         0.0065059190       -0.0179175332        0.0051096681
  O        -0.0022438414        0.0298256458        0.0354115790
  O        -0.0010862442       -0.0342568280        0.0110690311
  H         0.0013610024        0.0023112084        0.0013953944
  H        -0.0056185898       -0.0026896261       -0.0102901692
  H         0.0118988878        0.0221575155       -0.0195599244
  H         0.0114719787        0.0164487638       -0.0056919987
  H         0.0011847263       -0.0265472837       -0.0175370994
  H        -0.0030387491        0.0048951994        0.0020861681
 Ca        -0.0027303299        0.0033334509        0.0058920122
 Ca         0.0004144897       -0.0006485887        0.0003239953
 Ca        -0.0042874310        0.0058171656        0.0028235772
 Ca         0.0034053313       -0.0070174284        0.0021455225
 Ca        -0.0013800143        0.0019952887       -0.0031809390
 Ca         0.0034886934       -0.0067311965       -0.0057354595
  S        -0.0162637082       -0.0234093352        0.0248303627
  S         0.0113529007       -0.0492257477        0.0414160992
  S        -0.0165504469       -0.0275477715       -0.0094450106
  O        -0.0006665556        0.0117067047       -0.0063029186
  O         0.0120514363        0.0108200778       -0.0034325260
  O        -0.0043904767        0.0088389184        0.0003811868
  O         0.0027443628        0.0019506996       -0.0022398091
  O        -0.0082163407        0.0066791229        0.0004587177
  O        -0.0186701263       -0.0198266946        0.0141580621
  O         0.0080658484        0.0030132703       -0.0053221785
  O         0.0051338154        0.0300896729        0.0063552338
  O         0.0277309760       -0.0117684026        0.0166381430
  O         0.0098458674        0.0075474193       -0.0215489904
  O        -0.0202380564        0.0165346964       -0.0297198582
  O        -0.0083166764        0.0243290192        0.0075279063
  S        -0.0365608927       -0.0310686673       -0.0390172004
  S         0.0747876191        0.0154738377       -0.0204982967
  S         0.0114219204       -0.0144112654       -0.0165843606
  O         0.0300528320        0.0163541818        0.0176070055
  O        -0.0287042267        0.0032991683       -0.0045449843
  O         0.0023753870        0.0164293753        0.0009823240
  O        -0.0065579318       -0.0062029700        0.0011676306
  O        -0.0135878129       -0.0127197015        0.0060350447
  O        -0.0109079779        0.0184078540        0.0005652769
  O        -0.0099586519        0.0250723413       -0.0015930119
  O        -0.0009442620       -0.0025189753       -0.0065707277
  O         0.0093069247        0.0017703446        0.0149363561
  O         0.0161741385       -0.0121072395        0.0252056504
  O         0.0133702014       -0.0136489860        0.0036529357
  O        -0.0058086313        0.0004140164       -0.0073286088
  O         0.0328793729        0.0081828823       -0.0195968525
  O         0.0387946755       -0.0152346340       -0.0092850507
  O         0.0040702770       -0.0013069249       -0.0084568815
  H        -0.0200603291       -0.0026306347        0.0097273810
  H        -0.0159671651       -0.0046406762       -0.0120316960
  H        -0.0013029244       -0.0059080809        0.0037338152
  H        -0.0135888030       -0.0014415507        0.0059482639
  H        -0.0210152583        0.0028602971        0.0225678186
  H        -0.0107967708        0.0137910778        0.0001592003
 Ca         0.0047455901        0.0016154682       -0.0080021790
 Ca         0.0038920337       -0.0028385653        0.0010104238
 Ca        -0.0037434374       -0.0041265058       -0.0026554633
 Ca        -0.0016523221       -0.0063933980       -0.0005269995
 Ca        -0.0085170102       -0.0026688286        0.0021265923
 Ca         0.0005345179        0.0041932511       -0.0078616996
  S        -0.0332632824       -0.0246765823       -0.0042426597
  S        -0.0218934014       -0.0127112069        0.0234273392
  S         0.0169822635        0.0010918150       -0.0010205998
  O         0.0059791390       -0.0001808424        0.0071414626
  O         0.0164957829        0.0045639822        0.0028436879
  O         0.0019810596        0.0000140735       -0.0200290200
  O         0.0129897012        0.0060693189        0.0159783748
  O        -0.0002083468        0.0104619455       -0.0076843134
  O        -0.0017434696        0.0133115162        0.0000137860
  O        -0.0001090043       -0.0063830773        0.0137581447
  O        -0.0129408102       -0.0131853100       -0.0048822861
  O         0.0071785297       -0.0036309757       -0.0014072307
  O         0.0184550862        0.0252913139       -0.0088313334
  O         0.0062689228        0.0152106983       -0.0180107128
  O        -0.0037434340        0.0143626127       -0.0038133206
  S        -0.0181364714       -0.0467224819       -0.0194612502
  S         0.0337703103        0.0176981619        0.0340224813
  S        -0.0058623056        0.0511326377        0.0011874586
  O         0.0079438654        0.0253232405       -0.0025652351
  O        -0.0457956966        0.0136434748       -0.0288359599
  O         0.0162083123        0.0122217120       -0.0015646650
  O        -0.0031096531        0.0041396833       -0.0056116471
  O         0.0047738168       -0.0247260652        0.0004689247
  O         0.0237213660       -0.0319275149       -0.0013384809
  O        -0.0054406462        0.0125616758        0.0083645988
  O        -0.0254624333       -0.0064203621        0.0175342195
  O        -0.0085850102       -0.0036961743       -0.0098123503
  O         0.0113446991        0.0087073219        0.0080586556
  O        -0.0034615125       -0.0067238616        0.0024215026
  O        -0.0119793074       -0.0101447043        0.0031727247
  O        -0.0360812789       -0.0179355735        0.0223391701
  O        -0.0255813741       -0.0150395179       -0.0070927124
  O         0.0239701628       -0.0203082336       -0.0070672458
  H         0.0543173857        0.0071278097       -0.0343691557
  H         0.0158073201        0.0095566136        0.0074986993
  H        -0.0062680326        0.0024120519       -0.0047703321
  H        -0.0136229460        0.0102148682        0.0051411524
  H         0.0061550200       -0.0075305687        0.0012388404
  H        -0.0151711157        0.0164134511        0.0064494883
     180
 i =       16, time =        8.000, E =     -2871.8012510294
 Ca        -0.0060807752        0.0007337700        0.0015229035
 Ca        -0.0047257422        0.0000372920        0.0021880499
 Ca         0.0028721926       -0.0032390832        0.0018005629
 Ca        -0.0005824938        0.0024643138       -0.0048635643
 Ca        -0.0017660750       -0.0012954153        0.0008504282
 Ca        -0.0045275002        0.0045494180        0.0015143812
  S        -0.0122920541        0.0356954203       -0.0291611905
  S         0.0266715454        0.0312373508        0.0202051997
  S         0.0405544194       -0.0252798333        0.0340799790
  O         0.0178295266       -0.0373796815        0.0117692566
  O        -0.0134966807       -0.0201047561        0.0147598706
  O        -0.0158507005       -0.0045368966       -0.0265079670
  O         0.0068833762        0.0013637826        0.0202645317
  O        -0.0026749627       -0.0123172670       -0.0125475436
  O        -0.0094657015       -0.0110501531        0.0164459427
  O        -0.0099639759       -0.0095219546       -0.0111054815
  O        -0.0013531155        0.0037015113       -0.0008733239
  O        -0.0057018110        0.0059029667       -0.0097612436
  O        -0.0114721458       -0.0014388171        0.0107687406
  O         0.0001843262       -0.0028308322       -0.0161472907
  O         0.0011314168       -0.0116786440       -0.0188607853
  S         0.0214171620        0.0155081899        0.0116034499
  S        -0.0455523273       -0.0034196660        0.0464056475
  S         0.0512519666        0.0004098531        0.0375624877
  O        -0.0066995733       -0.0041708641        0.0028121998
  O        -0.0257244119        0.0005555570       -0.0120588840
  O        -0.0003264269        0.0406240897       -0.0099430564
  O        -0.0046788741       -0.0020823578        0.0065287054
  O         0.0249434293        0.0112625886        0.0193713393
  O        -0.0029216760       -0.0062126403        0.0082673161
  O         0.0076603369       -0.0198158462        0.0028785323
  O         0.0216599245       -0.0023669519       -0.0119924566
  O        -0.0532080945       -0.0103446004       -0.0578180584
  O        -0.0133286814       -0.0000525409       -0.0062310365
  O        -0.0234635021        0.0112624229        0.0257959374
  O         0.0086981194        0.0141312779        0.0054860526
  O         0.0047849296        0.0079876972       -0.0064878908
  O        -0.0105436198       -0.0325917025        0.0113361460
  O        -0.0075651994        0.0194890464       -0.0065306871
  H        -0.0119442791       -0.0021384761        0.0097264341
  H        -0.0024517191       -0.0061872233        0.0097170402
  H        -0.0017648688       -0.0043593871        0.0103065483
  H         0.0102154698       -0.0100499816       -0.0003954185
  H         0.0086625080        0.0060651036       -0.0121343351
  H         0.0141186799       -0.0090813356       -0.0012506836
 Ca         0.0051537025        0.0091408246        0.0015332274
 Ca        -0.0053398724       -0.0136971551        0.0083163697
 Ca         0.0028741090       -0.0020889099       -0.0036326633
 Ca         0.0042064192        0.0033842963        0.0048218534
 Ca         0.0040755450        0.0069781632        0.0035037952
 Ca        -0.0019059857        0.0008360117       -0.0001893712
  S        -0.0115075191        0.0238322558        0.0002219494
  S        -0.0430559429       -0.0625037520       -0.0362386719
  S         0.0076060651        0.0185661362        0.0011199248
  O         0.0322621993       -0.0252151937        0.0125962291
  O         0.0023478838        0.0201980731       -0.0052110445
  O        -0.0091117104        0.0067673789        0.0051740461
  O        -0.0270859787        0.0034745412       -0.0152471948
  O        -0.0090950422        0.0190380734        0.0023517248
  O        -0.0137095267        0.0104794564       -0.0020869881
  O        -0.0162754632        0.0018154914       -0.0088328359
  O         0.0082777357        0.0358158211        0.0017489085
  O         0.0105617048       -0.0015847920        0.0046139646
  O         0.0026044512        0.0094990856       -0.0028927970
  O         0.0434204387       -0.0042787630        0.0400357092
  O        -0.0066566609        0.0154566158       -0.0088475094
  S         0.0268357909       -0.0431141958       -0.0454828116
  S        -0.0086626182       -0.0158201951       -0.0240755247
  S        -0.0280105007       -0.0094174609       -0.0131943569
  O        -0.0121893586       -0.0123547646        0.0168161479
  O        -0.0108949777        0.0018756655       -0.0171627878
  O         0.0011973542       -0.0015597675        0.0036671550
  O        -0.0015516984        0.0242790526       -0.0065047356
  O         0.0200141244        0.0061195927        0.0215371413
  O         0.0040701774        0.0087271476        0.0037426769
  O        -0.0127248513        0.0307103830        0.0127041037
  O         0.0260267477        0.0230795783       -0.0483293711
  O         0.0147626064        0.0061648443        0.0201531486
  O        -0.0013422690        0.0055275832        0.0289846812
  O         0.0178988042       -0.0187092000       -0.0079128855
  O         0.0058892738       -0.0029601493       -0.0050061793
  O         0.0065421110       -0.0173925797        0.0052902128
  O        -0.0024062461        0.0296971661        0.0333336652
  O         0.0005046323       -0.0293609458        0.0071870210
  H         0.0013591011        0.0026006213        0.0012029563
  H        -0.0060218293       -0.0022147350       -0.0092821444
  H         0.0100349655        0.0178657169       -0.0164028680
  H         0.0075663084        0.0144650932       -0.0051794946
  H         0.0021674956       -0.0258854262       -0.0171099887
  H        -0.0022271493        0.0040328006        0.0020462520
 Ca        -0.0028844116        0.0033063869        0.0062018945
 Ca         0.0004085180       -0.0006473664        0.0004304194
 Ca        -0.0044847578        0.0062200974        0.0033249572
 Ca         0.0035089447       -0.0073561155        0.0020043877
 Ca        -0.0013676145        0.0018712541       -0.0034231603
 Ca         0.0035282103       -0.0070580536       -0.0059211639
  S        -0.0167217952       -0.0241324272        0.0257773259
  S         0.0111599143       -0.0491828100        0.0407252795
  S        -0.0160355888       -0.0285413118       -0.0086826668
  O        -0.0007692229        0.0121974875       -0.0064890425
  O         0.0119680664        0.0109845009       -0.0025800304
  O        -0.0047259628        0.0089353046        0.0002683434
  O         0.0026029443        0.0021583214       -0.0023465981
  O        -0.0081187236        0.0062903345        0.0005314724
  O        -0.0189116713       -0.0200106085        0.0135668789
  O         0.0089265992        0.0029076114       -0.0059204776
  O         0.0056726268        0.0305848403        0.0080032579
  O         0.0281297221       -0.0117820080        0.0164941335
  O         0.0100215414        0.0074845128       -0.0222887779
  O        -0.0198519313        0.0166071617       -0.0296953260
  O        -0.0078206579        0.0239531411        0.0071520367
  S        -0.0354732406       -0.0301006376       -0.0379254770
  S         0.0750522371        0.0160644302       -0.0208710058
  S         0.0119260369       -0.0145752888       -0.0169162905
  O         0.0305059282        0.0162347132        0.0191504452
  O        -0.0291057880        0.0024966557       -0.0029350219
  O         0.0023723073        0.0161950563        0.0015173572
  O        -0.0067311921       -0.0066310241        0.0014101110
  O        -0.0133879101       -0.0129941491        0.0069847099
  O        -0.0116817833        0.0182825147        0.0002361966
  O        -0.0098592532        0.0256247151       -0.0008690714
  O        -0.0007561414       -0.0032305111       -0.0072656691
  O         0.0094162404        0.0016291063        0.0151844702
  O         0.0148961715       -0.0116050454        0.0237264616
  O         0.0134544216       -0.0137300250        0.0042296876
  O        -0.0070799313       -0.0001351244       -0.0079528320
  O         0.0285951936        0.0021211206       -0.0168512546
  O         0.0433555164       -0.0177538095       -0.0123638259
  O         0.0033146724       -0.0019336065       -0.0088667002
  H        -0.0156592471       -0.0004003564        0.0072892132
  H        -0.0181066539       -0.0030767300       -0.0125733756
  H        -0.0012829332       -0.0050693875        0.0032592150
  H        -0.0130763364        0.0023882365        0.0057708081
  H        -0.0225897182        0.0042415684        0.0258222037
  H        -0.0105625113        0.0131982942        0.0004588237
 Ca         0.0048185063        0.0017410630       -0.0084412012
 Ca         0.0038902146       -0.0031605409        0.0010192781
 Ca        -0.0038159252       -0.0044046982       -0.0027158728
 Ca        -0.0017871976       -0.0065588374       -0.0004331292
 Ca        -0.0088581838       -0.0027724255        0.0020257568
 Ca         0.0004732176        0.0042840283       -0.0080912119
  S        -0.0339397252       -0.0253582118       -0.0042665249
  S        -0.0236852445       -0.0132944350        0.0237188801
  S         0.0160613756        0.0012538170        0.0003570027
  O         0.0069158732       -0.0002753353        0.0077786591
  O         0.0170060133        0.0046798896        0.0034183543
  O         0.0023733414        0.0001542378       -0.0205166980
  O         0.0136663914        0.0060696900        0.0163819082
  O         0.0003133374        0.0108744201       -0.0083058357
  O        -0.0021595844        0.0135024430        0.0002034767
  O        -0.0007273713       -0.0067728129        0.0144285766
  O        -0.0129390358       -0.0132546904       -0.0049590688
  O         0.0078295569       -0.0040012988       -0.0011653755
  O         0.0192456963        0.0258527022       -0.0091236334
  O         0.0065126929        0.0152228254       -0.0191753334
  O        -0.0038345371        0.0150136207       -0.0043833682
  S        -0.0175675697       -0.0468174930       -0.0190102107
  S         0.0333326153        0.0187739911        0.0332430797
  S        -0.0059856091        0.0523086204        0.0007992806
  O         0.0075350585        0.0249405419       -0.0027868305
  O        -0.0462954726        0.0130880680       -0.0282675115
  O         0.0160287991        0.0132602016       -0.0017117921
  O        -0.0033410224        0.0041134867       -0.0056952611
  O         0.0055589626       -0.0252319202        0.0005387811
  O         0.0237779912       -0.0319270025       -0.0012031306
  O        -0.0040616793        0.0139523563        0.0098761771
  O        -0.0254871633       -0.0056893352        0.0170030343
  O        -0.0086747102       -0.0036932064       -0.0097732708
  O         0.0112761111        0.0094274786        0.0080166932
  O        -0.0035818536       -0.0081106584        0.0020468394
  O        -0.0120182491       -0.0105793764        0.0039151169
  O        -0.0197786876       -0.0175313252        0.0116096294
  O        -0.0256956575       -0.0154682035       -0.0081412537
  O         0.0212383183       -0.0184659735       -0.0060655191
  H         0.0375936238        0.0040933963       -0.0235846521
  H         0.0173812066        0.0077267348        0.0084916909
  H        -0.0056368163        0.0027751034       -0.0055265416
  H        -0.0134632882        0.0126781749        0.0047100761
  H         0.0054999518       -0.0068024189        0.0015709846
  H        -0.0132599736        0.0144287926        0.0055705722
     180
 i =       17, time =        8.500, E =     -2871.7987510271
 Ca        -0.0062959171        0.0008817527        0.0015289360
 Ca        -0.0048475517       -0.0001011653        0.0022851689
 Ca         0.0028687730       -0.0034058466        0.0020630621
 Ca        -0.0008836339        0.0026812522       -0.0049304429
 Ca        -0.0023110407       -0.0011018250        0.0008454946
 Ca        -0.0045159274        0.0048227885        0.0014807474
  S        -0.0118080976        0.0363032108       -0.0298037364
  S         0.0263946747        0.0310516599        0.0204095775
  S         0.0395929052       -0.0248780823        0.0346310978
  O         0.0169863276       -0.0388881048        0.0121708987
  O        -0.0129115495       -0.0213442620        0.0152538044
  O        -0.0159579775       -0.0042170282       -0.0272318925
  O         0.0067503590        0.0011193238        0.0203204344
  O        -0.0031592600       -0.0117814355       -0.0117138430
  O        -0.0095155670       -0.0116125534        0.0168211901
  O        -0.0104666336       -0.0102001047       -0.0113471970
  O        -0.0003776544        0.0043858439        0.0022374143
  O        -0.0046487115        0.0048289192       -0.0093931772
  O        -0.0119720136       -0.0012339369        0.0109599340
  O         0.0005983833       -0.0032419212       -0.0160194260
  O         0.0001425066       -0.0108915779       -0.0191915900
  S         0.0212856834        0.0148733151        0.0114828910
  S        -0.0441305617       -0.0038551880        0.0454090046
  S         0.0514713323       -0.0000329923        0.0359482910
  O        -0.0066118697       -0.0037764991        0.0027649385
  O        -0.0270850202        0.0023983211       -0.0130200019
  O        -0.0002677169        0.0409958506       -0.0101597488
  O        -0.0047449821       -0.0021306319        0.0064903178
  O         0.0259474321        0.0110325813        0.0208125606
  O        -0.0019340628       -0.0059830219        0.0095982592
  O         0.0076984734       -0.0198248768        0.0023397181
  O         0.0224704485       -0.0024164425       -0.0122056765
  O        -0.0536406515       -0.0101019023       -0.0570420818
  O        -0.0133279276       -0.0001235895       -0.0057857972
  O        -0.0243568640        0.0115702940        0.0260914336
  O         0.0089993198        0.0145435991        0.0059744676
  O         0.0001990260        0.0046234764       -0.0024504996
  O        -0.0104525989       -0.0328014850        0.0123376262
  O        -0.0074478842        0.0150285765       -0.0041829961
  H        -0.0049930429       -0.0006445676        0.0046103404
  H        -0.0012406940       -0.0061701918        0.0088448379
  H        -0.0004776866       -0.0009266428        0.0075279919
  H         0.0089292372       -0.0088326727        0.0003456337
  H         0.0074153012        0.0060189652       -0.0119521437
  H         0.0130869133       -0.0078286244       -0.0003935524
 Ca         0.0052945654        0.0092001974        0.0013260220
 Ca        -0.0055284432       -0.0141421921        0.0090021548
 Ca         0.0031150656       -0.0023456740       -0.0036482865
 Ca         0.0038101537        0.0034366596        0.0049854708
 Ca         0.0042057421        0.0073510831        0.0035988283
 Ca        -0.0019776012        0.0007288751       -0.0000979996
  S        -0.0113514337        0.0238140651       -0.0003881907
  S        -0.0399254215       -0.0627358736       -0.0347965401
  S         0.0091236764        0.0176275353        0.0010413138
  O         0.0334548370       -0.0255605135        0.0133319849
  O         0.0019609769        0.0205359266       -0.0044316690
  O        -0.0099721572        0.0076592258        0.0052242095
  O        -0.0277258948        0.0038564120       -0.0156305985
  O        -0.0093511911        0.0186074161        0.0013138440
  O        -0.0141657391        0.0105885673       -0.0018388916
  O        -0.0094850203        0.0036076412       -0.0071349579
  O         0.0077523929        0.0355624500        0.0016640552
  O         0.0105630211       -0.0013602481        0.0045117098
  O         0.0030816509        0.0095255566       -0.0027675958
  O         0.0415633899       -0.0033021597        0.0383551535
  O        -0.0064224058        0.0152178177       -0.0099521238
  S         0.0270265677       -0.0433796024       -0.0455639543
  S        -0.0095136618       -0.0148394556       -0.0243415688
  S        -0.0285865437       -0.0094019771       -0.0131628246
  O        -0.0126227421       -0.0129558706        0.0192006692
  O        -0.0109346880        0.0021445581       -0.0188683749
  O         0.0008954236       -0.0023913691        0.0040426049
  O        -0.0015270008        0.0253139834       -0.0072973173
  O         0.0203442183        0.0050277682        0.0223177237
  O         0.0040555116        0.0093519277        0.0038833527
  O        -0.0116450390        0.0296710480        0.0130025650
  O         0.0263473476        0.0232132590       -0.0491137753
  O         0.0153708464        0.0063667501        0.0197497533
  O        -0.0022302766        0.0056504281        0.0286811310
  O         0.0167464128       -0.0181704326       -0.0065107158
  O         0.0058302053       -0.0032362498       -0.0055777947
  O         0.0063096653       -0.0167359310        0.0052621281
  O        -0.0023210836        0.0288559337        0.0295497761
  O         0.0026710210       -0.0213090818        0.0016325079
  H         0.0014203699        0.0028487607        0.0009138832
  H        -0.0059428399       -0.0018055384       -0.0079675779
  H         0.0071249009        0.0109893883       -0.0114109591
  H         0.0022494126        0.0119491807       -0.0045790149
  H         0.0025650166       -0.0243471001       -0.0155598955
  H        -0.0010338619        0.0027181880        0.0018800502
 Ca        -0.0030414031        0.0032488467        0.0065573483
 Ca         0.0003771678       -0.0006336407        0.0005570697
 Ca        -0.0046828685        0.0066214579        0.0038829558
 Ca         0.0036965653       -0.0077111325        0.0017817371
 Ca        -0.0012957496        0.0017402899       -0.0036992959
 Ca         0.0035504078       -0.0073996349       -0.0060818949
  S        -0.0170479482       -0.0247062656        0.0266030588
  S         0.0106732304       -0.0487207456        0.0399027207
  S        -0.0151995501       -0.0291672799       -0.0076665991
  O        -0.0008617673        0.0126924767       -0.0066456688
  O         0.0117922275        0.0110348387       -0.0016894226
  O        -0.0049918505        0.0087482112       -0.0000064775
  O         0.0024801248        0.0024372418       -0.0024704723
  O        -0.0078673668        0.0057331282        0.0005602422
  O        -0.0190548949       -0.0199913910        0.0126373966
  O         0.0099822566        0.0027541094       -0.0067979892
  O         0.0062595716        0.0311410165        0.0086190300
  O         0.0284364237       -0.0117285603        0.0162413003
  O         0.0101439311        0.0072908381       -0.0228646789
  O        -0.0193295281        0.0165904448       -0.0296493277
  O        -0.0072092314        0.0234453909        0.0066642844
  S        -0.0339904461       -0.0287194047       -0.0362837723
  S         0.0746134565        0.0165418191       -0.0210907352
  S         0.0124233789       -0.0146348100       -0.0171314180
  O         0.0313256994        0.0154326310        0.0206762600
  O        -0.0292463743        0.0014987194       -0.0009763383
  O         0.0022890298        0.0158535591        0.0020499334
  O        -0.0069089044       -0.0069468321        0.0015018312
  O        -0.0132254296       -0.0130622586        0.0076046538
  O        -0.0124447508        0.0178760520       -0.0001787054
  O        -0.0096335817        0.0260237687        0.0000239443
  O        -0.0005183484       -0.0038290744       -0.0080496670
  O         0.0093924285        0.0016443175        0.0152706568
  O         0.0131256654       -0.0114625902        0.0218314866
  O         0.0135530936       -0.0136520602        0.0049125198
  O        -0.0083799187       -0.0007848583       -0.0081649509
  O         0.0219688746       -0.0035586370       -0.0129187787
  O         0.0448827591       -0.0187232634       -0.0124111206
  O         0.0020140682       -0.0019465471       -0.0086451380
  H        -0.0093601758        0.0018608293        0.0039616019
  H        -0.0197892524       -0.0015514494       -0.0127585351
  H        -0.0010411441       -0.0037679078        0.0023931022
  H        -0.0123149164        0.0059211898        0.0054959589
  H        -0.0218680637        0.0043212689        0.0258146777
  H        -0.0095664723        0.0116187088        0.0007271011
 Ca         0.0048328855        0.0018722072       -0.0088707891
 Ca         0.0038699318       -0.0035179673        0.0010126496
 Ca        -0.0038287502       -0.0047034610       -0.0028014733
 Ca        -0.0019247824       -0.0066443025       -0.0003030661
 Ca        -0.0091697495       -0.0027656883        0.0018536718
 Ca         0.0003669792        0.0043732614       -0.0082818871
  S        -0.0343666652       -0.0258215287       -0.0043141411
  S        -0.0254864754       -0.0138068135        0.0237401810
  S         0.0150177961        0.0014171390        0.0019856789
  O         0.0078494233       -0.0004875622        0.0083330939
  O         0.0174327941        0.0047060188        0.0041183819
  O         0.0027889633        0.0002556612       -0.0208709377
  O         0.0141208141        0.0059781485        0.0167109712
  O         0.0009096702        0.0111760925       -0.0087073260
  O        -0.0026591253        0.0135677357        0.0004739481
  O        -0.0013627989       -0.0077644587        0.0150067723
  O        -0.0128690268       -0.0132506633       -0.0049956203
  O         0.0084100787       -0.0044059449       -0.0009413335
  O         0.0199329427        0.0261000087       -0.0093943483
  O         0.0067588081        0.0150891623       -0.0200973904
  O        -0.0039697213        0.0154937290       -0.0048551205
  S        -0.0168202677       -0.0464986102       -0.0182880811
  S         0.0324299306        0.0199303782        0.0319382428
  S        -0.0059480899        0.0530578698        0.0003404583
  O         0.0069980709        0.0243133469       -0.0030491863
  O        -0.0463964438        0.0120907000       -0.0272457993
  O         0.0156788248        0.0142381665       -0.0021323049
  O        -0.0035751510        0.0039982087       -0.0056920131
  O         0.0064568371       -0.0256494623        0.0007483908
  O         0.0235626945       -0.0314492678       -0.0008032169
  O        -0.0022858098        0.0157338031        0.0114106911
  O        -0.0253450793       -0.0047198902        0.0161401976
  O        -0.0087063051       -0.0036826058       -0.0096473445
  O         0.0110485620        0.0100462868        0.0078386586
  O        -0.0036784795       -0.0089728009        0.0015168044
  O        -0.0119103714       -0.0110619494        0.0046311053
  O        -0.0004715710       -0.0150300137       -0.0011639719
  O        -0.0246688515       -0.0164928559       -0.0089206734
  O         0.0172633573       -0.0146805270       -0.0050965668
  H         0.0168419440        0.0005687626       -0.0101140752
  H         0.0181211061        0.0063649204        0.0089717933
  H        -0.0051513582        0.0028049416       -0.0060710964
  H        -0.0123254343        0.0136731167        0.0038059600
  H         0.0044811994       -0.0058098945        0.0021916580
  H        -0.0100813894        0.0108482716        0.0044606563
     180
 i =       18, time =        9.000, E =     -2871.7965308693
 Ca        -0.0064933382        0.0010842555        0.0014833185
 Ca        -0.0049506289       -0.0002631416        0.0023829188
 Ca         0.0027987329       -0.0035498576        0.0024048820
 Ca        -0.0011851928        0.0028851999       -0.0049644716
 Ca        -0.0028959922       -0.0008718777        0.0008524413
 Ca        -0.0044594638        0.0050816356        0.0014521149
  S        -0.0110879659        0.0366266584       -0.0302889529
  S         0.0259215679        0.0306277874        0.0204111965
  S         0.0381138615       -0.0242259373        0.0349976936
  O         0.0158764583       -0.0401266701        0.0124211492
  O        -0.0128069935       -0.0220244118        0.0154343696
  O        -0.0160052378       -0.0038220048       -0.0278252772
  O         0.0065153185        0.0007538633        0.0202178090
  O        -0.0037006670       -0.0111877911       -0.0104159887
  O        -0.0096665924       -0.0117344794        0.0171447772
  O        -0.0106462570       -0.0104347774       -0.0116001209
  O         0.0009195752        0.0055303797        0.0038673657
  O        -0.0034097681        0.0036104013       -0.0089311554
  O        -0.0124480530       -0.0010151904        0.0110821317
  O         0.0011375650       -0.0037445106       -0.0157062072
  O        -0.0009142608       -0.0099642052       -0.0193969132
  S         0.0209424490        0.0140068931        0.0111944122
  S        -0.0422942372       -0.0042222585        0.0440362759
  S         0.0511727361       -0.0005252778        0.0336003418
  O        -0.0065174048       -0.0030650851        0.0027084025
  O        -0.0280942990        0.0039058026       -0.0137505735
  O        -0.0002058659        0.0409811377       -0.0103750013
  O        -0.0048040255       -0.0021679740        0.0063763777
  O         0.0266734970        0.0104881173        0.0215529353
  O        -0.0010332948       -0.0057036146        0.0110260233
  O         0.0077007448       -0.0196647928        0.0017912469
  O         0.0232665961       -0.0025495422       -0.0123770329
  O        -0.0534915911       -0.0098674693       -0.0554149067
  O        -0.0130908960       -0.0003282775       -0.0049983071
  O        -0.0252104884        0.0122945153        0.0260343988
  O         0.0092809830        0.0149427670        0.0064878499
  O        -0.0054821685        0.0003112445        0.0021802945
  O        -0.0098647016       -0.0328017775        0.0127652030
  O        -0.0071701359        0.0087172755       -0.0014202726
  H         0.0031029153        0.0011618598       -0.0014403637
  H        -0.0001333381       -0.0059469682        0.0078209491
  H         0.0011770832        0.0029435523        0.0040857839
  H         0.0069907508       -0.0067479352        0.0012957148
  H         0.0057589482        0.0059572634       -0.0110686863
  H         0.0115401179       -0.0051902825        0.0006839819
 Ca         0.0054346852        0.0091665461        0.0010693919
 Ca        -0.0056732050       -0.0145182743        0.0096922971
 Ca         0.0033438768       -0.0026357467       -0.0036042323
 Ca         0.0033360102        0.0034540140        0.0051335959
 Ca         0.0042991618        0.0076884673        0.0036792389
 Ca        -0.0020437072        0.0005976802        0.0000087763
  S        -0.0110296928        0.0235037793       -0.0011125181
  S        -0.0360354011       -0.0623862941       -0.0329508217
  S         0.0107083935        0.0164667486        0.0010185215
  O         0.0342197992       -0.0257085064        0.0140935549
  O         0.0015145873        0.0207478423       -0.0034626036
  O        -0.0107813143        0.0085981709        0.0049798765
  O        -0.0285152183        0.0043294472       -0.0159937421
  O        -0.0094931735        0.0179668874        0.0003171165
  O        -0.0145557693        0.0106667140       -0.0015091796
  O        -0.0018804260        0.0055054439       -0.0053253216
  O         0.0070788237        0.0350114092        0.0015412177
  O         0.0104862638       -0.0011013342        0.0043576963
  O         0.0032819876        0.0095163915       -0.0025820724
  O         0.0389807359       -0.0022118187        0.0362044544
  O        -0.0060470802        0.0149066607       -0.0111375197
  S         0.0269759278       -0.0432639654       -0.0452616084
  S        -0.0104043740       -0.0135644216       -0.0244098046
  S        -0.0290277503       -0.0093088443       -0.0130380623
  O        -0.0128845103       -0.0136888672        0.0214698424
  O        -0.0109094163        0.0018953073       -0.0205704647
  O         0.0005118810       -0.0032428145        0.0044085967
  O        -0.0014166689        0.0263009226       -0.0081762059
  O         0.0205503339        0.0036937749        0.0229296612
  O         0.0041119423        0.0099307541        0.0040993800
  O        -0.0100807984        0.0283443940        0.0131458159
  O         0.0265654514        0.0232934079       -0.0497167350
  O         0.0159377649        0.0065430077        0.0197738711
  O        -0.0032118033        0.0057142517        0.0283060018
  O         0.0153400260       -0.0176059864       -0.0046754024
  O         0.0058304211       -0.0036036254       -0.0066518777
  O         0.0060190570       -0.0158226823        0.0050875128
  O        -0.0019103087        0.0273105030        0.0240552416
  O         0.0049320565       -0.0115970000       -0.0045488549
  H         0.0015372220        0.0030493248        0.0005410461
  H        -0.0054104051       -0.0014777506       -0.0063906279
  H         0.0037461401        0.0028712970       -0.0055606962
  H        -0.0039023819        0.0091125006       -0.0039412670
  H         0.0022789694       -0.0219314877       -0.0128021217
  H         0.0004272537        0.0010816298        0.0016176888
 Ca        -0.0031997934        0.0031618097        0.0069469689
 Ca         0.0003260620       -0.0006118802        0.0006979484
 Ca        -0.0048882439        0.0070127025        0.0044733119
 Ca         0.0039702684       -0.0080906322        0.0014754285
 Ca        -0.0011674801        0.0016203698       -0.0040145043
 Ca         0.0035574140       -0.0077537953       -0.0062140890
  S        -0.0172375572       -0.0251198283        0.0272888375
  S         0.0099048902       -0.0478526093        0.0389635950
  S        -0.0140801513       -0.0294191853       -0.0064239031
  O        -0.0009384101        0.0131904603       -0.0067653685
  O         0.0115171446        0.0110038649       -0.0007244973
  O        -0.0051501095        0.0082848778       -0.0004316072
  O         0.0023723272        0.0028251313       -0.0025219752
  O        -0.0074725896        0.0050212878        0.0005467926
  O        -0.0189232197       -0.0198356563        0.0116262089
  O         0.0108627472        0.0026399342       -0.0077318955
  O         0.0067383021        0.0317257905        0.0084520798
  O         0.0286151150       -0.0115861565        0.0158976224
  O         0.0102075021        0.0069610241       -0.0232392326
  O        -0.0186519013        0.0165020181       -0.0294931443
  O        -0.0065709897        0.0227931175        0.0060893147
  S        -0.0321778162       -0.0269541776       -0.0341471215
  S         0.0734917044        0.0168927630       -0.0211594854
  S         0.0129007243       -0.0145927961       -0.0172325347
  O         0.0323780868        0.0143542989        0.0220360365
  O        -0.0291716548        0.0004685442        0.0012064010
  O         0.0021438355        0.0154242668        0.0026741507
  O        -0.0071218385       -0.0071383435        0.0014205875
  O        -0.0130456289       -0.0129698330        0.0081372387
  O        -0.0131205632        0.0172134349       -0.0005112208
  O        -0.0092882137        0.0262788181        0.0014928929
  O        -0.0002545975       -0.0042054700       -0.0088708868
  O         0.0092679683        0.0017821267        0.0152258941
  O         0.0108196592       -0.0120559433        0.0196811209
  O         0.0136126191       -0.0134297093        0.0056579922
  O        -0.0094707236       -0.0014446613       -0.0069625030
  O         0.0135562156       -0.0082982222       -0.0081053314
  O         0.0432900357       -0.0182725333       -0.0094489260
  O         0.0003789052       -0.0012136257       -0.0078190341
  H        -0.0016699541        0.0039974607        0.0000259939
  H        -0.0210563686       -0.0001019077       -0.0126334802
  H        -0.0006223169       -0.0021251827        0.0012262596
  H        -0.0112580338        0.0087152339        0.0050742496
  H        -0.0187855191        0.0030994036        0.0225337664
  H        -0.0078497657        0.0091100832        0.0009512443
 Ca         0.0047867094        0.0020053293       -0.0092794555
 Ca         0.0038377631       -0.0039027174        0.0009898651
 Ca        -0.0037916284       -0.0050219651       -0.0029124460
 Ca        -0.0020627467       -0.0066503809       -0.0001445602
 Ca        -0.0094393723       -0.0026611842        0.0016171088
 Ca         0.0002194319        0.0044622014       -0.0084425408
  S        -0.0345251354       -0.0260591049       -0.0043961255
  S        -0.0272653016       -0.0142410784        0.0234876818
  S         0.0138390171        0.0015537760        0.0038171534
  O         0.0085591641       -0.0007790033        0.0087259612
  O         0.0177822113        0.0046517403        0.0049329397
  O         0.0032366001        0.0003463369       -0.0210759785
  O         0.0144102731        0.0058612010        0.0170066101
  O         0.0015379458        0.0114027644       -0.0089101604
  O        -0.0032314414        0.0135120448        0.0008161697
  O        -0.0014955648       -0.0089490656        0.0153915997
  O        -0.0127208832       -0.0131616692       -0.0049821708
  O         0.0089344315       -0.0048011820       -0.0007532791
  O         0.0204895360        0.0260453697       -0.0095097473
  O         0.0070589013        0.0149161813       -0.0207961789
  O        -0.0040540880        0.0159838513       -0.0057306960
  S        -0.0159176845       -0.0457574905       -0.0173016711
  S         0.0310846933        0.0211647848        0.0301146686
  S        -0.0057442363        0.0533706506       -0.0001841677
  O         0.0063217312        0.0234250473       -0.0034097624
  O        -0.0461311080        0.0106978599       -0.0258017665
  O         0.0152218196        0.0151139326       -0.0027188190
  O        -0.0037602591        0.0038147943       -0.0055795457
  O         0.0074452378       -0.0259959209        0.0010423937
  O         0.0230835159       -0.0306500936       -0.0003003821
  O        -0.0009245119        0.0172170308        0.0122268006
  O        -0.0250024700       -0.0035304456        0.0149826387
  O        -0.0086808512       -0.0036592696       -0.0094369113
  O         0.0106704612        0.0105664696        0.0074757678
  O        -0.0035421671       -0.0097356160        0.0007754594
  O        -0.0117323047       -0.0116202545        0.0052672040
  O         0.0174632796       -0.0112396292       -0.0130938415
  O        -0.0223723078       -0.0184413137       -0.0091860943
  O         0.0122439738       -0.0090863193       -0.0042086762
  H        -0.0032725713       -0.0024749634        0.0029865491
  H         0.0178722114        0.0056054155        0.0088321021
  H        -0.0048434431        0.0024697985       -0.0064034559
  H        -0.0102725409        0.0130246128        0.0024915559
  H         0.0031935514       -0.0046174483        0.0030213403
  H        -0.0057720181        0.0058147520        0.0032061835
     180
 i =       19, time =        9.500, E =     -2871.7938364791
 Ca        -0.0066676761        0.0013350663        0.0013883211
 Ca        -0.0050351920       -0.0004515986        0.0024786830
 Ca         0.0026763772       -0.0036641727        0.0028063856
 Ca        -0.0014885626        0.0030861545       -0.0049851133
 Ca        -0.0034969593       -0.0006103407        0.0008676499
 Ca        -0.0043591540        0.0053232213        0.0014325320
  S        -0.0101384762        0.0366592914       -0.0306142305
  S         0.0252621450        0.0299829548        0.0202261261
  S         0.0361709658       -0.0233545714        0.0351536992
  O         0.0145875414       -0.0409774742        0.0125209208
  O        -0.0131107720       -0.0221462289        0.0153672044
  O        -0.0159959137       -0.0033243169       -0.0283283381
  O         0.0061973715        0.0002809360        0.0198586378
  O        -0.0043416765       -0.0106440207       -0.0095131133
  O        -0.0099515210       -0.0114793099        0.0172520783
  O        -0.0106717410       -0.0101611873       -0.0118037735
  O         0.0024175847        0.0071522763        0.0047268595
  O        -0.0019922082        0.0023008586       -0.0083621651
  O        -0.0129005096       -0.0007795612        0.0111326199
  O         0.0018569982       -0.0043628324       -0.0152391933
  O        -0.0020049142       -0.0089418134       -0.0194046825
  S         0.0203909035        0.0129141896        0.0107380900
  S        -0.0400966866       -0.0044736411        0.0423121399
  S         0.0503812272       -0.0010599912        0.0305611024
  O        -0.0064169317       -0.0019834739        0.0027103241
  O        -0.0288008938        0.0049951980       -0.0141847276
  O        -0.0001344088        0.0405732620       -0.0105670735
  O        -0.0048559438       -0.0021894300        0.0061872268
  O         0.0271334731        0.0095584600        0.0215253930
  O        -0.0004554725       -0.0054355700        0.0123854280
  O         0.0076591572       -0.0194285901        0.0011843860
  O         0.0240295002       -0.0027114413       -0.0125423644
  O        -0.0528343640       -0.0097116970       -0.0529868272
  O        -0.0126180831       -0.0005528147       -0.0036948718
  O        -0.0259493394        0.0134630844        0.0258020598
  O         0.0095561885        0.0153102313        0.0070188447
  O        -0.0113042501       -0.0047026993        0.0071865095
  O        -0.0087724921       -0.0326005286        0.0126338410
  O        -0.0067117509        0.0014207090        0.0014208705
  H         0.0113494935        0.0030269800       -0.0076850102
  H         0.0007834322       -0.0054840457        0.0066656208
  H         0.0029783718        0.0068820190        0.0003922061
  H         0.0045192577       -0.0039043874        0.0024077130
  H         0.0037796915        0.0058779365       -0.0095472318
  H         0.0096754192       -0.0016389094        0.0018994403
 Ca         0.0055715438        0.0090424047        0.0007813866
 Ca        -0.0057778977       -0.0148205904        0.0103841075
 Ca         0.0035489877       -0.0029533228       -0.0035108786
 Ca         0.0028016179        0.0034509985        0.0052685607
 Ca         0.0043687175        0.0079866550        0.0037453138
 Ca        -0.0021051898        0.0004401901        0.0001331061
  S        -0.0105449130        0.0229023155       -0.0019502933
  S        -0.0314981847       -0.0614406677       -0.0307281498
  S         0.0123015042        0.0150992231        0.0010642784
  O         0.0346035596       -0.0254814293        0.0151204287
  O         0.0010608235        0.0208782854       -0.0023471616
  O        -0.0115085213        0.0095112588        0.0044377176
  O        -0.0293604277        0.0048960047       -0.0162387275
  O        -0.0094594423        0.0171024726       -0.0006863386
  O        -0.0148954681        0.0107042846       -0.0010785854
  O         0.0057511159        0.0072730223       -0.0044741475
  O         0.0062262950        0.0341311841        0.0013687645
  O         0.0103585303       -0.0008076670        0.0041533998
  O         0.0031750889        0.0094647418       -0.0022922800
  O         0.0357237832       -0.0010808348        0.0336672093
  O        -0.0055729206        0.0144740010       -0.0124114750
  S         0.0266969774       -0.0427820764       -0.0445909927
  S        -0.0113364559       -0.0120013987       -0.0242912515
  S        -0.0293343954       -0.0091379120       -0.0128286911
  O        -0.0129312439       -0.0142820873        0.0230785950
  O        -0.0109276097        0.0013437386       -0.0223213231
  O         0.0000443061       -0.0040700944        0.0048552536
  O        -0.0011817530        0.0271525809       -0.0090739087
  O         0.0205945524        0.0022276404        0.0233175561
  O         0.0042399118        0.0104340683        0.0044049130
  O        -0.0081251653        0.0267684982        0.0130949182
  O         0.0266967282        0.0231693627       -0.0501222792
  O         0.0164367460        0.0066914193        0.0198016299
  O        -0.0042911984        0.0057137482        0.0278729454
  O         0.0137742061       -0.0170706472       -0.0026268611
  O         0.0058772669       -0.0040666263       -0.0079104562
  O         0.0055324564       -0.0148139973        0.0046192169
  O        -0.0011144627        0.0250604136        0.0168440666
  O         0.0069221698       -0.0017760377       -0.0104897887
  H         0.0016912620        0.0032081173        0.0001160233
  H        -0.0045072062       -0.0012298649       -0.0046137014
  H         0.0004217608       -0.0052138759        0.0002446844
  H        -0.0100598495        0.0062168723       -0.0033004366
  H         0.0012251427       -0.0186754278       -0.0087801976
  H         0.0020020009       -0.0006988456        0.0013078525
 Ca        -0.0033568346        0.0030480400        0.0073548898
 Ca         0.0002617632       -0.0005851650        0.0008508887
 Ca        -0.0051022363        0.0073908423        0.0050774183
 Ca         0.0043259544       -0.0085046622        0.0010811314
 Ca        -0.0009912141        0.0015257893       -0.0043717394
 Ca         0.0035508114       -0.0081162028       -0.0063247859
  S        -0.0172977704       -0.0253648979        0.0278210308
  S         0.0088740220       -0.0465878822        0.0378951682
  S        -0.0127160335       -0.0293141213       -0.0049876075
  O        -0.0009900315        0.0136729249       -0.0068517566
  O         0.0111784095        0.0109571189        0.0003266160
  O        -0.0052602496        0.0076068061       -0.0009323222
  O         0.0022512730        0.0033489409       -0.0023729663
  O        -0.0069487506        0.0041709017        0.0004966825
  O        -0.0186920776       -0.0196554185        0.0106309979
  O         0.0112662557        0.0024680989       -0.0085891808
  O         0.0070289926        0.0321638707        0.0079969295
  O         0.0286264141       -0.0113538181        0.0154683389
  O         0.0102124098        0.0064920342       -0.0234304118
  O        -0.0178127108        0.0163423773       -0.0291910476
  O        -0.0059005661        0.0220903967        0.0054311842
  S        -0.0301030104       -0.0248449357       -0.0315799965
  S         0.0717218339        0.0171044863       -0.0210783750
  S         0.0133469676       -0.0144521829       -0.0172525955
  O         0.0331654993        0.0131871194        0.0229603269
  O        -0.0288775503       -0.0003944704        0.0036452987
  O         0.0019189606        0.0149104807        0.0033044542
  O        -0.0073694868       -0.0073238252        0.0012785679
  O        -0.0127214087       -0.0127385544        0.0088442782
  O        -0.0136821343        0.0163450668       -0.0007739874
  O        -0.0088150652        0.0263815634        0.0046947954
  O         0.0000222999       -0.0044211991       -0.0096934701
  O         0.0090803062        0.0019864772        0.0150668888
  O         0.0080005155       -0.0134277420        0.0173905895
  O         0.0136689139       -0.0130586243        0.0064358047
  O        -0.0102313522       -0.0020363956       -0.0015860433
  O         0.0041087596       -0.0116757469       -0.0030818272
  O         0.0390091514       -0.0165308192       -0.0039166406
  O        -0.0017276802        0.0002983825       -0.0065252287
  H         0.0066013510        0.0059079520       -0.0040747773
  H        -0.0218882122        0.0012265149       -0.0122244500
  H        -0.0000914488       -0.0002964548       -0.0001061577
  H        -0.0098693286        0.0104125778        0.0044599061
  H        -0.0137750281        0.0009081611        0.0167371579
  H        -0.0054820004        0.0057733769        0.0011263783
 Ca         0.0046796853        0.0021379071       -0.0096583711
 Ca         0.0037960091       -0.0043055634        0.0009518200
 Ca        -0.0037189538       -0.0053655036       -0.0030402243
 Ca        -0.0021989954       -0.0065798472        0.0000347028
 Ca        -0.0096551906       -0.0024813855        0.0013298363
 Ca         0.0000328444        0.0045496176       -0.0085819722
  S        -0.0344002851       -0.0260658777       -0.0045017647
  S        -0.0290022704       -0.0145914606        0.0229607135
  S         0.0125118090        0.0016318417        0.0058058585
  O         0.0089638162       -0.0010846739        0.0089527178
  O         0.0180592719        0.0045192031        0.0058508849
  O         0.0037104947        0.0004592574       -0.0211122980
  O         0.0146449091        0.0058000079        0.0172762412
  O         0.0021815970        0.0115493214       -0.0086773414
  O        -0.0038654010        0.0133454386        0.0012236822
  O        -0.0013193129       -0.0100579907        0.0158087092
  O        -0.0124865101       -0.0129899726       -0.0049148897
  O         0.0094217494       -0.0051049955       -0.0006417394
  O         0.0208520325        0.0257229856       -0.0096176464
  O         0.0074510976        0.0147670616       -0.0212758755
  O        -0.0040434544        0.0165956554       -0.0071396690
  S        -0.0148680314       -0.0445791357       -0.0160667180
  S         0.0293349614        0.0224523924        0.0278046372
  S        -0.0053776754        0.0532454940       -0.0007714297
  O         0.0055494906        0.0222702620       -0.0038566464
  O        -0.0455363723        0.0089584424       -0.0239267807
  O         0.0147041977        0.0158263278       -0.0031847801
  O        -0.0038589904        0.0036929554       -0.0053297884
  O         0.0084709515       -0.0262424091        0.0014327040
  O         0.0223977526       -0.0296954685        0.0001680284
  O        -0.0003727184        0.0179054128        0.0119651758
  O        -0.0245048609       -0.0021693246        0.0135084177
  O        -0.0086005858       -0.0036245691       -0.0091436528
  O         0.0101329052        0.0110904000        0.0068824151
  O        -0.0030326435       -0.0106806588       -0.0000829335
  O        -0.0115594152       -0.0122585715        0.0058334215
  O         0.0317255064       -0.0067986810       -0.0225486598
  O        -0.0188199993       -0.0214026118       -0.0088267287
  O         0.0064393062       -0.0020304463       -0.0032029806
  H        -0.0200118633       -0.0045917111        0.0138930277
  H         0.0166089934        0.0054535561        0.0080510159
  H        -0.0047040372        0.0017929767       -0.0065480994
  H        -0.0074851290        0.0108627614        0.0008780951
  H         0.0017753419       -0.0033034135        0.0039535395
  H        -0.0005969048       -0.0003509673        0.0019124253
     180
 i =       20, time =       10.000, E =     -2871.7905141035
 Ca        -0.0068237021        0.0016330678        0.0012581169
 Ca        -0.0051042180       -0.0006715643        0.0025727395
 Ca         0.0025172907       -0.0037459153        0.0032473471
 Ca        -0.0018128383        0.0033031340       -0.0050104817
 Ca        -0.0040940031       -0.0003181267        0.0008905687
 Ca        -0.0042132581        0.0055509351        0.0014177433
  S        -0.0089578930        0.0364023071       -0.0307892923
  S         0.0244178204        0.0291228409        0.0198708290
  S         0.0338040111       -0.0222934449        0.0350648953
  O         0.0131534889       -0.0413889980        0.0123427066
  O        -0.0136585718       -0.0219220126        0.0151031439
  O        -0.0158984128       -0.0027625965       -0.0286385348
  O         0.0057961519       -0.0002709318        0.0195254000
  O        -0.0050810069       -0.0101794827       -0.0091740302
  O        -0.0102660712       -0.0112368966        0.0169087483
  O        -0.0106407928       -0.0095274080       -0.0119373614
  O         0.0039986114        0.0092942903        0.0045067358
  O        -0.0004035108        0.0009472252       -0.0076790978
  O        -0.0133238648       -0.0005313758        0.0111140285
  O         0.0028065807       -0.0051163014       -0.0146461201
  O        -0.0030966111       -0.0078780169       -0.0192196493
  S         0.0196217706        0.0115846016        0.0101268904
  S        -0.0375464897       -0.0045801931        0.0402301580
  S         0.0491250279       -0.0016275973        0.0268474109
  O        -0.0062123484       -0.0006287470        0.0027273576
  O        -0.0291747775        0.0054748953       -0.0143695949
  O        -0.0000596678        0.0397966512       -0.0107533408
  O        -0.0048978757       -0.0021967746        0.0059082319
  O         0.0273622751        0.0082958329        0.0209089425
  O        -0.0003169076       -0.0052195541        0.0134296526
  O         0.0075562678       -0.0191196126        0.0004690688
  O         0.0247525970       -0.0029024214       -0.0127183064
  O        -0.0517479223       -0.0096425993       -0.0498120726
  O        -0.0118943084       -0.0008150180       -0.0021281818
  O        -0.0263791789        0.0147623571        0.0255675877
  O         0.0098279506        0.0156304190        0.0075430823
  O        -0.0159022561       -0.0100749293        0.0111845143
  O        -0.0071763429       -0.0322445075        0.0119856219
  O        -0.0060082552       -0.0060053254        0.0039615487
  H         0.0186345767        0.0046367736       -0.0132470175
  H         0.0014620415       -0.0047565057        0.0053841254
  H         0.0046651003        0.0105297077       -0.0030922589
  H         0.0016516833       -0.0004342090        0.0036328852
  H         0.0015407169        0.0057772714       -0.0074504580
  H         0.0076717971        0.0023206499        0.0031676054
 Ca         0.0057037588        0.0088297959        0.0004759576
 Ca        -0.0058483929       -0.0150497245        0.0110834403
 Ca         0.0037266447       -0.0033062236       -0.0033728875
 Ca         0.0022181876        0.0034435587        0.0053969927
 Ca         0.0044278638        0.0082529359        0.0037946228
 Ca        -0.0021633044        0.0002513412        0.0002742978
  S        -0.0098986318        0.0219978011       -0.0029072033
  S        -0.0263703161       -0.0598766947       -0.0281117279
  S         0.0138693199        0.0135216550        0.0011884434
  O         0.0346859989       -0.0249095682        0.0164788743
  O         0.0006280640        0.0209529579       -0.0011271531
  O        -0.0121446712        0.0103744476        0.0036324568
  O        -0.0301384982        0.0054501879       -0.0162829521
  O        -0.0092214906        0.0159295165       -0.0018881594
  O        -0.0152097102        0.0106935020       -0.0005177469
  O         0.0125490343        0.0087662001       -0.0036574750
  O         0.0050920603        0.0328535040        0.0011303232
  O         0.0101824682       -0.0004838158        0.0039012229
  O         0.0028117500        0.0092930667       -0.0018956220
  O         0.0318441843        0.0000598269        0.0307837808
  O        -0.0050113568        0.0139184938       -0.0136658259
  S         0.0262004209       -0.0419404608       -0.0435565853
  S        -0.0123151914       -0.0101421746       -0.0239914642
  S        -0.0295103859       -0.0088914492       -0.0125302700
  O        -0.0127607636       -0.0146194021        0.0231744943
  O        -0.0110526382        0.0005628280       -0.0235999632
  O        -0.0004859035       -0.0048388626        0.0054391694
  O        -0.0008067421        0.0278768551       -0.0099322805
  O         0.0205119155        0.0006175724        0.0234949751
  O         0.0044308171        0.0108375714        0.0047442136
  O        -0.0057546295        0.0249997874        0.0128332273
  O         0.0267484146        0.0227077320       -0.0503368510
  O         0.0168671500        0.0068302222        0.0196853949
  O        -0.0054706168        0.0056985486        0.0272851459
  O         0.0120344460       -0.0164368969       -0.0006136972
  O         0.0059541038       -0.0045500973       -0.0090018686
  O         0.0050630697       -0.0136583665        0.0040318186
  O         0.0002262536        0.0220746650        0.0079004697
  O         0.0085164563        0.0070929474       -0.0157202526
  H         0.0018714510        0.0033292595       -0.0003415795
  H        -0.0033041795       -0.0010564748       -0.0026702717
  H        -0.0025201442       -0.0124311579        0.0054201854
  H        -0.0153411465        0.0034660778       -0.0026734677
  H        -0.0006743491       -0.0146075484       -0.0034106460
  H         0.0035400746       -0.0024498734        0.0009987076
 Ca        -0.0035133926        0.0029077871        0.0077732001
 Ca         0.0001909872       -0.0005596383        0.0010157015
 Ca        -0.0053302976        0.0077570811        0.0056721844
 Ca         0.0047582524       -0.0089649177        0.0006016362
 Ca        -0.0007786987        0.0014714005       -0.0047731819
 Ca         0.0035299515       -0.0084849960       -0.0064138767
  S        -0.0172272147       -0.0254436048        0.0282001425
  S         0.0075999141       -0.0448974837        0.0366625974
  S        -0.0111328097       -0.0288950388       -0.0033709756
  O        -0.0010161465        0.0141420650       -0.0069026510
  O         0.0107521139        0.0108981677        0.0014165090
  O        -0.0054061022        0.0067861815       -0.0014478539
  O         0.0021021314        0.0040023424       -0.0019856689
  O        -0.0063076796        0.0031874726        0.0004147966
  O        -0.0184592037       -0.0195284851        0.0096831486
  O         0.0113243731        0.0021928620       -0.0093780891
  O         0.0070000443        0.0322405034        0.0065492738
  O         0.0284928503       -0.0110387415        0.0149181750
  O         0.0101460884        0.0058710240       -0.0234124859
  O        -0.0167845388        0.0161025095       -0.0288129344
  O        -0.0052342185        0.0213492391        0.0047037777
  S        -0.0277654381       -0.0223850803       -0.0285722087
  S         0.0693075232        0.0171724369       -0.0208375888
  S         0.0137583056       -0.0142158064       -0.0171308668
  O         0.0337894934        0.0112884863        0.0238258245
  O        -0.0283145088       -0.0010785334        0.0062768854
  O         0.0016430658        0.0143250118        0.0040229159
  O        -0.0076807000       -0.0075250754        0.0011728920
  O        -0.0121179414       -0.0124389925        0.0099331494
  O        -0.0141162483        0.0153322164       -0.0009435261
  O        -0.0082101007        0.0263117358        0.0092270117
  O         0.0003034534       -0.0043713561       -0.0104848968
  O         0.0088916360        0.0022082968        0.0148225606
  O         0.0047755134       -0.0151975175        0.0150973909
  O         0.0136906217       -0.0125638727        0.0072786963
  O        -0.0106893987       -0.0024933062       -0.0004703553
  O        -0.0055738680       -0.0135520731        0.0015970222
  O         0.0326604384       -0.0140176918        0.0026823653
  O        -0.0040739284        0.0025502721       -0.0045838176
  H         0.0144736650        0.0075996243       -0.0078420320
  H        -0.0222074315        0.0023992442       -0.0115227867
  H         0.0004752907        0.0015652203       -0.0014811985
  H        -0.0081121014        0.0108317289        0.0036151177
  H        -0.0075037786       -0.0017758235        0.0095120752
  H        -0.0025431979        0.0017220358        0.0012477459
 Ca         0.0045122524        0.0022683148       -0.0100033773
 Ca         0.0037470301       -0.0047256836        0.0008990761
 Ca        -0.0036268816       -0.0057392778       -0.0031754803
 Ca        -0.0023340141       -0.0064379489        0.0002275814
 Ca        -0.0098232814       -0.0022523233        0.0009969272
 Ca        -0.0001896302        0.0046346082       -0.0087040244
  S        -0.0339748142       -0.0258444807       -0.0046272671
  S        -0.0307137330       -0.0148597168        0.0221657586
  S         0.0109864397        0.0016193812        0.0079364788
  O         0.0091256358       -0.0013093075        0.0089678651
  O         0.0182750676        0.0043003713        0.0068734600
  O         0.0042235037        0.0006288281       -0.0209639729
  O         0.0149044664        0.0058442576        0.0175136005
  O         0.0028075195        0.0116369242       -0.0081800694
  O        -0.0045533014        0.0130830474        0.0016931614
  O        -0.0010820368       -0.0110619786        0.0164285175
  O        -0.0121902255       -0.0127393319       -0.0047738974
  O         0.0098626003       -0.0052938762       -0.0006009316
  O         0.0209926141        0.0251962783       -0.0099580248
  O         0.0079802136        0.0146575825       -0.0215926639
  O        -0.0039583380        0.0172363526       -0.0088771464
  S        -0.0136545992       -0.0429226849       -0.0145693554
  S         0.0271961646        0.0237955654        0.0249977794
  S        -0.0048507883        0.0526887338       -0.0014240265
  O         0.0046714453        0.0207950170       -0.0044398755
  O        -0.0445879403        0.0069421505       -0.0216467510
  O         0.0141353677        0.0163548686       -0.0037231774
  O        -0.0037905095        0.0034903239       -0.0049447023
  O         0.0094675376       -0.0263302941        0.0020643539
  O         0.0215744903       -0.0285744167        0.0005410935
  O        -0.0003753237        0.0178343070        0.0096541287
  O        -0.0238780985       -0.0006301366        0.0118267075
  O        -0.0084617803       -0.0035892463       -0.0087658159
  O         0.0094351922        0.0115188969        0.0060111141
  O        -0.0020620152       -0.0115372514       -0.0010250857
  O        -0.0114495227       -0.0128427752        0.0064090052
  O         0.0415296536       -0.0020646200       -0.0292110279
  O        -0.0149588642       -0.0248648088       -0.0078502771
  O         0.0002041525        0.0059410390       -0.0017656242
  H        -0.0326262809       -0.0057559242        0.0221347332
  H         0.0144122286        0.0058018595        0.0066809466
  H        -0.0046929650        0.0008232570       -0.0065507008
  H        -0.0041661920        0.0075050928       -0.0009278359
  H         0.0003607783       -0.0019317563        0.0048694989
  H         0.0050695472       -0.0071709821        0.0006576368
     180
 i =       21, time =       10.500, E =     -2871.7871143575
 Ca        -0.0069691049        0.0019683131        0.0011037355
 Ca        -0.0051556196       -0.0009179223        0.0026621938
 Ca         0.0023478693       -0.0037876898        0.0036873315
 Ca        -0.0021452304        0.0035290230       -0.0050407940
 Ca        -0.0046485381       -0.0000055141        0.0009177579
 Ca        -0.0040284725        0.0057635581        0.0014088413
  S        -0.0075924333        0.0358700764       -0.0308092681
  S         0.0234162973        0.0280818842        0.0193774486
  S         0.0311423116       -0.0211136590        0.0347044252
  O         0.0116512102       -0.0413745790        0.0121774126
  O        -0.0142003023       -0.0216504874        0.0146675182
  O        -0.0157253191       -0.0021397086       -0.0287783282
  O         0.0053523283       -0.0008646910        0.0189704214
  O        -0.0058368818       -0.0097789733       -0.0093478794
  O        -0.0104545427       -0.0112258617        0.0160855969
  O        -0.0106999482       -0.0088239885       -0.0119624737
  O         0.0054552780        0.0116986109        0.0037179062
  O         0.0012895619       -0.0003738739       -0.0069153649
  O        -0.0137010200       -0.0002875404        0.0110241556
  O         0.0039333185       -0.0059787553       -0.0139600104
  O        -0.0041657954       -0.0069370087       -0.0188228780
  S         0.0186587030        0.0100624213        0.0093970294
  S        -0.0347451692       -0.0045179948        0.0378526093
  S         0.0474875256       -0.0022036597        0.0226333880
  O        -0.0057670942        0.0008332062        0.0027157319
  O        -0.0292014411        0.0054790442       -0.0142194229
  O        -0.0000144923        0.0386892916       -0.0108823526
  O        -0.0049151709       -0.0021774317        0.0055585685
  O         0.0273794726        0.0068165455        0.0195463652
  O        -0.0005625189       -0.0050771214        0.0141684317
  O         0.0073765683       -0.0187632846       -0.0002560525
  O         0.0253746180       -0.0032084118       -0.0129094174
  O        -0.0503427063       -0.0095799431       -0.0461406167
  O        -0.0109617169       -0.0009345876       -0.0004608915
  O        -0.0263872028        0.0153063067        0.0254010916
  O         0.0101015399        0.0159033471        0.0079910591
  O        -0.0177141495       -0.0150712901        0.0126290949
  O        -0.0051556059       -0.0318470435        0.0109448533
  O        -0.0049644106       -0.0124054656        0.0056811879
  H         0.0234382156        0.0055664824       -0.0169265743
  H         0.0018598763       -0.0037864889        0.0040408743
  H         0.0058737511        0.0133814198       -0.0057200350
  H        -0.0012875462        0.0032819745        0.0048516995
  H        -0.0007907154        0.0056500598       -0.0049661620
  H         0.0057716422        0.0060472249        0.0043540290
 Ca         0.0058239709        0.0085414115        0.0001809431
 Ca        -0.0058878290       -0.0151989474        0.0117671534
 Ca         0.0038645510       -0.0036770003       -0.0032073823
 Ca         0.0016266459        0.0034459936        0.0055210733
 Ca         0.0044909626        0.0084866262        0.0038242761
 Ca        -0.0022175601        0.0000348007        0.0004266972
  S        -0.0091221403        0.0208271545       -0.0039581827
  S        -0.0209072545       -0.0577380295       -0.0251857031
  S         0.0153243339        0.0117963816        0.0013851615
  O         0.0344915593       -0.0242440342        0.0178483612
  O         0.0002500427        0.0209835289        0.0000826080
  O        -0.0126645160        0.0111099410        0.0029775476
  O        -0.0307507944        0.0060156854       -0.0160822750
  O        -0.0088319252        0.0144319113       -0.0033046360
  O        -0.0155180980        0.0106157402        0.0001549487
  O         0.0171603577        0.0097111395       -0.0035361464
  O         0.0036788128        0.0311694252        0.0008333903
  O         0.0099880074       -0.0001522359        0.0036164281
  O         0.0023038480        0.0089973266       -0.0012700921
  O         0.0275647890        0.0011335317        0.0276745213
  O        -0.0044027679        0.0132908481       -0.0148447667
  S         0.0255165091       -0.0407887394       -0.0422037453
  S        -0.0133127972       -0.0080370380       -0.0235279999
  S        -0.0295496234       -0.0085807387       -0.0121528031
  O        -0.0125559813       -0.0147484612        0.0221514548
  O        -0.0111764119       -0.0001142532       -0.0235782256
  O        -0.0010818720       -0.0055089812        0.0061334598
  O        -0.0003219424        0.0284332999       -0.0106999971
  O         0.0203642768       -0.0009971703        0.0234962727
  O         0.0046851972        0.0111180835        0.0050656670
  O        -0.0030190212        0.0231223896        0.0123092710
  O         0.0267202971        0.0221817611       -0.0503366936
  O         0.0171914641        0.0069615688        0.0195630034
  O        -0.0066869666        0.0056417010        0.0265434346
  O         0.0101043134       -0.0155963404        0.0014259868
  O         0.0061303461       -0.0049731808       -0.0096265131
  O         0.0048079604       -0.0123513017        0.0035624737
  O         0.0020882034        0.0186011292       -0.0021857694
  O         0.0097180849        0.0139484751       -0.0197457764
  H         0.0020465562        0.0034222331       -0.0007831063
  H        -0.0019548588       -0.0009473980       -0.0006884012
  H        -0.0047963373       -0.0180248906        0.0094407513
  H        -0.0186299928        0.0011395091       -0.0020815324
  H        -0.0033094900       -0.0100374847        0.0029887087
  H         0.0048165041       -0.0039134208        0.0007593855
 Ca        -0.0036628458        0.0027467333        0.0081710190
 Ca         0.0001220503       -0.0005393634        0.0011887244
 Ca        -0.0055642930        0.0081001399        0.0062733817
 Ca         0.0052408071       -0.0094679042        0.0000521566
 Ca        -0.0005482746        0.0014675696       -0.0052069487
 Ca         0.0034957014       -0.0088423146       -0.0064780476
  S        -0.0170366226       -0.0253493349        0.0284133884
  S         0.0061556992       -0.0428346598        0.0352454403
  S        -0.0094221587       -0.0282219273       -0.0016455083
  O        -0.0010137043        0.0145729392       -0.0069160653
  O         0.0102470564        0.0107801581        0.0024715471
  O        -0.0056738783        0.0059241072       -0.0018936777
  O         0.0019418941        0.0047654713       -0.0013544939
  O        -0.0055875552        0.0021157116        0.0003180521
  O        -0.0179883886       -0.0194350257        0.0088140475
  O         0.0111853800        0.0020157059       -0.0099348088
  O         0.0065793560        0.0319477933        0.0047063130
  O         0.0282253717       -0.0106788692        0.0142411547
  O         0.0100110809        0.0050959151       -0.0231850022
  O        -0.0155730375        0.0157871884       -0.0284019644
  O        -0.0045900966        0.0206819966        0.0039003778
  S        -0.0252581529       -0.0196630563       -0.0252243698
  S         0.0663576506        0.0170900081       -0.0204537710
  S         0.0141215928       -0.0138908703       -0.0168816120
  O         0.0340426782        0.0089145872        0.0245300046
  O        -0.0274828724       -0.0015807958        0.0088875343
  O         0.0013242389        0.0136787786        0.0046734730
  O        -0.0080773973       -0.0077351199        0.0010771275
  O        -0.0112614810       -0.0120789732        0.0112049301
  O        -0.0144195651        0.0142764513       -0.0010660159
  O        -0.0074778697        0.0260368407        0.0104124830
  O         0.0005509785       -0.0041481183       -0.0111880074
  O         0.0087294075        0.0024298817        0.0145197909
  O         0.0015126161       -0.0166575183        0.0128083812
  O         0.0136727422       -0.0119585400        0.0081325897
  O        -0.0109321143       -0.0027288520        0.0010083806
  O        -0.0136517570       -0.0139277047        0.0053790632
  O         0.0250703226       -0.0113178601        0.0095262298
  O        -0.0066226329        0.0053544778       -0.0023265439
  H         0.0204749695        0.0091136721       -0.0105834406
  H        -0.0218477351        0.0033163694       -0.0105123108
  H         0.0009718526        0.0032142039       -0.0026918100
  H        -0.0060658252        0.0099670929        0.0025672393
  H        -0.0009495507       -0.0043749055        0.0022402309
  H         0.0006826377       -0.0026511560        0.0013200478
 Ca         0.0042945927        0.0023921239       -0.0102992012
 Ca         0.0036906420       -0.0051452432        0.0008355432
 Ca        -0.0035344466       -0.0061329567       -0.0032971749
 Ca        -0.0024615937       -0.0062383000        0.0004173970
 Ca        -0.0099393128       -0.0020063389        0.0006431340
 Ca        -0.0004293179        0.0047064581       -0.0088080670
  S        -0.0332525500       -0.0254101721       -0.0047587190
  S        -0.0323459525       -0.0150374534        0.0211275772
  S         0.0092777451        0.0014821123        0.0101143670
  O         0.0091934367       -0.0013680404        0.0088498141
  O         0.0184277347        0.0040424506        0.0079389756
  O         0.0047671575        0.0008888450       -0.0206877323
  O         0.0151914773        0.0059854084        0.0176691168
  O         0.0033693724        0.0116679730       -0.0068610663
  O        -0.0052694477        0.0127536752        0.0022163508
  O        -0.0012699667       -0.0120069532        0.0172236268
  O        -0.0118307448       -0.0124281579       -0.0045675528
  O         0.0102368956       -0.0053288371       -0.0005997610
  O         0.0208609555        0.0245200780       -0.0105953219
  O         0.0086156097        0.0145636947       -0.0217433665
  O        -0.0038169666        0.0176680103       -0.0106104562
  S        -0.0123116010       -0.0408210574       -0.0128823137
  S         0.0247651982        0.0251269887        0.0218143242
  S        -0.0041896850        0.0517206094       -0.0021243816
  O         0.0037127936        0.0190033638       -0.0051212245
  O        -0.0432359779        0.0047959231       -0.0191395832
  O         0.0135413974        0.0166565980       -0.0044753844
  O        -0.0035172821        0.0032499092       -0.0044255793
  O         0.0103529357       -0.0263438516        0.0029012562
  O         0.0207383819       -0.0271180928        0.0009146324
  O        -0.0004780034        0.0172913720        0.0079722223
  O        -0.0231219199        0.0010115104        0.0100006772
  O        -0.0082738150       -0.0035373706       -0.0083071786
  O         0.0086315714        0.0118549353        0.0048922654
  O        -0.0007411641       -0.0123622064       -0.0020088229
  O        -0.0114159624       -0.0132284495        0.0070010448
  O         0.0465686438        0.0024618795       -0.0329762354
  O        -0.0114500579       -0.0280819871       -0.0063640240
  O        -0.0056675952        0.0136304258       -0.0000632661
  H        -0.0408157213       -0.0060638811        0.0274878761
  H         0.0115493219        0.0064505972        0.0048965653
  H        -0.0047461944       -0.0003128075       -0.0064661134
  H        -0.0006851498        0.0035403108       -0.0027385158
  H        -0.0008378872       -0.0006228690        0.0056047126
  H         0.0104090078       -0.0135948664       -0.0004430398
     180
 i =       22, time =       11.000, E =     -2871.7843015672
 Ca        -0.0071141391        0.0023410569        0.0009316506
 Ca        -0.0051907212       -0.0011960159        0.0027486700
 Ca         0.0021856214       -0.0037873176        0.0041058617
 Ca        -0.0024869222        0.0037666905       -0.0050770747
 Ca        -0.0051584309        0.0003334288        0.0009405651
 Ca        -0.0038072552        0.0059715393        0.0014014471
  S        -0.0060352801        0.0350687387       -0.0306767273
  S         0.0222499105        0.0268609037        0.0187663537
  S         0.0282135325       -0.0198306864        0.0340450160
  O         0.0100828883       -0.0409926064        0.0121654190
  O        -0.0146021061       -0.0214132039        0.0141122956
  O        -0.0154644434       -0.0014595719       -0.0287267855
  O         0.0048818319       -0.0014633602        0.0182081393
  O        -0.0065236708       -0.0093760966       -0.0091363601
  O        -0.0105196356       -0.0112696345        0.0149619351
  O        -0.0109652926       -0.0082322901       -0.0118388792
  O         0.0067237568        0.0140560439        0.0028085828
  O         0.0030835702       -0.0016694448       -0.0060742748
  O        -0.0140334519       -0.0000381798        0.0108611677
  O         0.0051770268       -0.0068599813       -0.0131728481
  O        -0.0052280442       -0.0060941451       -0.0182331587
  S         0.0174973350        0.0083416338        0.0085604591
  S        -0.0316830267       -0.0042773723        0.0351459405
  S         0.0454977805       -0.0027886386        0.0179249578
  O        -0.0049786717        0.0022362117        0.0027221994
  O        -0.0288834257        0.0052625696       -0.0137909266
  O         0.0000576114        0.0372599820       -0.0110038459
  O        -0.0049096058       -0.0021286507        0.0051103477
  O         0.0272005272        0.0052160478        0.0177587471
  O        -0.0010289584       -0.0050028322        0.0145601096
  O         0.0071562475       -0.0182836454       -0.0008977798
  O         0.0258913005       -0.0037497706       -0.0130605081
  O        -0.0486291047       -0.0093917958       -0.0420847002
  O        -0.0098692242       -0.0008406101        0.0013125548
  O        -0.0260733219        0.0151902996        0.0252685070
  O         0.0103826333        0.0161252878        0.0083501299
  O        -0.0161024409       -0.0190852782        0.0118118787
  O        -0.0027636293       -0.0313269021        0.0095956420
  O        -0.0034220189       -0.0171464147        0.0062275912
  H         0.0248724096        0.0055318342       -0.0179945678
  H         0.0019928498       -0.0025754779        0.0026405969
  H         0.0063482827        0.0151833416       -0.0070755381
  H        -0.0040611601        0.0069300688        0.0059719732
  H        -0.0031489861        0.0054758170       -0.0022194644
  H         0.0040828236        0.0091862709        0.0053942686
 Ca         0.0059298765        0.0081777335       -0.0000946193
 Ca        -0.0059005866       -0.0152686116        0.0124452642
 Ca         0.0039635082       -0.0040657305       -0.0030237214
 Ca         0.0010434935        0.0034714669        0.0056513756
 Ca         0.0045722529        0.0086975280        0.0038338857
 Ca        -0.0022693041       -0.0002171311        0.0005911781
  S        -0.0082117106        0.0193769415       -0.0051242082
  S        -0.0151200278       -0.0550086359       -0.0219139088
  S         0.0166649783        0.0099049815        0.0016613995
  O         0.0340255934       -0.0236151069        0.0189699485
  O        -0.0000914350        0.0209778487        0.0012311919
  O        -0.0130810173        0.0117070017        0.0023032770
  O        -0.0311823572        0.0065427660       -0.0156386935
  O        -0.0083556548        0.0126619719       -0.0047747812
  O        -0.0158259528        0.0104667408        0.0009776759
  O         0.0191978768        0.0101605972       -0.0034164102
  O         0.0019996801        0.0290222227        0.0004890006
  O         0.0097936484        0.0001908365        0.0033008119
  O         0.0017483345        0.0085951238       -0.0001553375
  O         0.0230710531        0.0021940012        0.0243098491
  O        -0.0037594535        0.0126029561       -0.0159224342
  S         0.0246530321       -0.0393475100       -0.0405543277
  S        -0.0143413451       -0.0056615787       -0.0229095693
  S        -0.0294611974       -0.0082014696       -0.0116848186
  O        -0.0125797740       -0.0147071993        0.0208984467
  O        -0.0111380630       -0.0007395028       -0.0205259846
  O        -0.0017126254       -0.0061156030        0.0068409506
  O         0.0002509901        0.0289072510       -0.0113608984
  O         0.0202241802       -0.0026611757        0.0233577688
  O         0.0050029043        0.0112870626        0.0052544974
  O         0.0000469014        0.0211085298        0.0115848175
  O         0.0266185156        0.0213605723       -0.0500857783
  O         0.0174087627        0.0070863454        0.0193613819
  O        -0.0079862013        0.0055467265        0.0256928663
  O         0.0079407921       -0.0146201667        0.0036670169
  O         0.0063847524       -0.0054603245       -0.0099715730
  O         0.0048140336       -0.0109107469        0.0032391170
  O         0.0044303957        0.0147499758       -0.0130274276
  O         0.0106872869        0.0184984423       -0.0226289480
  H         0.0021924582        0.0034969316       -0.0011750223
  H        -0.0005573960       -0.0008784889        0.0013021680
  H        -0.0063728100       -0.0218523609        0.0122220541
  H        -0.0192898208       -0.0007149458       -0.0014942888
  H        -0.0064917749       -0.0051968464        0.0100752875
  H         0.0056954460       -0.0049336352        0.0006431008
 Ca        -0.0038066280        0.0025608693        0.0085461096
 Ca         0.0000603079       -0.0005262788        0.0013683740
 Ca        -0.0058055404        0.0084277454        0.0068835043
 Ca         0.0057645640       -0.0100287172       -0.0005712294
 Ca        -0.0003046534        0.0015180370       -0.0056886687
 Ca         0.0034468908       -0.0091878552       -0.0065193141
  S        -0.0167302632       -0.0250874613        0.0284702231
  S         0.0045660177       -0.0403732441        0.0335663657
  S        -0.0076028767       -0.0273526711        0.0001861407
  O        -0.0009788601        0.0149733282       -0.0068918734
  O         0.0096358804        0.0105714546        0.0034825208
  O        -0.0061274016        0.0050740300       -0.0021831722
  O         0.0017850450        0.0055702473       -0.0005517011
  O        -0.0048034662        0.0009616096        0.0002160589
  O        -0.0172984541       -0.0192682811        0.0079600177
  O         0.0108985519        0.0020952597       -0.0102059636
  O         0.0057974139        0.0313393525        0.0027691658
  O         0.0278408241       -0.0102928764        0.0134064742
  O         0.0097896993        0.0041541762       -0.0227378917
  O        -0.0141239609        0.0153866188       -0.0280059195
  O        -0.0039510993        0.0199790648        0.0030324807
  S        -0.0225792583       -0.0166471963       -0.0215670116
  S         0.0628694022        0.0168596949       -0.0199231828
  S         0.0144317789       -0.0134779696       -0.0165010562
  O         0.0336900659        0.0064038838        0.0247531657
  O        -0.0262899181       -0.0020523224        0.0112865949
  O         0.0009609409        0.0129786198        0.0053667559
  O        -0.0085214351       -0.0079146854        0.0008723408
  O        -0.0102886305       -0.0116070203        0.0124781561
  O        -0.0145800782        0.0132044490       -0.0010605757
  O        -0.0065972225        0.0254915280        0.0114167478
  O         0.0007583904       -0.0036393770       -0.0117895996
  O         0.0086281435        0.0026389123        0.0141883988
  O        -0.0016871234       -0.0177068662        0.0102644178
  O         0.0136118062       -0.0112390081        0.0090505580
  O        -0.0110734417       -0.0026954884        0.0011985555
  O        -0.0191409530       -0.0131384136        0.0079157342
  O         0.0166138140       -0.0086617216        0.0150516972
  O        -0.0086427705        0.0085009585       -0.0000257637
  H         0.0236318166        0.0106487189       -0.0118808977
  H        -0.0205826958        0.0039203492       -0.0091086711
  H         0.0013219477        0.0045045997       -0.0036140020
  H        -0.0037632371        0.0079978118        0.0013362238
  H         0.0053592766       -0.0065815805       -0.0043656539
  H         0.0039715801       -0.0070327549        0.0013585902
 Ca         0.0040337235        0.0025142831       -0.0105511655
 Ca         0.0036212769       -0.0055674830        0.0007630062
 Ca        -0.0034541541       -0.0065552820       -0.0033924086
 Ca        -0.0025830480       -0.0059887686        0.0005959954
 Ca        -0.0100082532       -0.0017799962        0.0002688802
 Ca        -0.0006821904        0.0047594350       -0.0088956023
  S        -0.0322343690       -0.0247678421       -0.0048921477
  S        -0.0339239266       -0.0151241666        0.0198500438
  S         0.0073340358        0.0011976549        0.0123579592
  O         0.0093783568       -0.0011628248        0.0086192688
  O         0.0185174620        0.0037453602        0.0090631104
  O         0.0053540698        0.0012450797       -0.0202626322
  O         0.0154586736        0.0061901759        0.0177006450
  O         0.0038601122        0.0116423901       -0.0039570216
  O        -0.0060143556        0.0123641200        0.0028010358
  O        -0.0020251060       -0.0128949474        0.0181465117
  O        -0.0114086129       -0.0120439354       -0.0042971982
  O         0.0105446424       -0.0052267640       -0.0006166682
  O         0.0204456053        0.0236928745       -0.0126956687
  O         0.0093212056        0.0144479161       -0.0217493162
  O        -0.0035058908        0.0178033667       -0.0122004666
  S        -0.0107993866       -0.0382382608       -0.0109728407
  S         0.0220514856        0.0264343819        0.0182432728
  S        -0.0033970164        0.0503503191       -0.0028828671
  O         0.0026540623        0.0168460648       -0.0059061104
  O        -0.0415152190        0.0024990337       -0.0163188959
  O         0.0128412898        0.0168253688       -0.0053446299
  O        -0.0030362404        0.0030099855       -0.0037662993
  O         0.0110704271       -0.0262041979        0.0039858423
  O         0.0198343245       -0.0251303740        0.0015969382
  O        -0.0003948324        0.0164210070        0.0002707971
  O        -0.0222540497        0.0027519132        0.0080072069
  O        -0.0080338038       -0.0034684884       -0.0077702215
  O         0.0076966591        0.0120715127        0.0035549588
  O         0.0007859198       -0.0129567346       -0.0030117989
  O        -0.0114289544       -0.0133258779        0.0076512575
  O         0.0475114058        0.0065089449       -0.0342801944
  O        -0.0084646979       -0.0308833844       -0.0044134358
  O        -0.0105808204        0.0200570877        0.0016939435
  H        -0.0451468305       -0.0056771788        0.0303029522
  H         0.0082192263        0.0071808189        0.0028387087
  H        -0.0047895955       -0.0015212940       -0.0063531880
  H         0.0027731567       -0.0006217489       -0.0044691706
  H        -0.0017007411        0.0005836574        0.0060467443
  H         0.0147315012       -0.0186882562       -0.0013385602
     180
 i =       23, time =       11.500, E =     -2871.7826891235
 Ca        -0.0072589570        0.0027398562        0.0007554406
 Ca        -0.0052094578       -0.0015037698        0.0028255737
 Ca         0.0020521874       -0.0037455505        0.0044752123
 Ca        -0.0028301565        0.0040106891       -0.0051182297
 Ca        -0.0056083624        0.0007052569        0.0009515719
 Ca        -0.0035550308        0.0061776007        0.0013974573
  S        -0.0043191609        0.0340114871       -0.0303973067
  S         0.0209214045        0.0254686341        0.0180765998
  S         0.0250920412       -0.0184917270        0.0330709969
  O         0.0084851259       -0.0403140494        0.0121468753
  O        -0.0147649032       -0.0212158732        0.0134946603
  O        -0.0151088031       -0.0007337289       -0.0284693082
  O         0.0043869178       -0.0020450826        0.0176462781
  O        -0.0070690981       -0.0088847780       -0.0089994072
  O        -0.0105364496       -0.0110737777        0.0138073476
  O        -0.0114617211       -0.0078258440       -0.0115244730
  O         0.0077792858        0.0160270312        0.0019897448
  O         0.0049464557       -0.0029558391       -0.0051156683
  O        -0.0143195872        0.0002143747        0.0106236628
  O         0.0064495626       -0.0077135449       -0.0122743547
  O        -0.0062399750       -0.0053694154       -0.0174799302
  S         0.0161574834        0.0064458460        0.0076432722
  S        -0.0284037852       -0.0038201788        0.0321332032
  S         0.0432151769       -0.0033592938        0.0128420589
  O        -0.0037450800        0.0034506556        0.0028167739
  O        -0.0282815014        0.0048860443       -0.0131905071
  O         0.0001158865        0.0355269549       -0.0110434461
  O        -0.0048705850       -0.0020471225        0.0045740489
  O         0.0268102762        0.0036396985        0.0156824890
  O        -0.0014627353       -0.0049775226        0.0146502924
  O         0.0069295248       -0.0176502513       -0.0013762278
  O         0.0262659347       -0.0041301392       -0.0133021799
  O        -0.0465880521       -0.0090120423       -0.0377742204
  O        -0.0086600442       -0.0005704072        0.0030750198
  O        -0.0254604530        0.0147948179        0.0251204018
  O         0.0106817948        0.0163074504        0.0086076581
  O        -0.0115675943       -0.0213999034        0.0085498396
  O        -0.0001512787       -0.0307989797        0.0081274913
  O        -0.0013223094       -0.0197555669        0.0053756438
  H         0.0226612756        0.0044373675       -0.0161774068
  H         0.0019006610       -0.0011781322        0.0012367167
  H         0.0059068914        0.0157617787       -0.0068725685
  H        -0.0063131163        0.0100031624        0.0068673376
  H        -0.0053924476        0.0052259608        0.0005389691
  H         0.0027249889        0.0114032879        0.0062134408
 Ca         0.0060178070        0.0077482517       -0.0003345771
 Ca        -0.0058942219       -0.0152590061        0.0131018333
 Ca         0.0040267424       -0.0044529219       -0.0028391753
 Ca         0.0005140463        0.0035286129        0.0057822079
 Ca         0.0046831035        0.0088944698        0.0038232196
 Ca        -0.0023184070       -0.0005022086        0.0007629693
  S        -0.0071895025        0.0176645824       -0.0063896772
  S        -0.0091600064       -0.0517046202       -0.0183366818
  S         0.0178424932        0.0078736967        0.0019999227
  O         0.0333002743       -0.0228051602        0.0197973997
  O        -0.0004279682        0.0209296970        0.0022599668
  O        -0.0133954439        0.0121492495        0.0016046625
  O        -0.0314239645        0.0070569577       -0.0150047296
  O        -0.0078082468        0.0107583617       -0.0061369086
  O        -0.0161527957        0.0102411271        0.0019298372
  O         0.0182999530        0.0100851356       -0.0036111418
  O         0.0001074181        0.0264397723        0.0000978786
  O         0.0096052400        0.0005416915        0.0029675908
  O         0.0012399714        0.0081093865        0.0022186626
  O         0.0185070433        0.0031338702        0.0207624654
  O        -0.0031358364        0.0118774165       -0.0169200936
  S         0.0236384885       -0.0376484446       -0.0386366865
  S        -0.0154049641       -0.0030402851       -0.0221469877
  S        -0.0292422460       -0.0077618433       -0.0111238352
  O        -0.0128851468       -0.0145784545        0.0199419119
  O        -0.0108353776       -0.0013863800       -0.0181046247
  O        -0.0023464002       -0.0066415665        0.0074795571
  O         0.0008696407        0.0292973179       -0.0119017454
  O         0.0201622835       -0.0043508292        0.0230248088
  O         0.0053841587        0.0113496247        0.0050069446
  O         0.0032244943        0.0189397662        0.0107386186
  O         0.0264009019        0.0203456906       -0.0495853288
  O         0.0175238036        0.0071965356        0.0191291931
  O        -0.0093273158        0.0054190900        0.0245880329
  O         0.0055457902       -0.0135315119        0.0059528531
  O         0.0065843530       -0.0061341821       -0.0102627381
  O         0.0051864618       -0.0093888399        0.0030794961
  O         0.0068628105        0.0110525020       -0.0235570350
  O         0.0116203661        0.0203968234       -0.0243760359
  H         0.0022942847        0.0035574917       -0.0014755561
  H         0.0007488135       -0.0008299126        0.0032142236
  H        -0.0072123391       -0.0237748551        0.0136741444
  H        -0.0171008342       -0.0021058995       -0.0008606845
  H        -0.0097183423       -0.0005872728        0.0169703384
  H         0.0060510711       -0.0053710640        0.0006917750
 Ca        -0.0039403054        0.0023525402        0.0088722490
 Ca         0.0000111020       -0.0005246279        0.0015508832
 Ca        -0.0060474339        0.0087447401        0.0074764315
 Ca         0.0063041975       -0.0106433097       -0.0012541886
 Ca        -0.0000646547        0.0016190194       -0.0062051294
 Ca         0.0033843173       -0.0095097713       -0.0065357813
  S        -0.0163219393       -0.0246505543        0.0283661651
  S         0.0028849284       -0.0375270754        0.0315596282
  S        -0.0057317016       -0.0263521629        0.0020887994
  O        -0.0009083720        0.0153294515       -0.0068276728
  O         0.0089048089        0.0102950377        0.0044125223
  O        -0.0067809250        0.0042701288       -0.0022622239
  O         0.0016660403        0.0062965887        0.0003657506
  O        -0.0039798251       -0.0002473146        0.0001230262
  O        -0.0168164972       -0.0189373463        0.0070104706
  O         0.0109031852        0.0023811715       -0.0105012562
  O         0.0048853948        0.0305134036        0.0010649190
  O         0.0273655343       -0.0099097024        0.0123754827
  O         0.0094696327        0.0030583384       -0.0221203265
  O        -0.0124359696        0.0148991010       -0.0272566249
  O        -0.0033036435        0.0192761743        0.0021113434
  S        -0.0197672155       -0.0133773296       -0.0176880758
  S         0.0589251266        0.0164814762       -0.0192576485
  S         0.0146812511       -0.0129762136       -0.0159908664
  O         0.0329312823        0.0036277151        0.0243874944
  O        -0.0248767783       -0.0026423283        0.0133381859
  O         0.0005811236        0.0122301678        0.0060464753
  O        -0.0090085678       -0.0081296592        0.0006814620
  O        -0.0093294293       -0.0110705175        0.0134982475
  O        -0.0145882478        0.0121622518       -0.0009859093
  O        -0.0055770314        0.0246067590        0.0129057598
  O         0.0009320425       -0.0028822420       -0.0122112627
  O         0.0085776070        0.0028732404        0.0136598618
  O        -0.0047960653       -0.0181829630        0.0072886135
  O         0.0134983117       -0.0104210823        0.0099695676
  O        -0.0111922173       -0.0023657948        0.0009378075
  O        -0.0212816783       -0.0116674134        0.0090695346
  O         0.0076701065       -0.0060892721        0.0191764650
  O        -0.0102186318        0.0115977745        0.0018667929
  H         0.0233184641        0.0123542863       -0.0115155803
  H        -0.0181408459        0.0040968580       -0.0072358824
  H         0.0014508874        0.0052757751       -0.0041145156
  H        -0.0013333884        0.0052586297        0.0000037192
  H         0.0108927531       -0.0081666936       -0.0097108922
  H         0.0069247282       -0.0108681224        0.0013878019
 Ca         0.0037424499        0.0026358608       -0.0107579080
 Ca         0.0035356562       -0.0059839806        0.0006810898
 Ca        -0.0034005075       -0.0070005590       -0.0034451648
 Ca        -0.0026953538       -0.0057028046        0.0007542118
 Ca        -0.0100347579       -0.0015965677       -0.0001041997
 Ca        -0.0009407185        0.0047906302       -0.0089697839
  S        -0.0309166193       -0.0239294121       -0.0050540411
  S        -0.0354321969       -0.0151158655        0.0183851199
  S         0.0051426519        0.0007436820        0.0146177741
  O         0.0098341131       -0.0006344169        0.0084482402
  O         0.0185526858        0.0034177205        0.0102380504
  O         0.0059935650        0.0017200625       -0.0197204556
  O         0.0156247782        0.0063923510        0.0176034513
  O         0.0042413135        0.0115527948       -0.0008560361
  O        -0.0067697195        0.0119451420        0.0034204414
  O        -0.0030289948       -0.0136961659        0.0188861258
  O        -0.0109431471       -0.0115996319       -0.0039686324
  O         0.0108136729       -0.0050631843       -0.0006831890
  O         0.0197556602        0.0227054833       -0.0138419592
  O         0.0100873813        0.0142689953       -0.0216388158
  O        -0.0029045649        0.0176590104       -0.0136636578
  S        -0.0091227303       -0.0351807393       -0.0089681426
  S         0.0191244792        0.0276706451        0.0143638666
  S        -0.0025029934        0.0485984299       -0.0036891656
  O         0.0015234606        0.0143353857       -0.0068036813
  O        -0.0394106120        0.0000930691       -0.0133620558
  O         0.0120187608        0.0168405946       -0.0063057173
  O        -0.0023909419        0.0028892558       -0.0029772227
  O         0.0115995720       -0.0259250385        0.0057013075
  O         0.0187884552       -0.0228818528        0.0024779463
  O         0.0000805358        0.0152490817       -0.0017199439
  O        -0.0212667233        0.0045285390        0.0058628454
  O        -0.0077474467       -0.0033833727       -0.0071670045
  O         0.0066873814        0.0121668428        0.0020285295
  O         0.0022323064       -0.0133871045       -0.0039245983
  O        -0.0114331450       -0.0131456131        0.0082949477
  O         0.0451889828        0.0096852818       -0.0333369471
  O        -0.0077056114       -0.0330424365       -0.0022882036
  O        -0.0138207735        0.0240097600        0.0036579924
  H        -0.0458653769       -0.0047029725        0.0307203681
  H         0.0047240082        0.0077728532        0.0007039348
  H        -0.0047494034       -0.0026709911       -0.0062724521
  H         0.0059456370       -0.0045042561       -0.0059991216
  H        -0.0021042832        0.0016243123        0.0060931918
  H         0.0172529795       -0.0213882196       -0.0020101724
     180
 i =       24, time =       12.000, E =     -2871.7824236096
 Ca        -0.0074051387        0.0031592572        0.0005846159
 Ca        -0.0052122400       -0.0018422865        0.0028954307
 Ca         0.0019624089       -0.0036565785        0.0047701510
 Ca        -0.0031626625        0.0042548589       -0.0051632452
 Ca        -0.0059994784        0.0011231052        0.0009355764
 Ca        -0.0032738569        0.0063888615        0.0013878206
  S        -0.0024618193        0.0327165486       -0.0299619415
  S         0.0194366464        0.0239063937        0.0173434334
  S         0.0218256192       -0.0171240318        0.0317723781
  O         0.0068865428       -0.0394031358        0.0120544290
  O        -0.0146126935       -0.0210469221        0.0128293820
  O        -0.0146548699        0.0000351593       -0.0279831703
  O         0.0038964204       -0.0025877278        0.0168719549
  O        -0.0074742236       -0.0082504074       -0.0088643321
  O        -0.0104586924       -0.0105655926        0.0126759670
  O        -0.0121701324       -0.0075771057       -0.0110858972
  O         0.0086793838        0.0174929897        0.0013049051
  O         0.0068317922       -0.0042345049       -0.0040925034
  O        -0.0145480351        0.0004728119        0.0103072846
  O         0.0076657070       -0.0084630537       -0.0112345898
  O        -0.0072563002       -0.0047277738       -0.0166524439
  S         0.0146509335        0.0043913954        0.0066626101
  S        -0.0249301920       -0.0031275005        0.0288073407
  S         0.0406901159       -0.0039035365        0.0074546844
  O        -0.0021301827        0.0043921149        0.0032142593
  O        -0.0274663189        0.0040599738       -0.0125198648
  O         0.0002075182        0.0335251019       -0.0110314472
  O        -0.0047924853       -0.0019317091        0.0039532487
  O         0.0262633852        0.0021174835        0.0137290523
  O        -0.0016300544       -0.0049726917        0.0144628381
  O         0.0067035930       -0.0168110195       -0.0016785085
  O         0.0264964845       -0.0045774772       -0.0132360683
  O        -0.0441806989       -0.0084414559       -0.0331792467
  O        -0.0073787317        0.0000114090        0.0047942180
  O        -0.0246507786        0.0142995272        0.0247957688
  O         0.0110001364        0.0164588308        0.0087853280
  O        -0.0051399515       -0.0215792161        0.0024640291
  O         0.0025366750       -0.0300940246        0.0067399051
  O         0.0012658597       -0.0201130177        0.0031837142
  H         0.0173193231        0.0024334310       -0.0118506239
  H         0.0016444672        0.0003518388       -0.0001351463
  H         0.0045334477        0.0151589815       -0.0051166425
  H        -0.0077606492        0.0120455687        0.0074383521
  H        -0.0074195956        0.0048506853        0.0030712122
  H         0.0017586244        0.0125219112        0.0067710605
 Ca         0.0060857074        0.0072567774       -0.0005279050
 Ca        -0.0058790881       -0.0151681160        0.0137480405
 Ca         0.0040616189       -0.0048303793       -0.0026615502
 Ca         0.0000702872        0.0036238326        0.0059210285
 Ca         0.0048313520        0.0090820504        0.0037953581
 Ca        -0.0023650565       -0.0008237798        0.0009415518
  S        -0.0060579685        0.0156981088       -0.0077653178
  S        -0.0030960680       -0.0478356290       -0.0144677617
  S         0.0188413919        0.0057159301        0.0023909022
  O         0.0323092427       -0.0211288591        0.0208944588
  O        -0.0007425718        0.0208261996        0.0031447389
  O        -0.0136454010        0.0124251663        0.0011234880
  O        -0.0315005834        0.0075895230       -0.0142060856
  O        -0.0071476240        0.0087787713       -0.0072604207
  O        -0.0164996507        0.0099361650        0.0030130259
  O         0.0147668143        0.0096453401       -0.0041298128
  O        -0.0019319487        0.0234694804       -0.0003009108
  O         0.0094317098        0.0008905947        0.0026162491
  O         0.0007934694        0.0075825389        0.0046384480
  O         0.0139259300        0.0038828408        0.0169919804
  O        -0.0025302617        0.0111946659       -0.0178654616
  S         0.0224907700       -0.0357310137       -0.0364707566
  S        -0.0164867703       -0.0001886759       -0.0211934538
  S        -0.0288934548       -0.0072660481       -0.0104747087
  O        -0.0132044239       -0.0144048299        0.0167554221
  O        -0.0102999142       -0.0020614777       -0.0179472408
  O        -0.0029797484       -0.0070768034        0.0082348809
  O         0.0014801823        0.0295956720       -0.0123369731
  O         0.0201578601       -0.0060344526        0.0224473601
  O         0.0058249293        0.0113316466        0.0047222127
  O         0.0064095658        0.0165882585        0.0098302484
  O         0.0260306706        0.0191218255       -0.0488440915
  O         0.0175296542        0.0072844224        0.0187939356
  O        -0.0107062412        0.0052673141        0.0234615739
  O         0.0029846232       -0.0122344847        0.0084019733
  O         0.0066048925       -0.0071203175       -0.0106969393
  O         0.0057700491       -0.0079366781        0.0029088592
  O         0.0087812440        0.0079418855       -0.0325792393
  O         0.0125553730        0.0195642193       -0.0250763099
  H         0.0023334575        0.0036092931       -0.0016614018
  H         0.0018457545       -0.0007690285        0.0049884376
  H        -0.0073203633       -0.0237670125        0.0137858055
  H        -0.0123939815       -0.0031654655       -0.0001484211
  H        -0.0122867892        0.0033037903        0.0225782183
  H         0.0058350076       -0.0051758820        0.0009245115
 Ca        -0.0040646154        0.0021200266        0.0091453386
 Ca        -0.0000197049       -0.0005345283        0.0017363496
 Ca        -0.0062873643        0.0090527272        0.0080686439
 Ca         0.0068434011       -0.0113130048       -0.0019858017
 Ca         0.0001614722        0.0017588943       -0.0067610571
 Ca         0.0033078628       -0.0098013546       -0.0065218538
  S        -0.0158140974       -0.0240511357        0.0281137002
  S         0.0011506997       -0.0342948389        0.0291725391
  S        -0.0038330154       -0.0252838975        0.0040345400
  O        -0.0007984484        0.0156485835       -0.0067208805
  O         0.0080422495        0.0099389758        0.0053062364
  O        -0.0076410021        0.0035603804       -0.0020947824
  O         0.0015743608        0.0069037323        0.0012951089
  O        -0.0031408306       -0.0014825328        0.0000515424
  O        -0.0166837094       -0.0183780073        0.0058763425
  O         0.0109944147        0.0027968108       -0.0108473408
  O         0.0039690276        0.0295447519       -0.0005020677
  O         0.0268031219       -0.0095514851        0.0111522985
  O         0.0090277100        0.0018050376       -0.0212752668
  O        -0.0104537182        0.0143174411       -0.0267732982
  O        -0.0026444533        0.0186040486        0.0011182837
  S        -0.0168649580       -0.0098725158       -0.0136299948
  S         0.0545681297        0.0159640277       -0.0184634328
  S         0.0148613932       -0.0123885778       -0.0153548841
  O         0.0320882354        0.0004839574        0.0233645181
  O        -0.0232535069       -0.0034174112        0.0150450996
  O         0.0001892516        0.0114094938        0.0066409807
  O        -0.0095258080       -0.0082799443        0.0004745528
  O        -0.0083967277       -0.0104506878        0.0143541070
  O        -0.0144504108        0.0111617340       -0.0007098982
  O        -0.0044193360        0.0232702660        0.0132897053
  O         0.0010666127       -0.0018204720       -0.0124415561
  O         0.0085515603        0.0031458000        0.0129672761
  O        -0.0079361601       -0.0184962483        0.0038317828
  O         0.0133313631       -0.0094987349        0.0109093959
  O        -0.0113562980       -0.0017742011        0.0002868595
  O        -0.0201654791       -0.0099022374        0.0090190559
  O        -0.0017727014       -0.0036249061        0.0208974533
  O        -0.0110482935        0.0142348000        0.0031115076
  H         0.0196723544        0.0143143985       -0.0096357606
  H        -0.0142138491        0.0037401648       -0.0047870634
  H         0.0013273527        0.0054523104       -0.0041304816
  H         0.0011067898        0.0021135730       -0.0013531682
  H         0.0154194653       -0.0090815729       -0.0136479697
  H         0.0091764782       -0.0136349706        0.0014362070
 Ca         0.0034290134        0.0027581507       -0.0109243543
 Ca         0.0034296248       -0.0063923578        0.0005946271
 Ca        -0.0033833815       -0.0074691989       -0.0034455112
 Ca        -0.0027980725       -0.0053883612        0.0008879416
 Ca        -0.0100220365       -0.0014722868       -0.0004688308
 Ca        -0.0012008472        0.0047931902       -0.0090248390
  S        -0.0293090874       -0.0229120419       -0.0052173813
  S        -0.0368657346       -0.0150180989        0.0167560994
  S         0.0026996589        0.0001191540        0.0168796073
  O         0.0105759128        0.0001894617        0.0083541194
  O         0.0185319880        0.0030605334        0.0114388639
  O         0.0066724354        0.0023385185       -0.0191108110
  O         0.0156485939        0.0065687649        0.0173648493
  O         0.0044907116        0.0113799366        0.0009155889
  O        -0.0075270095        0.0115124737        0.0040744540
  O        -0.0038100210       -0.0144524173        0.0192195491
  O        -0.0104328839       -0.0110983876       -0.0035777355
  O         0.0111174919       -0.0048177170       -0.0007486238
  O         0.0188118840        0.0215404562       -0.0135487895
  O         0.0109001429        0.0140175245       -0.0214176403
  O        -0.0022065280        0.0172847557       -0.0150728719
  S        -0.0072788791       -0.0316567969       -0.0068730340
  S         0.0160225387        0.0287927903        0.0102225400
  S        -0.0015252249        0.0464899926       -0.0045355932
  O         0.0003457677        0.0114898108       -0.0077503684
  O        -0.0369763344       -0.0023944718       -0.0102081387
  O         0.0110464352        0.0167666201       -0.0071972844
  O        -0.0016745294        0.0027487876       -0.0021587019
  O         0.0119344322       -0.0255490697        0.0076877099
  O         0.0175146250       -0.0206964098        0.0033542323
  O         0.0012917442        0.0138524443       -0.0020049964
  O        -0.0201877983        0.0063500117        0.0036056821
  O        -0.0074183142       -0.0032855965       -0.0065185620
  O         0.0056105253        0.0121512652        0.0003625712
  O         0.0035393146       -0.0133561220       -0.0046128371
  O        -0.0113780473       -0.0127847309        0.0089107356
  O         0.0394840561        0.0117202960       -0.0303157930
  O        -0.0064257889       -0.0346794211        0.0002055038
  O        -0.0149641852        0.0247994101        0.0068241776
  H        -0.0430048968       -0.0031779279        0.0287530773
  H         0.0012794615        0.0080524557       -0.0013552372
  H        -0.0045715914       -0.0036608559       -0.0062694222
  H         0.0086823332       -0.0078234668       -0.0072600889
  H        -0.0020134597        0.0024779260        0.0056984734
  H         0.0175349773       -0.0210727125       -0.0025268968
     180
 i =       25, time =       12.500, E =     -2871.7831194357
 Ca        -0.0075529505        0.0035862709        0.0004324544
 Ca        -0.0051988375       -0.0022074764        0.0029585938
 Ca         0.0019267462       -0.0035269599        0.0049781957
 Ca        -0.0034841262        0.0045049205       -0.0052167030
 Ca        -0.0063332873        0.0015943924        0.0008783154
 Ca        -0.0029689606        0.0066042957        0.0013758034
  S        -0.0004975501        0.0312063337       -0.0293776920
  S         0.0178086589        0.0221821348        0.0166041217
  S         0.0184717305       -0.0157584841        0.0301589171
  O         0.0053142865       -0.0383270550        0.0120059752
  O        -0.0140925870       -0.0208106149        0.0121609020
  O        -0.0141044154        0.0008302934       -0.0272449086
  O         0.0034162437       -0.0030745077        0.0161245338
  O        -0.0078153954       -0.0074472891       -0.0088817709
  O        -0.0100842464       -0.0099409262        0.0114338173
  O        -0.0129109327       -0.0074404285       -0.0105671856
  O         0.0094451634        0.0185613021        0.0007094951
  O         0.0086960015       -0.0055057881       -0.0029845142
  O        -0.0147177967        0.0007364538        0.0099064272
  O         0.0088023353       -0.0091207296       -0.0100618317
  O        -0.0083804733       -0.0040472122       -0.0159796371
  S         0.0130049208        0.0022181981        0.0056478054
  S        -0.0213104388       -0.0021772878        0.0251985471
  S         0.0379909621       -0.0044041540        0.0018937864
  O        -0.0004597058        0.0052023871        0.0038693931
  O        -0.0265364031        0.0029031020       -0.0118904095
  O         0.0002331800        0.0312922582       -0.0109761682
  O        -0.0046740090       -0.0017876682        0.0032519193
  O         0.0255628189        0.0006336786        0.0120482013
  O        -0.0013502915       -0.0049799395        0.0139495785
  O         0.0064940209       -0.0157674981       -0.0018392857
  O         0.0265591921       -0.0047861168       -0.0132460153
  O        -0.0414825960       -0.0078453288       -0.0282637599
  O        -0.0060459201        0.0005232003        0.0064611646
  O        -0.0237489863        0.0133172302        0.0241805578
  O         0.0113506998        0.0165776785        0.0089068031
  O         0.0022410376       -0.0195783478       -0.0048877576
  O         0.0050798384       -0.0291270166        0.0056573567
  O         0.0041783648       -0.0183451804       -0.0000070086
  H         0.0100241112       -0.0001170103       -0.0059292076
  H         0.0013035699        0.0019341341       -0.0014192868
  H         0.0023898728        0.0135961287       -0.0021054688
  H        -0.0081938148        0.0126823772        0.0076094000
  H        -0.0091183766        0.0042951140        0.0050976325
  H         0.0012260389        0.0124548821        0.0070418962
 Ca         0.0061282025        0.0067126286       -0.0006770318
 Ca        -0.0058624543       -0.0149990227        0.0143815084
 Ca         0.0040773698       -0.0051837758       -0.0025019989
 Ca        -0.0002696080        0.0037586495        0.0060617872
 Ca         0.0050181278        0.0092637263        0.0037470775
 Ca        -0.0024071288       -0.0011780028        0.0011284478
  S        -0.0048529207        0.0135107888       -0.0092016156
  S         0.0029574976       -0.0434377150       -0.0103708562
  S         0.0196461124        0.0034613601        0.0028216286
  O         0.0310192572       -0.0180203362        0.0224638743
  O        -0.0010525308        0.0206479470        0.0038633410
  O        -0.0138421502        0.0125441541        0.0004388250
  O        -0.0314188890        0.0081235959       -0.0132898712
  O        -0.0062767310        0.0066796250       -0.0082333924
  O        -0.0168543022        0.0095643133        0.0042005921
  O         0.0095112910        0.0090942929       -0.0047925264
  O        -0.0040320956        0.0202257170       -0.0006538483
  O         0.0092897462        0.0012295216        0.0022539282
  O         0.0003538568        0.0070650420        0.0057350289
  O         0.0093781827        0.0043250339        0.0129542536
  O        -0.0019486052        0.0105711794       -0.0187440452
  S         0.0212500223       -0.0336457616       -0.0341270576
  S        -0.0175682862        0.0028506349       -0.0200831877
  S        -0.0284115574       -0.0067265001       -0.0097481002
  O        -0.0132398185       -0.0142202347        0.0117776884
  O        -0.0096079043       -0.0027328630       -0.0178483962
  O        -0.0035877731       -0.0074284674        0.0088315094
  O         0.0020498718        0.0297471804       -0.0126901754
  O         0.0200607879       -0.0074929969        0.0216601803
  O         0.0063136714        0.0112470752        0.0047399536
  O         0.0095545887        0.0140985111        0.0089265308
  O         0.0254885990        0.0176313669       -0.0478459446
  O         0.0174226987        0.0073987345        0.0183554783
  O        -0.0121154412        0.0050787142        0.0223975020
  O         0.0004201287       -0.0106413019        0.0107626505
  O         0.0063644594       -0.0083782293       -0.0113191016
  O         0.0064505282       -0.0066702204        0.0026320851
  O         0.0095140032        0.0057236329       -0.0388202862
  O         0.0135352072        0.0160294871       -0.0247071603
  H         0.0023010022        0.0036566282       -0.0017127495
  H         0.0026334771       -0.0006707465        0.0065567029
  H        -0.0067017947       -0.0218122638        0.0125439602
  H        -0.0060003725       -0.0040437576        0.0006403658
  H        -0.0133887749        0.0060504023        0.0257212922
  H         0.0050685406       -0.0043882760        0.0013329445
 Ca        -0.0041772806        0.0018651335        0.0093586797
 Ca        -0.0000276984       -0.0005550997        0.0019215336
 Ca        -0.0065200127        0.0093529967        0.0086606488
 Ca         0.0073560323       -0.0120271844       -0.0027454246
 Ca         0.0003679303        0.0019147798       -0.0073461410
 Ca         0.0032182478       -0.0100528709       -0.0064851052
  S        -0.0152182435       -0.0232987692        0.0277219108
  S        -0.0005951129       -0.0307047729        0.0263490065
  S        -0.0019401859       -0.0242123486        0.0059925726
  O        -0.0006564631        0.0159173239       -0.0065767080
  O         0.0070921334        0.0094730131        0.0062212708
  O        -0.0086471728        0.0029525828       -0.0016812013
  O         0.0014943555        0.0074554632        0.0021602309
  O        -0.0023120685       -0.0027147176        0.0000115695
  O        -0.0167389616       -0.0175321749        0.0044088751
  O         0.0109368946        0.0032123936       -0.0111690529
  O         0.0029820642        0.0284240514       -0.0020689809
  O         0.0261618427       -0.0092452433        0.0097187368
  O         0.0084579172        0.0004256341       -0.0203040905
  O        -0.0082136780        0.0136458532       -0.0252756572
  O        -0.0019479409        0.0179701416        0.0000754753
  S        -0.0139237477       -0.0061811458       -0.0094864916
  S         0.0498735511        0.0153238588       -0.0175595676
  S         0.0149669365       -0.0117204760       -0.0146032646
  O         0.0312820904       -0.0030933774        0.0222180585
  O        -0.0215454433       -0.0043490644        0.0166043540
  O        -0.0001880636        0.0105389720        0.0071047089
  O        -0.0100495368       -0.0084111288        0.0001915220
  O        -0.0074224975       -0.0097703358        0.0150715258
  O        -0.0141702085        0.0102023248        0.0000585500
  O        -0.0031588974        0.0214455388        0.0131503850
  O         0.0011819121       -0.0005826074       -0.0124932647
  O         0.0085197316        0.0035394478        0.0121177211
  O        -0.0111222099       -0.0187217975        0.0000643227
  O         0.0130822609       -0.0084804940        0.0118519075
  O        -0.0115919622       -0.0010252499       -0.0006517993
  O        -0.0166932432       -0.0081168990        0.0082649487
  O        -0.0116015450       -0.0010851195        0.0200402163
  O        -0.0107221399        0.0159949559        0.0035985643
  H         0.0135165924        0.0164567748       -0.0066890237
  H        -0.0085678165        0.0027419817       -0.0017019544
  H         0.0009499335        0.0050284934       -0.0036646891
  H         0.0034166803       -0.0010602769       -0.0026440723
  H         0.0187752160       -0.0093425750       -0.0161414922
  H         0.0103831589       -0.0148590886        0.0015269259
 Ca         0.0031061770        0.0028809685       -0.0110493872
 Ca         0.0032995766       -0.0067878829        0.0005054682
 Ca        -0.0034090116       -0.0079547201       -0.0033853503
 Ca        -0.0028912656       -0.0050591986        0.0009876703
 Ca        -0.0099723110       -0.0014194378       -0.0008139834
 Ca        -0.0014596881        0.0047561674       -0.0090644575
  S        -0.0274339134       -0.0217381430       -0.0053619128
  S        -0.0382081586       -0.0148353530        0.0149849266
  S         0.0000406635       -0.0006569353        0.0191106092
  O         0.0113947199        0.0011335677        0.0084364855
  O         0.0184566093        0.0027128899        0.0126409388
  O         0.0074001055        0.0030980773       -0.0184950458
  O         0.0154689848        0.0066809674        0.0170042584
  O         0.0045638693        0.0111098204        0.0020970229
  O        -0.0082707174        0.0110847542        0.0047477272
  O        -0.0041273763       -0.0153058998        0.0189801310
  O        -0.0098850988       -0.0105501596       -0.0031325370
  O         0.0115292150       -0.0045539562       -0.0007743614
  O         0.0176853229        0.0201990161       -0.0129221905
  O         0.0117229854        0.0136909129       -0.0211023482
  O        -0.0016456269        0.0167417402       -0.0164868742
  S        -0.0052676817       -0.0277105665       -0.0047260315
  S         0.0128174232        0.0297505786        0.0059100153
  S        -0.0004984804        0.0440733334       -0.0054120766
  O        -0.0008344372        0.0083473020       -0.0087829978
  O        -0.0343147754       -0.0049629526       -0.0070357418
  O         0.0099152659        0.0166695291       -0.0078947292
  O        -0.0010230520        0.0026914111       -0.0013824117
  O         0.0121346596       -0.0250769192        0.0095670065
  O         0.0160857940       -0.0185500239        0.0041670401
  O         0.0033582119        0.0124047237       -0.0011428798
  O        -0.0190444813        0.0081845923        0.0012730536
  O        -0.0070493632       -0.0031485123       -0.0058039542
  O         0.0044352473        0.0120257090       -0.0013852391
  O         0.0046524649       -0.0129284886       -0.0050574593
  O        -0.0112085573       -0.0123700360        0.0094317661
  O         0.0307059234        0.0123561042       -0.0251290596
  O        -0.0044481654       -0.0357792780        0.0031917061
  O        -0.0140312408        0.0223457106        0.0084227623
  H        -0.0363307434       -0.0011004381        0.0242428850
  H        -0.0019064927        0.0079069344       -0.0031983310
  H        -0.0042198353       -0.0044019125       -0.0063547439
  H         0.0108447475       -0.0103658631       -0.0081924098
  H        -0.0014486511        0.0031380662        0.0048673221
  H         0.0155851697       -0.0177315522       -0.0029737027
     180
 i =       26, time =       13.000, E =     -2871.7839053072
 Ca        -0.0077052710        0.0040125997        0.0003001580
 Ca        -0.0051695769       -0.0026019208        0.0030119611
 Ca         0.0019477274       -0.0033573753        0.0050913178
 Ca        -0.0037943267        0.0047663058       -0.0052819573
 Ca        -0.0066198760        0.0021268596        0.0007706430
 Ca        -0.0026409070        0.0068245063        0.0013591104
  S         0.0015630782        0.0294853357       -0.0286362870
  S         0.0160322149        0.0202896443        0.0158817667
  S         0.0150367457       -0.0144031920        0.0282292314
  O         0.0037731685       -0.0371272434        0.0119503426
  O        -0.0133054476       -0.0203988802        0.0114997775
  O        -0.0134383101        0.0016639249       -0.0262648746
  O         0.0029417630       -0.0035022298        0.0154569280
  O        -0.0081810609       -0.0064539466       -0.0088574088
  O        -0.0092091759       -0.0093797990        0.0100350925
  O        -0.0135699894       -0.0073845781       -0.0100628860
  O         0.0101296414        0.0194433098        0.0001111496
  O         0.0104984989       -0.0067526964       -0.0018143403
  O        -0.0148222801        0.0010097043        0.0094015310
  O         0.0098663377       -0.0097067200       -0.0087461775
  O        -0.0096258750       -0.0031371115       -0.0155598544
  S         0.0112389751       -0.0000514530        0.0046180845
  S        -0.0175500690       -0.0009430060        0.0212952520
  S         0.0351501172       -0.0048509127       -0.0037859769
  O         0.0009577506        0.0060370856        0.0046920318
  O        -0.0255045121        0.0013657997       -0.0112325548
  O         0.0003709685        0.0288611436       -0.0108444623
  O        -0.0045043592       -0.0016158185        0.0024651064
  O         0.0247340742       -0.0009586559        0.0107558159
  O        -0.0006001203       -0.0049401799        0.0132419896
  O         0.0062911275       -0.0145239979       -0.0019510923
  O         0.0264711552       -0.0050053361       -0.0129059550
  O        -0.0386866818       -0.0074502094       -0.0230701954
  O        -0.0047207994        0.0009574345        0.0080332300
  O        -0.0227700836        0.0117995578        0.0231506730
  O         0.0117197664        0.0166777004        0.0089994550
  O         0.0095497493       -0.0158438139       -0.0107286028
  O         0.0072867164       -0.0278024235        0.0050394345
  O         0.0071196541       -0.0147900269       -0.0037085422
  H         0.0020392716       -0.0028164542        0.0005667237
  H         0.0009577844        0.0035032396       -0.0025838814
  H        -0.0002651620        0.0113932390        0.0017007006
  H        -0.0075709575        0.0117653305        0.0073498153
  H        -0.0104358484        0.0034948957        0.0064154383
  H         0.0011357614        0.0112107369        0.0070266871
 Ca         0.0061448582        0.0061206917       -0.0007864760
 Ca        -0.0058450053       -0.0147573613        0.0150056285
 Ca         0.0040853211       -0.0055073286       -0.0023684787
 Ca        -0.0004940689        0.0039291956        0.0062050427
 Ca         0.0052401593        0.0094483677        0.0036759399
 Ca        -0.0024424922       -0.0015623811        0.0013227264
  S        -0.0035977256        0.0111317633       -0.0106976455
  S         0.0089676515       -0.0384983018       -0.0060621380
  S         0.0202535808        0.0011143447        0.0032686660
  O         0.0294526170       -0.0136375818        0.0242417704
  O        -0.0013437677        0.0203684761        0.0044206757
  O        -0.0140201890        0.0125132577        0.0000763717
  O        -0.0311844840        0.0087168645       -0.0122769200
  O        -0.0051539792        0.0043676860       -0.0091534983
  O        -0.0171934408        0.0091325650        0.0054635129
  O         0.0034036342        0.0086026210       -0.0055582086
  O        -0.0062349394        0.0167902434       -0.0009732332
  O         0.0091568698        0.0015594976        0.0018866733
  O        -0.0001576753        0.0066347230        0.0066833310
  O         0.0046055736        0.0044440739        0.0086532982
  O        -0.0013885810        0.0099414277       -0.0195805930
  S         0.0199265724       -0.0314091644       -0.0316431847
  S        -0.0186507234        0.0060820091       -0.0188250672
  S        -0.0277917748       -0.0061465873       -0.0089367831
  O        -0.0129243949       -0.0140174908        0.0103087987
  O        -0.0088246528       -0.0034110506       -0.0177634874
  O        -0.0041852560       -0.0076500817        0.0092929192
  O         0.0025635003        0.0298753278       -0.0129752441
  O         0.0197419444       -0.0088647769        0.0206693922
  O         0.0068287016        0.0111120925        0.0047401567
  O         0.0127425207        0.0115217664        0.0079506319
  O         0.0247426931        0.0159838637       -0.0465891508
  O         0.0171868054        0.0074862514        0.0178420894
  O        -0.0136049430        0.0048720699        0.0223926350
  O        -0.0020438589       -0.0088025871        0.0125444548
  O         0.0058594644       -0.0097184454       -0.0121675365
  O         0.0071469514       -0.0055142196        0.0022179130
  O         0.0085014353        0.0045682084       -0.0414865316
  O         0.0143018768        0.0099408494       -0.0231695187
  H         0.0021954326        0.0037010492       -0.0016279464
  H         0.0030526994       -0.0005174006        0.0078959334
  H        -0.0053503460       -0.0178928341        0.0099326753
  H         0.0011116206       -0.0048931531        0.0014875899
  H        -0.0124309151        0.0075415168        0.0256560030
  H         0.0038541959       -0.0031309132        0.0018825428
 Ca        -0.0042791895        0.0015879067        0.0095125768
 Ca        -0.0000100381       -0.0005843310        0.0021060885
 Ca        -0.0067391690        0.0096547620        0.0092646375
 Ca         0.0078269089       -0.0127803464       -0.0035178223
 Ca         0.0005543773        0.0020597403       -0.0079625709
 Ca         0.0031162583       -0.0102600305       -0.0064246337
  S        -0.0145393068       -0.0223935871        0.0271988023
  S        -0.0023346930       -0.0267311563        0.0230212327
  S        -0.0000623962       -0.0231755864        0.0079515658
  O        -0.0004730577        0.0161383037       -0.0063921174
  O         0.0060831198        0.0089684923        0.0072585542
  O        -0.0097256696        0.0024684589       -0.0010569007
  O         0.0013665926        0.0080036700        0.0029763181
  O        -0.0015071828       -0.0039391334        0.0000140275
  O        -0.0168205257       -0.0163960728        0.0026989344
  O         0.0107935719        0.0035296673       -0.0113776591
  O         0.0015914911        0.0270838294       -0.0038714039
  O         0.0254464916       -0.0090172788        0.0080918838
  O         0.0077622464       -0.0010681224       -0.0191724425
  O        -0.0056939903        0.0128694035       -0.0232691415
  O        -0.0012033758        0.0173764287       -0.0010225118
  S        -0.0109504796       -0.0023121963       -0.0053031576
  S         0.0448398779        0.0145663615       -0.0165477428
  S         0.0149939027       -0.0109709009       -0.0137411263
  O         0.0303485398       -0.0065581131        0.0215743015
  O        -0.0197118323       -0.0053778870        0.0181199375
  O        -0.0005552941        0.0096545708        0.0075703406
  O        -0.0105638993       -0.0085052792       -0.0000561092
  O        -0.0063407870       -0.0089917582        0.0156344299
  O        -0.0137581648        0.0092562468        0.0024309630
  O        -0.0018371852        0.0191796857        0.0125295478
  O         0.0012459111        0.0006986175       -0.0124072647
  O         0.0084529896        0.0040539420        0.0110718713
  O        -0.0143704059       -0.0190919236       -0.0038229921
  O         0.0127812888       -0.0073712288        0.0128296578
  O        -0.0119367817       -0.0002775743       -0.0017194816
  O        -0.0114716946       -0.0063565885        0.0073649337
  O        -0.0219775736        0.0016709850        0.0168865988
  O        -0.0090774413        0.0166386023        0.0034004692
  H         0.0059734544        0.0186276163       -0.0032283302
  H        -0.0010598783        0.0010265662        0.0020467534
  H         0.0003525803        0.0040773309       -0.0027772121
  H         0.0055027597       -0.0039959905       -0.0038081907
  H         0.0209366231       -0.0090129048       -0.0172930245
  H         0.0103774490       -0.0143067757        0.0016719091
 Ca         0.0027829998        0.0030071718       -0.0111508448
 Ca         0.0031434364       -0.0071723420        0.0004113476
 Ca        -0.0034799689       -0.0084633992       -0.0032610330
 Ca        -0.0029761014       -0.0047212561        0.0010496066
 Ca        -0.0098889585       -0.0014458539       -0.0011354229
 Ca        -0.0017212321        0.0046708591       -0.0090920833
  S        -0.0252873614       -0.0204134943       -0.0054722161
  S        -0.0394617405       -0.0145681418        0.0130820604
  S        -0.0028277688       -0.0015669116        0.0213021004
  O         0.0119825375        0.0020009318        0.0084380498
  O         0.0183289010        0.0023643428        0.0138407351
  O         0.0081518972        0.0039830366       -0.0178860992
  O         0.0150586180        0.0067123662        0.0165392360
  O         0.0044250774        0.0107026087        0.0030310863
  O        -0.0089995166        0.0106761306        0.0054335769
  O        -0.0041913917       -0.0163299600        0.0186276614
  O        -0.0093102829       -0.0099516045       -0.0026427991
  O         0.0121015677       -0.0042190197       -0.0007396925
  O         0.0164189026        0.0186833435       -0.0120355627
  O         0.0125607952        0.0132941231       -0.0206958875
  O        -0.0013773259        0.0157042031       -0.0178858012
  S        -0.0030830164       -0.0233435949       -0.0025580495
  S         0.0095446926        0.0305090390        0.0014550683
  S         0.0005550428        0.0413582195       -0.0063127569
  O        -0.0019958786        0.0048956779       -0.0097840845
  O        -0.0314774761       -0.0075898379       -0.0037670047
  O         0.0086654763        0.0165844696       -0.0085143393
  O        -0.0005443169        0.0027742966       -0.0006003017
  O         0.0122598927       -0.0245118191        0.0120064148
  O         0.0146226705       -0.0160636244        0.0050216723
  O         0.0059027169        0.0110545386        0.0002794210
  O        -0.0178085083        0.0100012794       -0.0011508570
  O        -0.0066450659       -0.0029968166       -0.0050511659
  O         0.0031951830        0.0117742806       -0.0031285970
  O         0.0057567780       -0.0120768061       -0.0053080770
  O        -0.0109079646       -0.0119682354        0.0098252333
  O         0.0181622385        0.0113969122       -0.0174701761
  O        -0.0016641148       -0.0361841314        0.0066621872
  O        -0.0114525640        0.0172465095        0.0093789598
  H        -0.0253470950        0.0015876294        0.0168731662
  H        -0.0047160861        0.0072749905       -0.0047503219
  H        -0.0036873557       -0.0048607216       -0.0065343323
  H         0.0123586482       -0.0120188867       -0.0087686166
  H        -0.0004957953        0.0036278981        0.0036644661
  H         0.0118564803       -0.0119631399       -0.0034507539
     180
 i =       27, time =       13.500, E =     -2871.7836929214
 Ca        -0.0078658573        0.0044294907        0.0001983862
 Ca        -0.0051261812       -0.0030168509        0.0030576698
 Ca         0.0020220230       -0.0031564213        0.0051104750
 Ca        -0.0040755231        0.0050324175       -0.0053574171
 Ca        -0.0068678066        0.0027117567        0.0006159881
 Ca        -0.0022944409        0.0070472323        0.0013436238
  S         0.0036748430        0.0275866689       -0.0277374220
  S         0.0141360513        0.0182557053        0.0152024164
  S         0.0115636876       -0.0130829593        0.0260291940
  O         0.0022802430       -0.0358514195        0.0119191205
  O        -0.0124368204       -0.0197368182        0.0108033728
  O        -0.0126643833        0.0025394895       -0.0250528763
  O         0.0024889648       -0.0038478865        0.0147514711
  O        -0.0086208889       -0.0052740337       -0.0088935872
  O        -0.0079432720       -0.0088690699        0.0085208993
  O        -0.0139378338       -0.0074350872       -0.0096547475
  O         0.0107453741        0.0203029515       -0.0006745217
  O         0.0122388427       -0.0079407168       -0.0006199060
  O        -0.0148652932        0.0013114862        0.0088142262
  O         0.0108987382       -0.0102424633       -0.0073265361
  O        -0.0110119724       -0.0018537166       -0.0154247161
  S         0.0093969149       -0.0023602867        0.0036111674
  S        -0.0137040976        0.0005714711        0.0171432153
  S         0.0322375696       -0.0052296610       -0.0094447192
  O         0.0020600952        0.0069600291        0.0053319425
  O        -0.0244335178       -0.0003899438       -0.0105609196
  O         0.0004263253        0.0262952500       -0.0106726745
  O        -0.0042902987       -0.0014244952        0.0016088888
  O         0.0237423848       -0.0026266763        0.0097135244
  O         0.0004894659       -0.0048053931        0.0124732741
  O         0.0060930976       -0.0131145779       -0.0020880169
  O         0.0262015123       -0.0050082276       -0.0129587267
  O        -0.0361369543       -0.0071530560       -0.0179892322
  O        -0.0034494759        0.0012347422        0.0094602398
  O        -0.0217513128        0.0097473243        0.0217767162
  O         0.0120789142        0.0167541472        0.0090884015
  O         0.0160104708       -0.0111097334       -0.0160336730
  O         0.0091362069       -0.0260026441        0.0049757976
  O         0.0096857261       -0.0099181241       -0.0073351965
  H        -0.0054207793       -0.0052740696        0.0066563332
  H         0.0006911278        0.0049681066       -0.0035867473
  H        -0.0030777003        0.0089277625        0.0057220368
  H        -0.0060166349        0.0094116683        0.0067027971
  H        -0.0113292400        0.0024101892        0.0068784570
  H         0.0014747963        0.0088957396        0.0067457805
 Ca         0.0061354085        0.0054935019       -0.0008635019
 Ca        -0.0058247103       -0.0144514150        0.0156137765
 Ca         0.0040971113       -0.0057898893       -0.0022652346
 Ca        -0.0005957089        0.0041254193        0.0063488155
 Ca         0.0054883401        0.0096364171        0.0035846889
 Ca        -0.0024695413       -0.0019671039        0.0015253065
  S        -0.0023356846        0.0086305227       -0.0122186121
  S         0.0148431007       -0.0330909377       -0.0016483107
  S         0.0206638223       -0.0012781362        0.0037204505
  O         0.0277453169       -0.0091669451        0.0255075460
  O        -0.0015957950        0.0199656090        0.0048276904
  O        -0.0141755479        0.0123559002       -0.0002083389
  O        -0.0308033152        0.0093079800       -0.0112024112
  O        -0.0038007586        0.0018218332       -0.0101748273
  O        -0.0174946539        0.0086650096        0.0067381942
  O        -0.0024447984        0.0082955242       -0.0062998317
  O        -0.0085525050        0.0131998845       -0.0012492333
  O         0.0090240607        0.0018685143        0.0015208880
  O        -0.0007910081        0.0063692275        0.0071386393
  O        -0.0001792483        0.0044131404        0.0043653358
  O        -0.0008372161        0.0093643030       -0.0203685380
  S         0.0185522321       -0.0290743998       -0.0290221302
  S        -0.0197204287        0.0094539590       -0.0174358532
  S        -0.0270427634       -0.0055370749       -0.0080509844
  O        -0.0123860709       -0.0137630557        0.0096406080
  O        -0.0080239946       -0.0040946361       -0.0176537060
  O        -0.0047220232       -0.0077328968        0.0098075522
  O         0.0029932330        0.0299533263       -0.0132168423
  O         0.0191618824       -0.0100652951        0.0195719016
  O         0.0073378706        0.0109364720        0.0046175789
  O         0.0159473808        0.0089386553        0.0068619543
  O         0.0238066844        0.0143446301       -0.0450839625
  O         0.0168403329        0.0075421253        0.0172355910
  O        -0.0151364371        0.0046241613        0.0223076614
  O        -0.0043588225       -0.0069307535        0.0132867076
  O         0.0051355021       -0.0109747272       -0.0132962087
  O         0.0077491525       -0.0044472154        0.0016242186
  O         0.0056561714        0.0043165502       -0.0403928637
  O         0.0145180361        0.0017160164       -0.0203311933
  H         0.0020407851        0.0037367108       -0.0014155442
  H         0.0030614867       -0.0002869711        0.0089562588
  H        -0.0032981635       -0.0121012109        0.0060104653
  H         0.0079491769       -0.0058009092        0.0023493479
  H        -0.0092462524        0.0079607475        0.0222847610
  H         0.0023538886       -0.0015935878        0.0025170976
 Ca        -0.0043702700        0.0012917060        0.0096120601
 Ca         0.0000358773       -0.0006188036        0.0022850265
 Ca        -0.0069434114        0.0099669762        0.0098821098
 Ca         0.0082340957       -0.0135499014       -0.0042705023
 Ca         0.0007289905        0.0021623268       -0.0085924925
 Ca         0.0030036743       -0.0104168196       -0.0063432922
  S        -0.0137900174       -0.0213543639        0.0265611042
  S        -0.0040361857       -0.0224199188        0.0191950705
  S         0.0017857999       -0.0222145362        0.0098801546
  O        -0.0002525490        0.0162999348       -0.0061684615
  O         0.0050699773        0.0084569847        0.0084946862
  O        -0.0107442076        0.0020735439       -0.0003427628
  O         0.0011617777        0.0085889186        0.0037244923
  O        -0.0007466730       -0.0051113271        0.0000649465
  O        -0.0167811723       -0.0151581767        0.0008185533
  O         0.0108682049        0.0036586058       -0.0118135850
  O        -0.0004118276        0.0254279197       -0.0060175498
  O         0.0246581596       -0.0088426085        0.0062773071
  O         0.0069363546       -0.0026309998       -0.0179782582
  O        -0.0029432717        0.0119907884       -0.0205992486
  O        -0.0004007202        0.0168273919       -0.0021655520
  S        -0.0079969124        0.0016627683       -0.0011559545
  S         0.0395530297        0.0137142470       -0.0154588618
  S         0.0149273987       -0.0101432517       -0.0127707512
  O         0.0291340714       -0.0091197830        0.0208889392
  O        -0.0178178097       -0.0063352873        0.0195689254
  O        -0.0008850269        0.0087181244        0.0081256132
  O        -0.0110691300       -0.0085392942       -0.0003450208
  O        -0.0051182204       -0.0080467549        0.0158144380
  O        -0.0132318083        0.0083161248        0.0060787562
  O        -0.0005088429        0.0167287929        0.0114969722
  O         0.0012604531        0.0018961110       -0.0122050280
  O         0.0083700335        0.0045455545        0.0099080580
  O        -0.0175639488       -0.0196803539       -0.0075712723
  O         0.0124245742       -0.0061869593        0.0137737982
  O        -0.0123645027        0.0003453293       -0.0028730890
  O        -0.0061437800       -0.0046829107        0.0066637215
  O        -0.0325235244        0.0046545939        0.0115138741
  O        -0.0062156258        0.0161002041        0.0027563793
  H        -0.0017297943        0.0205904163        0.0001836253
  H         0.0080245083       -0.0013485164        0.0062910159
  H        -0.0003891500        0.0027540583       -0.0016008588
  H         0.0072671223       -0.0064519623       -0.0047804537
  H         0.0218553484       -0.0081603168       -0.0171905400
  H         0.0091907570       -0.0120393430        0.0018756792
 Ca         0.0024698192        0.0031388378       -0.0112296696
 Ca         0.0029586608       -0.0075415871        0.0003120757
 Ca        -0.0035966592       -0.0089944885       -0.0030761861
 Ca        -0.0030530488       -0.0043838717        0.0010780485
 Ca        -0.0097786199       -0.0015529349       -0.0014289099
 Ca        -0.0019805665        0.0045348412       -0.0091002125
  S        -0.0229070929       -0.0189615737       -0.0055294031
  S        -0.0406103614       -0.0142238989        0.0110904545
  S        -0.0058287851       -0.0025563555        0.0234308851
  O         0.0121410746        0.0026512450        0.0077701767
  O         0.0181501420        0.0020202044        0.0150130498
  O         0.0089125697        0.0049538670       -0.0173800585
  O         0.0144487167        0.0066525203        0.0159699797
  O         0.0040466079        0.0101425047        0.0032800667
  O        -0.0097084573        0.0102956059        0.0061140572
  O        -0.0043057894       -0.0175341389        0.0182151363
  O        -0.0087106637       -0.0093171779       -0.0021091923
  O         0.0128101426       -0.0038567332       -0.0006587543
  O         0.0150652212        0.0170185640       -0.0111058550
  O         0.0133985824        0.0128547254       -0.0201978452
  O        -0.0014260570        0.0144221206       -0.0192146512
  S        -0.0007590892       -0.0186453380       -0.0004101095
  S         0.0062748299        0.0310245612       -0.0030343463
  S         0.0015988294        0.0384032968       -0.0072154613
  O        -0.0031230274        0.0012149438       -0.0107660496
  O        -0.0285596757       -0.0101787378       -0.0005422614
  O         0.0073538558        0.0164876777       -0.0090955939
  O        -0.0003547211        0.0028366460       -0.0004923238
  O         0.0124048400       -0.0238566707        0.0139362756
  O         0.0131132304       -0.0133097136        0.0059487165
  O         0.0081682072        0.0099286001        0.0016151208
  O        -0.0165165006        0.0117757689       -0.0035886516
  O        -0.0061966435       -0.0028110767       -0.0042698278
  O         0.0019402851        0.0114171252       -0.0048095673
  O         0.0070793864       -0.0109835402       -0.0054932418
  O        -0.0105745280       -0.0115449181        0.0100692314
  O         0.0017840977        0.0087624588       -0.0070154541
  O         0.0014877635       -0.0358287353        0.0103152669
  O        -0.0079668321        0.0105388339        0.0098936383
  H        -0.0098579068        0.0048727813        0.0065142599
  H        -0.0070505796        0.0061592700       -0.0059531993
  H        -0.0029965160       -0.0050245377       -0.0067930014
  H         0.0131545348       -0.0127092895       -0.0089707662
  H         0.0007160166        0.0039741822        0.0022037117
  H         0.0071186916       -0.0048367386       -0.0040238431
     180
 i =       28, time =       14.000, E =     -2871.7816771854
 Ca        -0.0080371106        0.0048241010        0.0001393928
 Ca        -0.0050699988       -0.0034412159        0.0030968160
 Ca         0.0021367798       -0.0029339391        0.0050475181
 Ca        -0.0043225846        0.0053046666       -0.0054339819
 Ca        -0.0070850030        0.0033353927        0.0004224814
 Ca        -0.0019361782        0.0072682036        0.0013288487
  S         0.0058003460        0.0255460265       -0.0266874840
  S         0.0121606023        0.0161244255        0.0145912945
  S         0.0080928513       -0.0118143123        0.0236183319
  O         0.0008441872       -0.0345423820        0.0120234122
  O        -0.0117285852       -0.0188048487        0.0100207745
  O        -0.0117840329        0.0034444058       -0.0236583749
  O         0.0020528335       -0.0041210950        0.0140271139
  O        -0.0091360807       -0.0039957224       -0.0089690523
  O        -0.0065860748       -0.0081940293        0.0071947228
  O        -0.0139609324       -0.0075926602       -0.0093568874
  O         0.0112915893        0.0212174031       -0.0016598038
  O         0.0138734032       -0.0090234258        0.0005961446
  O        -0.0148098969        0.0016292533        0.0081425851
  O         0.0119272777       -0.0107204434       -0.0058617581
  O        -0.0125287058       -0.0005167854       -0.0155623259
  S         0.0075367903       -0.0046367034        0.0026526933
  S        -0.0098307385        0.0023428953        0.0127821437
  S         0.0293234762       -0.0055348125       -0.0149630112
  O         0.0030514729        0.0079055134        0.0057794684
  O        -0.0233457266       -0.0021716741       -0.0098477824
  O         0.0005450284        0.0236878654       -0.0104278916
  O        -0.0040371602       -0.0012192148        0.0007118446
  O         0.0225468943       -0.0043617756        0.0085992289
  O         0.0016320546       -0.0045501787        0.0118704991
  O         0.0059090020       -0.0115904655       -0.0022835893
  O         0.0258117398       -0.0046869027       -0.0123559030
  O        -0.0339804742       -0.0067481072       -0.0131225809
  O        -0.0022196076        0.0011986242        0.0108144098
  O        -0.0206626743        0.0073602651        0.0201052243
  O         0.0123992869        0.0167913970        0.0091917852
  O         0.0205602688       -0.0060937025       -0.0207462899
  O         0.0104998970       -0.0237159200        0.0054221123
  O         0.0116103425       -0.0042968855       -0.0103905878
  H        -0.0114913747       -0.0072203229        0.0116346574
  H         0.0005746140        0.0062476784       -0.0043909883
  H        -0.0056930835        0.0065460180        0.0094026188
  H        -0.0037992737        0.0059858549        0.0057349937
  H        -0.0118024328        0.0010346332        0.0064643232
  H         0.0021925622        0.0057277012        0.0062388382
 Ca         0.0061009082        0.0048454622       -0.0009173097
 Ca        -0.0057973794       -0.0140880765        0.0162047886
 Ca         0.0041164379       -0.0060206965       -0.0021981644
 Ca        -0.0005845473        0.0043351671        0.0064797838
 Ca         0.0057475018        0.0098260776        0.0034758445
 Ca        -0.0024858455       -0.0023802228        0.0017329296
  S        -0.0011042154        0.0060769965       -0.0137266566
  S         0.0204865374       -0.0273303343        0.0027431808
  S         0.0208899204       -0.0036612881        0.0041529023
  O         0.0260936248       -0.0057212831        0.0250908947
  O        -0.0018115440        0.0194427278        0.0051177048
  O        -0.0143280343        0.0120942018       -0.0003541472
  O        -0.0302801663        0.0099088225       -0.0100953465
  O        -0.0022888797       -0.0009095712       -0.0113117982
  O        -0.0177076477        0.0081948228        0.0080085818
  O        -0.0072766092        0.0081397314       -0.0070380772
  O        -0.0110259297        0.0094368740       -0.0015659713
  O         0.0089286623        0.0021482411        0.0011631580
  O        -0.0015699801        0.0062566330        0.0072586579
  O        -0.0046193489        0.0044733109        0.0004375017
  O        -0.0003002918        0.0088378996       -0.0210908039
  S         0.0171477511       -0.0267143394       -0.0263190109
  S        -0.0207570722        0.0128969561       -0.0159460477
  S        -0.0261760449       -0.0049075782       -0.0070990931
  O        -0.0118517148       -0.0134463741        0.0099242900
  O        -0.0073185501       -0.0048884427       -0.0177433755
  O        -0.0052184449       -0.0076459669        0.0105493341
  O         0.0033395347        0.0299787911       -0.0134006484
  O         0.0185015775       -0.0111428757        0.0184416467
  O         0.0077933973        0.0107412701        0.0044533195
  O         0.0190157191        0.0064253893        0.0057477042
  O         0.0227032213        0.0125286453       -0.0432687275
  O         0.0163813829        0.0075379194        0.0165745716
  O        -0.0165932917        0.0043498869        0.0211182984
  O        -0.0065853915       -0.0052511064        0.0136250418
  O         0.0042151761       -0.0120896918       -0.0147677144
  O         0.0081052320       -0.0034996586        0.0008440474
  O         0.0013528605        0.0045198587       -0.0362196758
  O         0.0140723235       -0.0080544960       -0.0162459504
  H         0.0018542585        0.0037591318       -0.0010960517
  H         0.0026760990        0.0000284759        0.0097074528
  H        -0.0006569969       -0.0047451590        0.0009831818
  H         0.0137068284       -0.0067942286        0.0031685412
  H        -0.0042553848        0.0077414543        0.0163223376
  H         0.0007660605       -0.0000003033        0.0031601866
 Ca        -0.0044499556        0.0009812402        0.0096649846
 Ca         0.0001090952       -0.0006540740        0.0024557598
 Ca        -0.0071379964        0.0103051320        0.0105109362
 Ca         0.0085596361       -0.0143072800       -0.0049705057
 Ca         0.0009021662        0.0021896931       -0.0092242602
 Ca         0.0028828568       -0.0105199037       -0.0062437363
  S        -0.0129877583       -0.0202043142        0.0258321673
  S        -0.0056564327       -0.0178453552        0.0149272912
  S         0.0035880253       -0.0213590019        0.0117406798
  O        -0.0000045072        0.0164149202       -0.0059070780
  O         0.0041190466        0.0079530158        0.0099522841
  O        -0.0116081201        0.0017362168        0.0003567832
  O         0.0008655858        0.0092226194        0.0043168408
  O        -0.0000580795       -0.0062179838        0.0001678061
  O        -0.0164858688       -0.0140231008       -0.0012431895
  O         0.0112312826        0.0036712859       -0.0123993047
  O        -0.0027767247        0.0233661663       -0.0083718308
  O         0.0238003922       -0.0086887923        0.0043782655
  O         0.0060060044       -0.0042153550       -0.0167560546
  O        -0.0000417781        0.0110263543       -0.0174432016
  O         0.0004355928        0.0162746406       -0.0033398565
  S        -0.0051117931        0.0056694538        0.0028690846
  S         0.0341058273        0.0127977301       -0.0143277948
  S         0.0147580690       -0.0092499765       -0.0116877652
  O         0.0278508251       -0.0110483513        0.0191280886
  O        -0.0158865235       -0.0071020327        0.0208887681
  O        -0.0011914055        0.0077702237        0.0086081262
  O        -0.0115362795       -0.0085047790       -0.0006261595
  O        -0.0037706369       -0.0069865608        0.0151183528
  O        -0.0126118657        0.0073744757        0.0061410981
  O         0.0007672057        0.0144529398        0.0104723781
  O         0.0012533170        0.0028337569       -0.0120112694
  O         0.0083004832        0.0048918571        0.0087086488
  O        -0.0205952412       -0.0203162856       -0.0109539118
  O         0.0120236411       -0.0049317378        0.0147049637
  O        -0.0128146790        0.0007527613       -0.0038988699
  O        -0.0010796898       -0.0032558939        0.0061007478
  O        -0.0423261092        0.0076252118        0.0043767821
  O        -0.0024365314        0.0144399985        0.0018208720
  H        -0.0085855575        0.0221378337        0.0031140048
  H         0.0178568855       -0.0041324753        0.0106395788
  H        -0.0011827642        0.0012617184       -0.0003022145
  H         0.0086326566       -0.0082597176       -0.0055173481
  H         0.0214944347       -0.0068387961       -0.0158747517
  H         0.0070693257       -0.0084337242        0.0021160833
 Ca         0.0021735078        0.0032752911       -0.0112920964
 Ca         0.0027451945       -0.0078925803        0.0002058379
 Ca        -0.0037579103       -0.0095569923       -0.0028390498
 Ca        -0.0031239673       -0.0040547092        0.0010791463
 Ca        -0.0096488965       -0.0017284374       -0.0016918455
 Ca        -0.0022351058        0.0043520693       -0.0090907999
  S        -0.0203427476       -0.0174234386       -0.0055313844
  S        -0.0416343018       -0.0138137927        0.0090567942
  S        -0.0088669204       -0.0035637436        0.0254688252
  O         0.0119112858        0.0030890383        0.0077895208
  O         0.0179223746        0.0016926142        0.0161277563
  O         0.0096316408        0.0059702292       -0.0170328356
  O         0.0136837006        0.0065113430        0.0153035049
  O         0.0034429297        0.0094210867        0.0030828654
  O        -0.0103772397        0.0099433882        0.0068021363
  O        -0.0045988990       -0.0188413655        0.0174273391
  O        -0.0081160934       -0.0086422189       -0.0015529316
  O         0.0135562137       -0.0035374351       -0.0005532800
  O         0.0136516128        0.0152321729       -0.0098937183
  O         0.0142133689        0.0123759915       -0.0196463353
  O        -0.0015969001        0.0130496964       -0.0204184844
  S         0.0016691364       -0.0137179872        0.0016416609
  S         0.0030948311        0.0312525706       -0.0074491405
  S         0.0025991377        0.0352739561       -0.0081012007
  O        -0.0042171996       -0.0026074843       -0.0116463542
  O        -0.0256441892       -0.0125816347        0.0025936043
  O         0.0061009964        0.0163191877       -0.0097170304
  O        -0.0005160097        0.0028412144       -0.0006983655
  O         0.0126401647       -0.0230915285        0.0152088449
  O         0.0114709878       -0.0108265376        0.0068144231
  O         0.0097402275        0.0090268228        0.0025853106
  O        -0.0152065487        0.0134495399       -0.0059587233
  O        -0.0057144969       -0.0025844570       -0.0034854658
  O         0.0006453514        0.0109960311       -0.0063755477
  O         0.0086900889       -0.0098253736       -0.0056675269
  O        -0.0102660547       -0.0110427726        0.0101574301
  O        -0.0177288749        0.0045412655        0.0055532249
  O         0.0043245733       -0.0347162145        0.0136939371
  O        -0.0043037878        0.0034261889        0.0103745520
  H         0.0094420522        0.0085941864       -0.0064020291
  H        -0.0088579069        0.0046036835       -0.0067795308
  H        -0.0021918446       -0.0049230160       -0.0071012328
  H         0.0131857221       -0.0123759948       -0.0087953290
  H         0.0020306669        0.0042126419        0.0006383907
  H         0.0021834640        0.0024964329       -0.0047155064
     180
 i =       29, time =       14.500, E =     -2871.7777682597
 Ca        -0.0082188169        0.0051880532        0.0001226546
 Ca        -0.0050028947       -0.0038662789        0.0031289420
 Ca         0.0022774542       -0.0026910279        0.0049190967
 Ca        -0.0045532930        0.0055963077       -0.0055234038
 Ca        -0.0072829458        0.0039842061        0.0001941472
 Ca        -0.0015663223        0.0074846420        0.0013191590
  S         0.0079163495        0.0233786412       -0.0254865823
  S         0.0101292440        0.0139238013        0.0140580410
  S         0.0046237898       -0.0105982238        0.0210398371
  O        -0.0005536085       -0.0331959877        0.0122204817
  O        -0.0111199858       -0.0176891635        0.0091092663
  O        -0.0108055980        0.0043735636       -0.0221704165
  O         0.0016270264       -0.0043317760        0.0132172974
  O        -0.0096628859       -0.0027356625       -0.0090654284
  O        -0.0054074566       -0.0071277651        0.0061345355
  O        -0.0137282852       -0.0079239394       -0.0091520724
  O         0.0117793546        0.0221761271       -0.0026997213
  O         0.0154229665       -0.0099957762        0.0017742350
  O        -0.0146559936        0.0019751463        0.0073526375
  O         0.0129695458       -0.0111359304       -0.0043751385
  O        -0.0140336315        0.0009510604       -0.0157932968
  S         0.0057047267       -0.0068462651        0.0017615370
  S        -0.0059487465        0.0043667592        0.0082241441
  S         0.0264374963       -0.0057613975       -0.0202907450
  O         0.0041243402        0.0088337696        0.0059893254
  O        -0.0222288033       -0.0039398373       -0.0091008036
  O         0.0006254323        0.0210918129       -0.0101180322
  O        -0.0037591108       -0.0010101666       -0.0002311558
  O         0.0211200886       -0.0060721536        0.0071924411
  O         0.0025088746       -0.0041904705        0.0115045968
  O         0.0057163447       -0.0100140553       -0.0025181071
  O         0.0253063463       -0.0044254329       -0.0119695342
  O        -0.0319415401       -0.0061986644       -0.0084016724
  O        -0.0010396319        0.0010201759        0.0121428493
  O        -0.0194452859        0.0046816033        0.0182570263
  O         0.0126714488        0.0167669524        0.0093103201
  O         0.0220695635       -0.0012051744       -0.0227614293
  O         0.0113896392       -0.0208592259        0.0062526896
  O         0.0128346529        0.0014955624       -0.0124693122
  H        -0.0157339813       -0.0085208588        0.0151149084
  H         0.0006678994        0.0072813503       -0.0049769116
  H        -0.0078665053        0.0044930882        0.0123618473
  H        -0.0012286129        0.0019597097        0.0045554454
  H        -0.0119003424       -0.0006088129        0.0052777790
  H         0.0032006610        0.0020093959        0.0055646690
 Ca         0.0060448686        0.0041822489       -0.0009626685
 Ca        -0.0057576842       -0.0136773285        0.0167747656
 Ca         0.0041515166       -0.0062028512       -0.0021613568
 Ca        -0.0004762407        0.0045433628        0.0065922296
 Ca         0.0060038298        0.0100167618        0.0033526194
 Ca        -0.0024903090       -0.0027964349        0.0019493131
  S         0.0000835455        0.0034943597       -0.0152272676
  S         0.0258858050       -0.0212753193        0.0070338035
  S         0.0209481680       -0.0060056221        0.0045568482
  O         0.0246287756       -0.0033448937        0.0245237852
  O        -0.0019989572        0.0188069548        0.0053336445
  O        -0.0144568643        0.0117486064       -0.0003038625
  O        -0.0296204125        0.0105147168       -0.0089659437
  O        -0.0007026578       -0.0037831193       -0.0125246726
  O        -0.0178004444        0.0077429116        0.0091766677
  O        -0.0105176170        0.0080615012       -0.0076406002
  O        -0.0137025662        0.0054350383       -0.0019537603
  O         0.0088358892        0.0023911670        0.0008225809
  O        -0.0024647550        0.0062666060        0.0072997443
  O        -0.0085775586        0.0046164617       -0.0030305878
  O         0.0002201702        0.0083187295       -0.0217480640
  S         0.0157404682       -0.0243450108       -0.0235505690
  S        -0.0217531445        0.0163842532       -0.0143648502
  S        -0.0251987370       -0.0042659871       -0.0060845580
  O        -0.0114329347       -0.0131000597        0.0108893894
  O        -0.0067276497       -0.0058120731       -0.0178960297
  O        -0.0056762440       -0.0074083402        0.0111647514
  O         0.0036057306        0.0299425921       -0.0135372469
  O         0.0178695875       -0.0119201296        0.0173090335
  O         0.0081705394        0.0105338400        0.0043670563
  O         0.0218531833        0.0039767279        0.0046551224
  O         0.0214555038        0.0108062710       -0.0409886123
  O         0.0158275079        0.0075021280        0.0158326967
  O        -0.0179902067        0.0040391763        0.0195032582
  O        -0.0089227708       -0.0039713501        0.0152346487
  O         0.0031367122       -0.0130753937       -0.0162835416
  O         0.0082424420       -0.0025577036       -0.0000468920
  O        -0.0036278920        0.0047886086       -0.0300759623
  O         0.0129329585       -0.0185829916       -0.0111878684
  H         0.0016655264        0.0037556976       -0.0007053547
  H         0.0019428518        0.0004310163        0.0101471826
  H         0.0023667906        0.0036202126       -0.0047734064
  H         0.0179152979       -0.0078637708        0.0038956544
  H         0.0017826403        0.0073541618        0.0088899644
  H        -0.0007250490        0.0014488546        0.0037424044
 Ca        -0.0045193070        0.0006601473        0.0096821952
 Ca         0.0002076824       -0.0006887110        0.0026189567
 Ca        -0.0073298877        0.0106868361        0.0111598810
 Ca         0.0087969905       -0.0150318295       -0.0055920965
 Ca         0.0010901623        0.0021152028       -0.0098543580
 Ca         0.0027544354       -0.0105687884       -0.0061327707
  S        -0.0121399833       -0.0189550133        0.0250239867
  S        -0.0071876635       -0.0130413251        0.0102589093
  S         0.0053587400       -0.0206138591        0.0135296296
  O         0.0002718900        0.0164702831       -0.0056115526
  O         0.0032569438        0.0074749099        0.0116417764
  O        -0.0122708697        0.0014238619        0.0009691294
  O         0.0004864413        0.0099221320        0.0048086393
  O         0.0005544136       -0.0072371041        0.0003234066
  O        -0.0159576532       -0.0129309160       -0.0032994263
  O         0.0117122279        0.0037167817       -0.0130799121
  O        -0.0049464242        0.0208836387       -0.0107461511
  O         0.0228665152       -0.0084979211        0.0024950879
  O         0.0049944277       -0.0057680805       -0.0155508727
  O         0.0029404811        0.0100127403       -0.0139509359
  O         0.0012889867        0.0157463336       -0.0045141127
  S        -0.0023166466        0.0096866384        0.0067305375
  S         0.0285261508        0.0118305659       -0.0131793962
  S         0.0144840124       -0.0083042696       -0.0105191847
  O         0.0266202544       -0.0130160889        0.0168865897
  O        -0.0139635531       -0.0077297352        0.0221051506
  O        -0.0014702474        0.0068129542        0.0089304587
  O        -0.0119600771       -0.0084441609       -0.0008749239
  O        -0.0023159245       -0.0058291201        0.0128875191
  O        -0.0119081588        0.0064159905        0.0063491436
  O         0.0019798370        0.0126324981        0.0095722499
  O         0.0012161337        0.0035107352       -0.0118402384
  O         0.0082586712        0.0050250226        0.0075615527
  O        -0.0233178566       -0.0208989466       -0.0138674752
  O         0.0115727157       -0.0035869117        0.0156339268
  O        -0.0131776962        0.0009502552       -0.0048593925
  O         0.0027792177       -0.0023731648        0.0053544928
  O        -0.0500272967        0.0100853236       -0.0037775887
  O         0.0014926572        0.0118655108        0.0008048564
  H        -0.0140093466        0.0231442022        0.0053329298
  H         0.0271131758       -0.0068504198        0.0145214519
  H        -0.0019355538       -0.0002008422        0.0009503290
  H         0.0095666498       -0.0093342773       -0.0059936360
  H         0.0198267419       -0.0050766509       -0.0133481324
  H         0.0043810513       -0.0040309075        0.0023674879
 Ca         0.0018943633        0.0034178270       -0.0113447524
 Ca         0.0025037573       -0.0082264370        0.0000892456
 Ca        -0.0039554868       -0.0101602494       -0.0025629191
 Ca        -0.0031898647       -0.0037345448        0.0010584463
 Ca        -0.0095108282       -0.0019514964       -0.0019339058
 Ca        -0.0024863995        0.0041248988       -0.0090647040
  S        -0.0176220654       -0.0158104733       -0.0054644320
  S        -0.0425248659       -0.0133439646        0.0070005354
  S        -0.0118721729       -0.0045351418        0.0274117574
  O         0.0114803506        0.0034145250        0.0079182071
  O         0.0176420738        0.0013103566        0.0171676725
  O         0.0102719220        0.0069730166       -0.0169868071
  O         0.0128138186        0.0063052687        0.0145176562
  O         0.0026797554        0.0085676405        0.0025044386
  O        -0.0110112080        0.0096223391        0.0074739768
  O        -0.0050751278       -0.0200411974        0.0167448313
  O        -0.0075194866       -0.0079421214       -0.0009836132
  O         0.0142237975       -0.0033293072       -0.0004389920
  O         0.0121758710        0.0133854197       -0.0085619138
  O         0.0149921730        0.0118761468       -0.0190504320
  O        -0.0016891130        0.0116381226       -0.0215683211
  S         0.0041398854       -0.0086445310        0.0035803416
  S         0.0000426767        0.0311748662       -0.0117419956
  S         0.0035334032        0.0319959983       -0.0089613678
  O        -0.0053353498       -0.0065128587       -0.0124018494
  O        -0.0227861128       -0.0147609346        0.0056171836
  O         0.0049762679        0.0159937842       -0.0104001727
  O        -0.0009795157        0.0027292182       -0.0001012478
  O         0.0130328309       -0.0221834213        0.0161030688
  O         0.0095969363       -0.0086568383        0.0075742621
  O         0.0106978936        0.0082191701        0.0032945978
  O        -0.0138729455        0.0149930947       -0.0082786417
  O        -0.0051834717       -0.0022925960       -0.0026956388
  O        -0.0006435007        0.0106564549       -0.0078065463
  O         0.0104748730       -0.0088867394       -0.0059386875
  O        -0.0099981024       -0.0103499921        0.0101394543
  O        -0.0382389386       -0.0009072085        0.0188739769
  O         0.0069180560       -0.0330760261        0.0164600436
  O        -0.0009826204       -0.0032038575        0.0107686098
  H         0.0303850512        0.0123707578       -0.0204145023
  H        -0.0101497820        0.0026724630       -0.0072353578
  H        -0.0013280223       -0.0046146853       -0.0074262306
  H         0.0124276423       -0.0109597826       -0.0082589397
  H         0.0032968201        0.0043784610       -0.0008928817
  H        -0.0023525340        0.0091724343       -0.0054760320
     180
 i =       30, time =       15.000, E =     -2871.7728111342
 Ca        -0.0084047987        0.0055162188        0.0001448702
 Ca        -0.0049270028       -0.0042861110        0.0031534908
 Ca         0.0024247841       -0.0024352828        0.0047485868
 Ca        -0.0047702004        0.0059112985       -0.0056293337
 Ca        -0.0074732809        0.0046431819       -0.0000560049
 Ca        -0.0011903904        0.0076921461        0.0013170282
  S         0.0099985124        0.0211070982       -0.0241393158
  S         0.0080809175        0.0116897917        0.0136079135
  S         0.0011560313       -0.0094296986        0.0183402363
  O        -0.0019412526       -0.0317918978        0.0123726192
  O        -0.0102931290       -0.0165319080        0.0079947015
  O        -0.0097500448        0.0053291560       -0.0205430847
  O         0.0012035608       -0.0044929178        0.0124092011
  O        -0.0100715615       -0.0015771575       -0.0091435588
  O        -0.0044990756       -0.0056285128        0.0054650467
  O        -0.0134269896       -0.0083994732       -0.0089634715
  O         0.0121987626        0.0230871740       -0.0037209559
  O         0.0168750213       -0.0108685397        0.0029203447
  O        -0.0143952957        0.0023440494        0.0064613592
  O         0.0140333205       -0.0114750853       -0.0029009931
  O        -0.0154967151        0.0023673050       -0.0159223657
  S         0.0039406769       -0.0089518621        0.0009428376
  S        -0.0020854464        0.0066138913        0.0035217257
  S         0.0236101372       -0.0059072770       -0.0253679218
  O         0.0053325425        0.0097347219        0.0059731911
  O        -0.0211007043       -0.0057048789       -0.0083046482
  O         0.0006422178        0.0185747482       -0.0097566864
  O        -0.0034642149       -0.0008033803       -0.0011993844
  O         0.0195996291       -0.0077947778        0.0054629518
  O         0.0028608880       -0.0037920750        0.0113763932
  O         0.0054781020       -0.0084422101       -0.0028489566
  O         0.0247497259       -0.0040939577       -0.0115114542
  O        -0.0296167961       -0.0058764872       -0.0040862715
  O         0.0000996414        0.0008719216        0.0135596333
  O        -0.0181539342        0.0017023235        0.0162004872
  O         0.0128643567        0.0166542455        0.0094311312
  O         0.0213744115        0.0032128666       -0.0237943395
  O         0.0117917078       -0.0175950645        0.0072648208
  O         0.0131475184        0.0069239355       -0.0134475895
  H        -0.0179530308       -0.0091111823        0.0169351497
  H         0.0010145471        0.0080228646       -0.0053325603
  H        -0.0094066553        0.0029375028        0.0143325463
  H         0.0013838066       -0.0021797894        0.0032828468
  H        -0.0116874044       -0.0024584425        0.0035135350
  H         0.0043699121       -0.0018530816        0.0047904366
 Ca         0.0059712262        0.0035128757       -0.0010214283
 Ca        -0.0056992233       -0.0132261725        0.0173178013
 Ca         0.0042065761       -0.0063359760       -0.0021494954
 Ca        -0.0002920306        0.0047345357        0.0066813667
 Ca         0.0062416818        0.0102028230        0.0032199506
 Ca        -0.0024807819       -0.0032069498        0.0021715667
  S         0.0012074895        0.0009203233       -0.0166879601
  S         0.0310205745       -0.0150056088        0.0111383171
  S         0.0208601850       -0.0082728217        0.0049295429
  O         0.0233878709       -0.0016323868        0.0235175662
  O        -0.0021803463        0.0180909735        0.0055199461
  O        -0.0145652214        0.0113406880        0.0000458946
  O        -0.0288230162        0.0111133819       -0.0078230010
  O         0.0007964089       -0.0066977955       -0.0137653076
  O        -0.0177378840        0.0073334134        0.0102566937
  O        -0.0119939799        0.0080335487       -0.0080994889
  O        -0.0165442321        0.0012028513       -0.0024022615
  O         0.0087225867        0.0025968578        0.0005081609
  O        -0.0033897707        0.0062768226        0.0072576765
  O        -0.0120997242        0.0048068309       -0.0061069475
  O         0.0007268847        0.0078286196       -0.0223167920
  S         0.0143430168       -0.0219942052       -0.0207453976
  S        -0.0226868303        0.0198793364       -0.0127104943
  S        -0.0241174860       -0.0036161861       -0.0050076008
  O        -0.0111427225       -0.0127772324        0.0123743436
  O        -0.0062254065       -0.0068074273       -0.0181067338
  O        -0.0060692548       -0.0070462825        0.0118538356
  O         0.0038039415        0.0298384965       -0.0136174163
  O         0.0173216186       -0.0125261362        0.0162273183
  O         0.0084610996        0.0103261043        0.0042025570
  O         0.0243459086        0.0016008745        0.0035967992
  O         0.0199621458        0.0088988850       -0.0380959348
  O         0.0151863834        0.0074061898        0.0150281186
  O        -0.0192938730        0.0036571703        0.0177408254
  O        -0.0115252540       -0.0031895495        0.0171437897
  O         0.0020252278       -0.0139149735       -0.0175846311
  O         0.0081157404       -0.0015748840       -0.0009698648
  O        -0.0085225194        0.0047456628       -0.0231638508
  O         0.0113417746       -0.0287865440       -0.0058213849
  H         0.0014939214        0.0037140894       -0.0002800154
  H         0.0009462480        0.0009139789        0.0102869656
  H         0.0054133425        0.0120482872       -0.0106097999
  H         0.0203201853       -0.0089754700        0.0044882218
  H         0.0080063502        0.0071499407        0.0011521743
  H        -0.0019595643        0.0025887085        0.0042026615
 Ca        -0.0045791304        0.0003348651        0.0096799178
 Ca         0.0003259418       -0.0007189794        0.0027748200
 Ca        -0.0075309758        0.0111244677        0.0118249333
 Ca         0.0089448327       -0.0157037939       -0.0061147119
 Ca         0.0013157422        0.0019217498       -0.0104782530
 Ca         0.0026200166       -0.0105661404       -0.0060136265
  S        -0.0112580325       -0.0176214777        0.0241511685
  S        -0.0086318266       -0.0080671157        0.0052623215
  S         0.0071095988       -0.0199689281        0.0152432225
  O         0.0005706651        0.0164661109       -0.0052846380
  O         0.0024933744        0.0070535890        0.0135060693
  O        -0.0127331816        0.0011212705        0.0014309203
  O         0.0000353009        0.0106804105        0.0052772554
  O         0.0010880472       -0.0081581583        0.0005305872
  O        -0.0153546381       -0.0116952197       -0.0051595178
  O         0.0120187105        0.0039340608       -0.0134158983
  O        -0.0066088404        0.0180815391       -0.0130039839
  O         0.0218389691       -0.0081973842        0.0006336041
  O         0.0039473150       -0.0072616800       -0.0144070096
  O         0.0059157035        0.0089768916       -0.0102732687
  O         0.0021866270        0.0151421566       -0.0056663384
  S         0.0003675457        0.0136789221        0.0104009991
  S         0.0228670566        0.0108336099       -0.0120637982
  S         0.0141023328       -0.0073113957       -0.0092747980
  O         0.0253856402       -0.0149400185        0.0126786106
  O        -0.0121785539       -0.0082851989        0.0232329124
  O        -0.0017188908        0.0058643661        0.0093371857
  O        -0.0123387589       -0.0083625312       -0.0011056868
  O        -0.0008230485       -0.0046864428        0.0109400886
  O        -0.0111392539        0.0054322595        0.0065024753
  O         0.0031141763        0.0113292490        0.0087878630
  O         0.0011974521        0.0039660999       -0.0117114112
  O         0.0082208246        0.0049561963        0.0065108023
  O        -0.0256538383       -0.0213482588       -0.0163288472
  O         0.0110541803       -0.0021830340        0.0164869784
  O        -0.0133692533        0.0009656613       -0.0056373769
  O         0.0053924841       -0.0021135072        0.0040793175
  O        -0.0538788918        0.0113624155       -0.0121475486
  O         0.0053154776        0.0087527681       -0.0000733157
  H        -0.0176596479        0.0235515099        0.0067290109
  H         0.0341239805       -0.0088442012        0.0172339468
  H        -0.0025655204       -0.0014526652        0.0020033529
  H         0.0100424122       -0.0096259594       -0.0061942202
  H         0.0168382866       -0.0028896712       -0.0095778707
  H         0.0015260247        0.0005730590        0.0026057623
 Ca         0.0016331906        0.0035676162       -0.0113934297
 Ca         0.0022340755       -0.0085451038       -0.0000410357
 Ca        -0.0041759233       -0.0108081582       -0.0022677901
 Ca        -0.0032502659       -0.0034229444        0.0010216306
 Ca        -0.0093721378       -0.0021894231       -0.0021570648
 Ca        -0.0027358713        0.0038548250       -0.0090290959
  S        -0.0147841026       -0.0141439627       -0.0053224724
  S        -0.0432723123       -0.0128235165        0.0049444355
  S        -0.0147560311       -0.0054162463        0.0292563759
  O         0.0110158835        0.0037262657        0.0079445472
  O         0.0173010263        0.0008940696        0.0181298347
  O         0.0107707893        0.0079035319       -0.0174729995
  O         0.0119002695        0.0060664838        0.0136010633
  O         0.0018796890        0.0076271755        0.0017844335
  O        -0.0116040096        0.0093224315        0.0081299010
  O        -0.0057709743       -0.0209928780        0.0162651313
  O        -0.0069226926       -0.0072192726       -0.0004073504
  O         0.0147612822       -0.0032300169       -0.0003802179
  O         0.0106347916        0.0114924989       -0.0071549777
  O         0.0157315734        0.0113747143       -0.0184168535
  O        -0.0014822643        0.0104950918       -0.0227670309
  S         0.0066227169       -0.0035133686        0.0053739493
  S        -0.0028373127        0.0307839634       -0.0158499414
  S         0.0043834285        0.0286050595       -0.0097852994
  O        -0.0065098026       -0.0104338840       -0.0130748376
  O        -0.0200045240       -0.0166958701        0.0085137676
  O         0.0040257812        0.0153174506       -0.0112731831
  O        -0.0016464776        0.0023756095        0.0005193365
  O         0.0135605559       -0.0211233026        0.0167168567
  O         0.0075276373       -0.0062731437        0.0083028754
  O         0.0112130101        0.0073957487        0.0039218248
  O        -0.0125375450        0.0163979878       -0.0104924321
  O        -0.0046137895       -0.0019372638       -0.0019315367
  O        -0.0019008787        0.0104903714       -0.0091196214
  O         0.0121130585       -0.0084127331       -0.0064408447
  O        -0.0097027061       -0.0094276945        0.0100901788
  O        -0.0554649075       -0.0068493310        0.0303716804
  O         0.0093524119       -0.0312707893        0.0186600645
  O         0.0016612892       -0.0087146703        0.0110255041
  H         0.0487763900        0.0155037913       -0.0327097598
  H        -0.0109500533        0.0004482308       -0.0073457128
  H        -0.0004697988       -0.0041779463       -0.0077260444
  H         0.0108828145       -0.0084158334       -0.0073988354
  H         0.0043841237        0.0045027457       -0.0022652589
  H        -0.0061059905        0.0146249320       -0.0062410783
     180
 i =       31, time =       15.500, E =     -2871.7682038946
 Ca        -0.0085960172        0.0058155503        0.0002022776
 Ca        -0.0048438550       -0.0047017701        0.0031757008
 Ca         0.0025648092       -0.0021660039        0.0045595430
 Ca        -0.0049808817        0.0062575163       -0.0057505735
 Ca        -0.0076681107        0.0053117921       -0.0003205229
 Ca        -0.0008083970        0.0078910225        0.0013270485
  S         0.0120553010        0.0187190204       -0.0226221225
  S         0.0060182571        0.0094308437        0.0132266121
  S        -0.0023621701       -0.0082857341        0.0155230618
  O        -0.0033907971       -0.0302714526        0.0123728025
  O        -0.0089546996       -0.0154522127        0.0066796552
  O        -0.0086251968        0.0063258237       -0.0188086791
  O         0.0007690751       -0.0046147730        0.0115199039
  O        -0.0101630981       -0.0004948417       -0.0090857477
  O        -0.0037123469       -0.0038504364        0.0052280891
  O        -0.0132405789       -0.0090390982       -0.0087236960
  O         0.0125558790        0.0238923576       -0.0046223742
  O         0.0183060081       -0.0116723648        0.0040206458
  O        -0.0139814403        0.0027700307        0.0054772893
  O         0.0151269566       -0.0117574987       -0.0014444738
  O        -0.0168157007        0.0035565299       -0.0158317722
  S         0.0022727522       -0.0109482915        0.0001975318
  S         0.0017964354        0.0091027029       -0.0013643201
  S         0.0208193377       -0.0059663152       -0.0302289775
  O         0.0065921025        0.0105823664        0.0056789263
  O        -0.0199361114       -0.0075585616       -0.0075070572
  O         0.0007945186        0.0161004403       -0.0093105070
  O        -0.0031544412       -0.0005960706       -0.0021883012
  O         0.0180519193       -0.0094436806        0.0036928745
  O         0.0026864442       -0.0034118552        0.0113612041
  O         0.0051804908       -0.0069011449       -0.0032392326
  O         0.0241833242       -0.0035531134       -0.0110729492
  O        -0.0266985819       -0.0059903754       -0.0006931928
  O         0.0012364696        0.0008972600        0.0150898361
  O        -0.0168682676       -0.0016292376        0.0137330804
  O         0.0130244614        0.0164214864        0.0095273956
  O         0.0188110888        0.0069475848       -0.0235103359
  O         0.0117073427       -0.0139165354        0.0083160281
  O         0.0126734888        0.0114685877       -0.0132492932
  H        -0.0180967325       -0.0089729021        0.0170480123
  H         0.0016423046        0.0084536456       -0.0054614738
  H        -0.0102157719        0.0019640405        0.0151896245
  H         0.0038171536       -0.0060663900        0.0020029036
  H        -0.0112303213       -0.0044570695        0.0013832958
  H         0.0055525671       -0.0054412804        0.0039726992
 Ca         0.0058847490        0.0028326495       -0.0011067786
 Ca        -0.0056155556       -0.0127327896        0.0178414802
 Ca         0.0042848988       -0.0064213008       -0.0021545113
 Ca        -0.0000520887        0.0048979061        0.0067445595
 Ca         0.0064480823        0.0103815048        0.0030813515
 Ca        -0.0024554808       -0.0036111279        0.0024041494
  S         0.0022726348       -0.0016591194       -0.0181057726
  S         0.0359408711       -0.0085199260        0.0150276506
  S         0.0206390563       -0.0104632242        0.0052806755
  O         0.0222238268       -0.0001306974        0.0183650562
  O        -0.0023694631        0.0172997361        0.0057166620
  O        -0.0146344494        0.0109142492        0.0003590072
  O        -0.0278789650        0.0116959463       -0.0066640728
  O         0.0021297171       -0.0097275469       -0.0147894613
  O        -0.0174781569        0.0069673032        0.0112394023
  O        -0.0119777562        0.0079340730       -0.0082350539
  O        -0.0195162559       -0.0032179594       -0.0028678706
  O         0.0086118025        0.0027647456        0.0002156299
  O        -0.0042503263        0.0061768903        0.0073396321
  O        -0.0152515835        0.0048707224       -0.0089607206
  O         0.0012057705        0.0072917649       -0.0227921772
  S         0.0129475850       -0.0196543953       -0.0178894982
  S        -0.0235571246        0.0234050448       -0.0109789753
  S        -0.0229231121       -0.0029573923       -0.0038623302
  O        -0.0109318166       -0.0124533300        0.0140506971
  O        -0.0057573502       -0.0078416024       -0.0183253573
  O        -0.0063882610       -0.0065736324        0.0124520920
  O         0.0039464332        0.0296596750       -0.0136363437
  O         0.0167700313       -0.0134311973        0.0151736176
  O         0.0086623756        0.0101197107        0.0038998142
  O         0.0264847383       -0.0007635691        0.0026583003
  O         0.0179534806        0.0066512755       -0.0343727676
  O         0.0144640780        0.0072760709        0.0141471371
  O        -0.0204916662        0.0032718160        0.0152804387
  O        -0.0143856059       -0.0028647932        0.0193997606
  O         0.0009052889       -0.0146117744       -0.0184139359
  O         0.0077122270       -0.0005029080       -0.0018004893
  O        -0.0128105983        0.0042381521       -0.0163281030
  O         0.0096187267       -0.0374297357       -0.0009993957
  H         0.0013621158        0.0036215359        0.0001507184
  H        -0.0002237632        0.0014690396        0.0101503319
  H         0.0080446202        0.0193934030       -0.0157263438
  H         0.0208496841       -0.0100981846        0.0049204480
  H         0.0137822607        0.0073054483       -0.0060887484
  H        -0.0028214601        0.0033101944        0.0044963290
 Ca        -0.0046319781        0.0000061572        0.0096723130
 Ca         0.0004581945       -0.0007416827        0.0029229009
 Ca        -0.0077554189        0.0116362844        0.0125041767
 Ca         0.0090110459       -0.0163172987       -0.0065332049
 Ca         0.0015992484        0.0016023168       -0.0111040650
 Ca         0.0024798588       -0.0105173157       -0.0058971153
  S        -0.0103392591       -0.0161981091        0.0232170369
  S        -0.0100185301       -0.0029078522       -0.0000333023
  S         0.0088841050       -0.0194053564        0.0169057646
  O         0.0008930353        0.0164010658       -0.0049257965
  O         0.0018175915        0.0066788127        0.0152023329
  O        -0.0130563262        0.0008101846        0.0018017510
  O        -0.0004680362        0.0114822685        0.0056666371
  O         0.0015504102       -0.0089890434        0.0007854911
  O        -0.0148061472       -0.0102515658       -0.0068165088
  O         0.0120978018        0.0043173008       -0.0134920170
  O        -0.0078979572        0.0150892523       -0.0150471367
  O         0.0207001044       -0.0077408268       -0.0010963889
  O         0.0028835770       -0.0086868155       -0.0133228152
  O         0.0088812092        0.0079364662       -0.0063965747
  O         0.0031300564        0.0145538886       -0.0068086262
  S         0.0029452343        0.0176602573        0.0138684608
  S         0.0170948874        0.0098148171       -0.0110001690
  S         0.0136052135       -0.0062714693       -0.0079441043
  O         0.0240832980       -0.0166879825        0.0095606916
  O        -0.0105571711       -0.0088458761        0.0244685735
  O        -0.0019554810        0.0049308036        0.0098698866
  O        -0.0126584496       -0.0082141081       -0.0013569326
  O         0.0006482420       -0.0036172521        0.0097947187
  O        -0.0103043638        0.0044102605        0.0069048469
  O         0.0042002205        0.0103909726        0.0081072076
  O         0.0011956835        0.0042726946       -0.0116547872
  O         0.0081111811        0.0048171122        0.0054970241
  O        -0.0276955999       -0.0217706928       -0.0184423466
  O         0.0104989033       -0.0006608645        0.0173459249
  O        -0.0133522972        0.0008500141       -0.0062262469
  O         0.0065647506       -0.0024223168        0.0007929249
  O        -0.0525223297        0.0107540546       -0.0200610571
  O         0.0085864558        0.0054100397       -0.0006169069
  H        -0.0194221992        0.0233543874        0.0072892766
  H         0.0375061191       -0.0094917100        0.0182255942
  H        -0.0030219306       -0.0023699236        0.0027549743
  H         0.0100480763       -0.0091129357       -0.0060995036
  H         0.0125175303       -0.0002653180       -0.0044761864
  H        -0.0011843436        0.0049149023        0.0028079531
 Ca         0.0013831920        0.0037293766       -0.0114472199
 Ca         0.0019357238       -0.0088550951       -0.0001848077
 Ca        -0.0044074859       -0.0115131081       -0.0019695798
 Ca        -0.0033059707       -0.0031135354        0.0009756670
 Ca        -0.0092372310       -0.0024147292       -0.0023715141
 Ca        -0.0029912376        0.0035441351       -0.0089789002
  S        -0.0118210975       -0.0124162028       -0.0050955498
  S        -0.0438702523       -0.0122561248        0.0028835985
  S        -0.0174723429       -0.0061796703        0.0310313523
  O         0.0106093881        0.0040917587        0.0079353077
  O         0.0168876559        0.0004905362        0.0190078407
  O         0.0110403866        0.0086933423       -0.0185580478
  O         0.0109668874        0.0058005243        0.0125344779
  O         0.0011735427        0.0066746728        0.0009025733
  O        -0.0121644879        0.0090274111        0.0087760400
  O        -0.0064710088       -0.0215288979        0.0158198054
  O        -0.0063372642       -0.0064659579        0.0001869833
  O         0.0151181417       -0.0031426449       -0.0002638584
  O         0.0090025839        0.0095252826       -0.0055422917
  O         0.0164248167        0.0108684613       -0.0177496757
  O        -0.0008328886        0.0099903182       -0.0239959695
  S         0.0090934652        0.0016500784        0.0070297754
  S        -0.0055598096        0.0300604521       -0.0197879091
  S         0.0051461295        0.0250860797       -0.0105735669
  O        -0.0077935172       -0.0143668940       -0.0136108930
  O        -0.0172654497       -0.0183186451        0.0112903585
  O         0.0032253261        0.0141945506       -0.0124194779
  O        -0.0023997599        0.0017732790        0.0014128469
  O         0.0142061243       -0.0198880569        0.0170697430
  O         0.0053392727       -0.0033213688        0.0090216938
  O         0.0114713706        0.0064365253        0.0044419852
  O        -0.0111678212        0.0176938728       -0.0126303349
  O        -0.0040005806       -0.0015234145       -0.0011284173
  O        -0.0031194015        0.0104440039       -0.0102830554
  O         0.0133715448       -0.0084315703       -0.0069945334
  O        -0.0092428518       -0.0082724224        0.0100927778
  O        -0.0643965209       -0.0124407167        0.0376920695
  O         0.0118362174       -0.0294438820        0.0202632841
  O         0.0035262064       -0.0127670818        0.0112018085
  H         0.0596425568        0.0171736055       -0.0399652024
  H        -0.0112991415       -0.0020141983       -0.0071380246
  H         0.0003253794       -0.0036925319       -0.0079670068
  H         0.0085645409       -0.0046914432       -0.0062623500
  H         0.0052004771        0.0046129290       -0.0033908255
  H        -0.0089321776        0.0186293205       -0.0069602040
     180
 i =       32, time =       16.000, E =     -2871.7651609899
 Ca        -0.0087956227        0.0060893025        0.0002889121
 Ca        -0.0047557425       -0.0051059531        0.0031892093
 Ca         0.0026818450       -0.0018803425        0.0043742877
 Ca        -0.0051963233        0.0066321642       -0.0058779889
 Ca        -0.0078761864        0.0059800083       -0.0005930401
 Ca        -0.0004279449        0.0080799692        0.0013469133
  S         0.0140589224        0.0162352820       -0.0209454759
  S         0.0039850247        0.0071824788        0.0129039851
  S        -0.0059229890       -0.0071704937        0.0126306535
  O        -0.0049607298       -0.0285499493        0.0121864502
  O        -0.0070836231       -0.0145034439        0.0052285965
  O        -0.0074402769        0.0073432167       -0.0170027195
  O         0.0003188804       -0.0047136468        0.0107513279
  O        -0.0097798499        0.0005957911       -0.0090325713
  O        -0.0028738371       -0.0021331934        0.0042556144
  O        -0.0131441804       -0.0097662340       -0.0083471514
  O         0.0128451971        0.0245532209       -0.0053830067
  O         0.0197092493       -0.0124256312        0.0050539899
  O        -0.0133988611        0.0032406300        0.0043559791
  O         0.0162414923       -0.0119224935       -0.0000030350
  O        -0.0179536303        0.0044987257       -0.0154745317
  S         0.0007362816       -0.0128160080       -0.0004755419
  S         0.0056696370        0.0118005256       -0.0064051644
  S         0.0180921422       -0.0059378829       -0.0348438937
  O         0.0076788424        0.0113503565        0.0053696306
  O        -0.0187370547       -0.0094551714       -0.0066919480
  O         0.0010032852        0.0136495218       -0.0086668828
  O        -0.0028390910       -0.0003937981       -0.0031594406
  O         0.0165714277       -0.0110043647        0.0020971412
  O         0.0021173285       -0.0030925315        0.0113834877
  O         0.0048195259       -0.0054461909       -0.0036227413
  O         0.0236594320       -0.0029669722       -0.0104956827
  O        -0.0231341725       -0.0064306358        0.0030694587
  O         0.0023304475        0.0010481787        0.0167050970
  O        -0.0154709866       -0.0050643843        0.0109046409
  O         0.0131441446        0.0160581006        0.0095689326
  O         0.0147493739        0.0096633228       -0.0214589987
  O         0.0110850679       -0.0099958471        0.0091804860
  O         0.0116062540        0.0145756652       -0.0118911429
  H        -0.0161612748       -0.0081032808        0.0154359930
  H         0.0025542084        0.0085611693       -0.0053663215
  H        -0.0102317461        0.0016327829        0.0148693268
  H         0.0058739331       -0.0093819477        0.0008022257
  H        -0.0105927247       -0.0065062040       -0.0008720112
  H         0.0065590189       -0.0082511813        0.0031612410
 Ca         0.0057881081        0.0021478466       -0.0012365161
 Ca        -0.0055034381       -0.0122041122        0.0183519616
 Ca         0.0043854019       -0.0064615372       -0.0021651313
 Ca         0.0002213668        0.0050200652        0.0067795656
 Ca         0.0066110314        0.0105455947        0.0029394652
 Ca        -0.0024157254       -0.0040033255        0.0026451662
  S         0.0032834053       -0.0042322899       -0.0195218134
  S         0.0406167232       -0.0019164675        0.0186225125
  S         0.0202985539       -0.0125408333        0.0056111616
  O         0.0208588243        0.0015929239        0.0165854026
  O        -0.0025864224        0.0164824838        0.0059518999
  O        -0.0146537403        0.0104879998        0.0007652659
  O        -0.0268078917        0.0122591694       -0.0054908364
  O         0.0032627528       -0.0128538968       -0.0155809560
  O        -0.0170047916        0.0066445990        0.0120921925
  O        -0.0105118807        0.0077035874       -0.0081004602
  O        -0.0224811029       -0.0076773758       -0.0033077674
  O         0.0084477005        0.0028813478       -0.0000391106
  O        -0.0050011519        0.0059172740        0.0073917984
  O        -0.0180995285        0.0047364010       -0.0116181245
  O         0.0016426295        0.0067185427       -0.0231659022
  S         0.0115676944       -0.0173456275       -0.0150095020
  S        -0.0243524442        0.0269132975       -0.0091884903
  S        -0.0216254845       -0.0022970943       -0.0026523976
  O        -0.0107668048       -0.0120393122        0.0157211238
  O        -0.0053268372       -0.0087883905       -0.0185052505
  O        -0.0066175421       -0.0060549624        0.0126908901
  O         0.0040412125        0.0293992571       -0.0135830322
  O         0.0161011393       -0.0142257711        0.0141335439
  O         0.0087697932        0.0099237430        0.0031031388
  O         0.0282918208       -0.0031035155        0.0018041916
  O         0.0151324101        0.0039749848       -0.0298869075
  O         0.0136676874        0.0071116205        0.0132280303
  O        -0.0215728802        0.0028693938        0.0127712377
  O        -0.0173208221       -0.0028598673        0.0215331853
  O        -0.0000983739       -0.0151560347       -0.0186026763
  O         0.0070335661        0.0006939426       -0.0025683892
  O        -0.0160074744        0.0032664985       -0.0101928375
  O         0.0082457145       -0.0430466439        0.0023313516
  H         0.0012840731        0.0034719453        0.0005527679
  H        -0.0014471185        0.0020719121        0.0097682034
  H         0.0097364363        0.0242780703       -0.0191508323
  H         0.0194714799       -0.0111835383        0.0051600574
  H         0.0186008743        0.0078516264       -0.0122454874
  H        -0.0032207024        0.0035335441        0.0045884549
 Ca        -0.0046785716       -0.0003195203        0.0096762508
 Ca         0.0005967036       -0.0007551457        0.0030610004
 Ca        -0.0080060706        0.0122284782        0.0131964163
 Ca         0.0090065163       -0.0168616039       -0.0068412399
 Ca         0.0019596025        0.0011663076       -0.0117327415
 Ca         0.0023382451       -0.0104287283       -0.0057954965
  S        -0.0093929859       -0.0146944753        0.0222329950
  S        -0.0113543170        0.0023691141       -0.0055061099
  S         0.0106896812       -0.0188835844        0.0185150914
  O         0.0012372985        0.0162691352       -0.0045269447
  O         0.0012624425        0.0062993624        0.0172800456
  O        -0.0132728777        0.0004746426        0.0020698436
  O        -0.0009845690        0.0122826469        0.0060246297
  O         0.0019442845       -0.0097262794        0.0010763838
  O        -0.0142787559       -0.0087461392       -0.0080978909
  O         0.0119851918        0.0048488504       -0.0134851602
  O        -0.0090959715        0.0120204051       -0.0167121885
  O         0.0194140931       -0.0071244686       -0.0026605731
  O         0.0018206722       -0.0099964638       -0.0122869890
  O         0.0118132354        0.0068786106       -0.0024325188
  O         0.0040914114        0.0139390926       -0.0079135167
  S         0.0053828661        0.0215829182        0.0171247990
  S         0.0112773251        0.0087768103       -0.0100130130
  S         0.0129945191       -0.0051932422       -0.0065390263
  O         0.0227224454       -0.0184876513        0.0076591589
  O        -0.0091394019       -0.0095340006        0.0255539974
  O        -0.0021880346        0.0040252695        0.0104078486
  O        -0.0129229326       -0.0080446869       -0.0016343522
  O         0.0020446812       -0.0026927039        0.0096365079
  O        -0.0094184012        0.0033476825        0.0078363521
  O         0.0052561986        0.0095760706        0.0073071700
  O         0.0012324718        0.0045091950       -0.0116384044
  O         0.0078711357        0.0047506235        0.0044559894
  O        -0.0295248537       -0.0222174909       -0.0202630246
  O         0.0098864068        0.0008675602        0.0181738720
  O        -0.0131503275        0.0006543489       -0.0066593324
  O         0.0063313516       -0.0031919330       -0.0045517487
  O        -0.0453380116        0.0078966703       -0.0271154539
  O         0.0109033762        0.0021584781       -0.0006191555
  H        -0.0192247395        0.0225685573        0.0070354988
  H         0.0364913503       -0.0083736393        0.0172344656
  H        -0.0032622248       -0.0028567462        0.0031255941
  H         0.0095693045       -0.0078017865       -0.0057105814
  H         0.0070252500        0.0027333432        0.0018736183
  H        -0.0034798630        0.0085884075        0.0029549859
 Ca         0.0011399666        0.0039044262       -0.0115089696
 Ca         0.0016147610       -0.0091587376       -0.0003445093
 Ca        -0.0046355514       -0.0122727748       -0.0016856023
 Ca        -0.0033563046       -0.0028032780        0.0009252794
 Ca        -0.0091168538       -0.0025999652       -0.0025827742
 Ca        -0.0032584078        0.0032043569       -0.0089156685
  S        -0.0087599915       -0.0106438665       -0.0047745367
  S        -0.0443031918       -0.0116476597        0.0008343046
  S        -0.0199475462       -0.0067981082        0.0327303726
  O         0.0102537849        0.0045288139        0.0079768398
  O         0.0163952774        0.0000617065        0.0198069536
  O         0.0110266989        0.0093127378       -0.0201777464
  O         0.0100433597        0.0055213133        0.0113030338
  O         0.0007133996        0.0057916211        0.0001767470
  O        -0.0126845226        0.0087244256        0.0094105470
  O        -0.0069894717       -0.0216083919        0.0151446666
  O        -0.0057694099       -0.0056906412        0.0007930999
  O         0.0153346643       -0.0029420990       -0.0000222322
  O         0.0073365412        0.0075807268       -0.0038704570
  O         0.0170596342        0.0103570234       -0.0170273909
  O         0.0001839322        0.0100087647       -0.0249077740
  S         0.0114915005        0.0067521899        0.0085387634
  S        -0.0081027173        0.0290230489       -0.0235137934
  S         0.0058063973        0.0214802788       -0.0113091479
  O        -0.0091976608       -0.0182038663       -0.0140329981
  O        -0.0146033826       -0.0197498697        0.0139328995
  O         0.0025629813        0.0127288446       -0.0137998086
  O        -0.0031469952        0.0009312899        0.0024276082
  O         0.0148789319       -0.0184528800        0.0172197933
  O         0.0032303507        0.0000059036        0.0096821520
  O         0.0116716981        0.0053055692        0.0047750741
  O        -0.0097890618        0.0188585320       -0.0146823288
  O        -0.0033624091       -0.0010811629       -0.0003851792
  O        -0.0042718459        0.0104869197       -0.0112723296
  O         0.0142713632       -0.0087074246       -0.0074891062
  O        -0.0085013321       -0.0068623132        0.0102290107
  O        -0.0612582386       -0.0168785941        0.0366799868
  O         0.0142344046       -0.0275748703        0.0211424409
  O         0.0045866319       -0.0151979720        0.0112104132
  H         0.0591992875        0.0167344883       -0.0396276961
  H        -0.0112160280       -0.0046270977       -0.0066378653
  H         0.0009892308       -0.0032441733       -0.0081121276
  H         0.0055736724        0.0001417325       -0.0049257200
  H         0.0056711977        0.0047254418       -0.0041891266
  H        -0.0107469810        0.0210492476       -0.0075760632
     180
 i =       33, time =       16.500, E =     -2871.7636951854
 Ca        -0.0090145001        0.0063478028        0.0004011545
 Ca        -0.0046635266       -0.0055032865        0.0031937841
 Ca         0.0027650729       -0.0015674840        0.0042090085
 Ca        -0.0054256661        0.0070367254       -0.0060066818
 Ca        -0.0081086755        0.0066483540       -0.0008706491
 Ca        -0.0000482440        0.0082618082        0.0013865636
  S         0.0160233205        0.0136262243       -0.0190759298
  S         0.0019781597        0.0049428991        0.0126207934
  S        -0.0095806080       -0.0060760699        0.0096379654
  O        -0.0067414593       -0.0265085646        0.0118184718
  O        -0.0049281062       -0.0136200541        0.0036459144
  O        -0.0061850859        0.0084053451       -0.0151312465
  O        -0.0001528506       -0.0048020512        0.0098290750
  O        -0.0090031190        0.0017199259       -0.0087331723
  O        -0.0017978723       -0.0007150221        0.0025818961
  O        -0.0132172900       -0.0105223001       -0.0078482894
  O         0.0130687323        0.0250545137       -0.0060144242
  O         0.0210814986       -0.0131682471        0.0060521660
  O        -0.0126090336        0.0037905061        0.0031267858
  O         0.0173782586       -0.0120305573        0.0014555052
  O        -0.0189301780        0.0052802203       -0.0148549128
  S        -0.0006629124       -0.0145640867       -0.0010785135
  S         0.0096023031        0.0147387963       -0.0116686161
  S         0.0153956762       -0.0058166530       -0.0392549426
  O         0.0083516295        0.0120086535        0.0048788958
  O        -0.0175122855       -0.0113681802       -0.0058438167
  O         0.0013854168        0.0111560294       -0.0078647880
  O        -0.0025089329       -0.0002093058       -0.0041517078
  O         0.0150224780       -0.0124164549        0.0007244104
  O         0.0014413296       -0.0028392238        0.0113315307
  O         0.0044012440       -0.0040679123       -0.0039877703
  O         0.0231897785       -0.0023459723       -0.0099179972
  O        -0.0193691235       -0.0069753437        0.0076189867
  O         0.0033472085        0.0011822000        0.0183495024
  O        -0.0136717887       -0.0083608702        0.0078905815
  O         0.0132534496        0.0155394895        0.0095032844
  O         0.0092715779        0.0110425910       -0.0178291888
  O         0.0100169297       -0.0058477404        0.0097490876
  O         0.0100402517        0.0158527404       -0.0094419574
  H        -0.0121471606       -0.0064966642        0.0121034165
  H         0.0037455995        0.0083543946       -0.0050561919
  H        -0.0094335911        0.0019624629        0.0133689059
  H         0.0074574876       -0.0119620125       -0.0002750296
  H        -0.0098183516       -0.0085441378       -0.0030760341
  H         0.0072269237       -0.0098910211        0.0023875635
 Ca         0.0056811991        0.0014477499       -0.0014184311
 Ca        -0.0053591476       -0.0116374801        0.0188608744
 Ca         0.0045065240       -0.0064649182       -0.0021695602
 Ca         0.0005140269        0.0050932317        0.0067870483
 Ca         0.0067205778        0.0106899413        0.0027959934
 Ca        -0.0023606038       -0.0043868591        0.0028997930
  S         0.0042472193       -0.0068229214       -0.0209224203
  S         0.0450958912        0.0048297417        0.0219315972
  S         0.0198351102       -0.0145146082        0.0059218406
  O         0.0189422779        0.0040277773        0.0161986675
  O        -0.0028369950        0.0156723810        0.0062450512
  O        -0.0146100225        0.0101026582        0.0012226464
  O        -0.0255904818        0.0128104285       -0.0042960158
  O         0.0042254589       -0.0161079711       -0.0162214746
  O        -0.0163465732        0.0063595558        0.0128126497
  O        -0.0072461695        0.0073082043       -0.0076877059
  O        -0.0253719833       -0.0120743588       -0.0037023653
  O         0.0082048476        0.0029368469       -0.0002451380
  O        -0.0056224478        0.0054752409        0.0074556785
  O        -0.0206615039        0.0044448123       -0.0140758542
  O         0.0020480124        0.0061149894       -0.0234298142
  S         0.0101791473       -0.0150402432       -0.0120775055
  S        -0.0250735648        0.0304334553       -0.0073218885
  S        -0.0202090066       -0.0016287336       -0.0013580012
  O        -0.0105780019       -0.0114383495        0.0173046606
  O        -0.0049026569       -0.0095908442       -0.0186595538
  O        -0.0067304194       -0.0054946042        0.0131861810
  O         0.0040963721        0.0290440197       -0.0134501429
  O         0.0152288538       -0.0148683166        0.0131177893
  O         0.0087831317        0.0097390465        0.0018289802
  O         0.0298464862       -0.0054536906        0.0009844297
  O         0.0114470657        0.0009706062       -0.0249208886
  O         0.0127728849        0.0069340617        0.0122150132
  O        -0.0225177237        0.0024604637        0.0100261507
  O        -0.0201102512       -0.0030199896        0.0234465247
  O        -0.0009611081       -0.0155841890       -0.0181182166
  O         0.0060939969        0.0020907603       -0.0031757365
  O        -0.0180362890        0.0018400413       -0.0050066340
  O         0.0076187570       -0.0446233178        0.0034898731
  H         0.0012748843        0.0032529309        0.0009142156
  H        -0.0026285910        0.0027054092        0.0091646282
  H         0.0101130483        0.0257057215       -0.0201759539
  H         0.0162088413       -0.0122041841        0.0051925288
  H         0.0222527035        0.0087482025       -0.0171314348
  H        -0.0031142950        0.0032255285        0.0044619139
 Ca        -0.0047244277       -0.0006432272        0.0097036232
 Ca         0.0007381264       -0.0007565275        0.0031876627
 Ca        -0.0082881157        0.0129180742        0.0139215779
 Ca         0.0089463851       -0.0173411192       -0.0070418773
 Ca         0.0024212658        0.0006257556       -0.0123774603
 Ca         0.0021978200       -0.0103066805       -0.0057100925
  S        -0.0084095846       -0.0130913508        0.0211934188
  S        -0.0126702923        0.0078022449       -0.0111214219
  S         0.0125688775       -0.0183581999        0.0200884533
  O         0.0016048344        0.0160748837       -0.0040844272
  O         0.0007712928        0.0058797399        0.0186858073
  O        -0.0134242269        0.0000948870        0.0022301848
  O        -0.0014948402        0.0130427612        0.0063817141
  O         0.0022821898       -0.0103808574        0.0014009823
  O        -0.0135133732       -0.0073852271       -0.0088675725
  O         0.0118063440        0.0054576886       -0.0135068970
  O        -0.0103955914        0.0089263169       -0.0177811287
  O         0.0179410045       -0.0063518216       -0.0038614703
  O         0.0007455199       -0.0112204558       -0.0112783164
  O         0.0147803953        0.0057207724        0.0015629315
  O         0.0050569089        0.0132609921       -0.0089588939
  S         0.0076947307        0.0254944347        0.0202068068
  S         0.0053638110        0.0076944128       -0.0090970445
  S         0.0122573279       -0.0040640852       -0.0050335801
  O         0.0213100434       -0.0205933539        0.0065799406
  O        -0.0078215903       -0.0103088938        0.0265421303
  O        -0.0024360019        0.0031608118        0.0110118911
  O        -0.0131172699       -0.0078441001       -0.0019026443
  O         0.0033922944       -0.0018294371        0.0098967428
  O        -0.0084871684        0.0022262077        0.0081420652
  O         0.0063385755        0.0086456855        0.0063536444
  O         0.0012950384        0.0047156410       -0.0116586766
  O         0.0074629546        0.0048318351        0.0032955888
  O        -0.0312072230       -0.0227777597       -0.0218437344
  O         0.0092144295        0.0025013816        0.0189404836
  O        -0.0128067529        0.0004358203       -0.0070094338
  O         0.0048912409       -0.0042966077       -0.0073574485
  O        -0.0328915759        0.0029192291       -0.0332131014
  O         0.0120778086       -0.0007826489       -0.0000514761
  H        -0.0170383138        0.0212152660        0.0059615672
  H         0.0313763030       -0.0054755542        0.0144490723
  H        -0.0032755187       -0.0028767404        0.0030789612
  H         0.0085824172       -0.0056883935       -0.0050356134
  H         0.0006171774        0.0060214599        0.0092958713
  H        -0.0052242822        0.0113847931        0.0030361929
 Ca         0.0008943746        0.0040978648       -0.0115820647
 Ca         0.0012752021       -0.0094625848       -0.0005238834
 Ca        -0.0048481837       -0.0130920474       -0.0014294458
 Ca        -0.0034013532       -0.0024831868        0.0008763288
 Ca        -0.0090175821       -0.0027290605       -0.0028062905
 Ca        -0.0035467672        0.0028375227       -0.0088433890
  S        -0.0055660171       -0.0088083508       -0.0043434736
  S        -0.0445581280       -0.0109968103       -0.0012224900
  S        -0.0221664107       -0.0072657707        0.0343691121
  O         0.0098816126        0.0050346223        0.0078373449
  O         0.0158043657       -0.0004330261        0.0205408979
  O         0.0107289791        0.0097475992       -0.0213757874
  O         0.0091122862        0.0052192597        0.0098834605
  O         0.0005699923        0.0050143988       -0.0003206947
  O        -0.0131615776        0.0083927764        0.0100380871
  O        -0.0073256503       -0.0212689192        0.0145886374
  O        -0.0052104476       -0.0048865107        0.0014113475
  O         0.0154428482       -0.0026043555        0.0003856101
  O         0.0056847341        0.0056482459       -0.0022421562
  O         0.0176335090        0.0098317232       -0.0162799810
  O         0.0013718665        0.0101162804       -0.0249200745
  S         0.0138013227        0.0117927246        0.0099111305
  S        -0.0105061875        0.0276749708       -0.0270776055
  S         0.0063672867        0.0177481134       -0.0119977097
  O        -0.0107252078       -0.0219215560       -0.0143728616
  O        -0.0120003422       -0.0209820751        0.0164220776
  O         0.0020072377        0.0110374291       -0.0153764003
  O        -0.0038039358       -0.0001510061        0.0034832087
  O         0.0155286594       -0.0168395100        0.0172978493
  O         0.0013253385        0.0038425787        0.0105011191
  O         0.0119763334        0.0040536028        0.0048950152
  O        -0.0083755975        0.0199164846       -0.0166719067
  O        -0.0027028455       -0.0006162267        0.0003990306
  O        -0.0053247858        0.0105075542       -0.0120653133
  O         0.0150787638       -0.0088595918       -0.0078974663
  O        -0.0074261462       -0.0051735415        0.0105028439
  O        -0.0458705758       -0.0200002920        0.0302744054
  O         0.0163577947       -0.0254695213        0.0212677778
  O         0.0048834266       -0.0158966566        0.0110017130
  H         0.0475023056        0.0141521397       -0.0317440135
  H        -0.0107177235       -0.0073554372       -0.0058600979
  H         0.0014751814       -0.0028964341       -0.0081325008
  H         0.0020542645        0.0059148387       -0.0034886395
  H         0.0057619313        0.0048511765       -0.0046253409
  H        -0.0115480044        0.0218723506       -0.0080561106
     180
 i =       34, time =       17.000, E =     -2871.7627777313
 Ca        -0.0092507945        0.0065920081        0.0005256092
 Ca        -0.0045732106       -0.0058840900        0.0031904968
 Ca         0.0028054291       -0.0012340726        0.0040857331
 Ca        -0.0056793487        0.0074618207       -0.0061261978
 Ca        -0.0083739739        0.0072906360       -0.0011413457
 Ca         0.0003175939        0.0084319207        0.0014522057
  S         0.0178925843        0.0109510538       -0.0170523608
  S         0.0000701449        0.0027835623        0.0123646196
  S        -0.0132611645       -0.0050305335        0.0066157476
  O        -0.0087391063       -0.0240861760        0.0112542944
  O        -0.0029385470       -0.0126952849        0.0020183161
  O        -0.0048827018        0.0094977939       -0.0131938395
  O        -0.0006365921       -0.0048853854        0.0087941271
  O        -0.0081909621        0.0027708829       -0.0081756430
  O        -0.0004092245        0.0002447187        0.0008738791
  O        -0.0133273511       -0.0111983434       -0.0072187481
  O         0.0131942810        0.0254063397       -0.0065245723
  O         0.0223937103       -0.0139051761        0.0069746176
  O        -0.0116107197        0.0044007167        0.0017265573
  O         0.0185059412       -0.0120496382        0.0028966485
  O        -0.0197382731        0.0059005495       -0.0138995214
  S        -0.0018590851       -0.0161463900       -0.0015992675
  S         0.0135057086        0.0178500890       -0.0170230487
  S         0.0127871210       -0.0055986692       -0.0433381177
  O         0.0085338044        0.0124082447        0.0043878363
  O        -0.0162821361       -0.0131884678       -0.0049628436
  O         0.0014500503        0.0086633650       -0.0069119672
  O        -0.0021903123       -0.0000466860       -0.0051128665
  O         0.0134719477       -0.0136212125       -0.0006131106
  O         0.0010277941       -0.0026554433        0.0111637839
  O         0.0039111301       -0.0028075228       -0.0042259589
  O         0.0227952975       -0.0018039130       -0.0092973323
  O        -0.0161981829       -0.0071928470        0.0115552516
  O         0.0042294353        0.0011953587        0.0199071510
  O        -0.0113757127       -0.0111332006        0.0048750949
  O         0.0133431776        0.0148818659        0.0093014874
  O         0.0025575250        0.0108243553       -0.0127587038
  O         0.0086153760       -0.0017574586        0.0099765615
  O         0.0082319473        0.0149966800       -0.0060140530
  H        -0.0063014357       -0.0042404679        0.0072459346
  H         0.0051400526        0.0078730825       -0.0045578769
  H        -0.0078740379        0.0029265783        0.0108109668
  H         0.0084605325       -0.0136147319       -0.0011544924
  H        -0.0089659676       -0.0104393072       -0.0050149312
  H         0.0074059359       -0.0100382010        0.0016751051
 Ca         0.0055744234        0.0007542917       -0.0016431549
 Ca        -0.0051867111       -0.0110516409        0.0193490069
 Ca         0.0046413319       -0.0064390682       -0.0021562966
 Ca         0.0008142873        0.0051116958        0.0067666224
 Ca         0.0067646715        0.0108013075        0.0026530918
 Ca        -0.0022918138       -0.0047485755        0.0031649636
  S         0.0051333354       -0.0093590981       -0.0222638028
  S         0.0492491838        0.0114956221        0.0248474737
  S         0.0192554038       -0.0163204068        0.0062060798
  O         0.0163828948        0.0073954732        0.0166089599
  O        -0.0030835799        0.0149352795        0.0065737367
  O        -0.0144961236        0.0097891706        0.0017104618
  O        -0.0242574125        0.0133278135       -0.0031198705
  O         0.0050552966       -0.0193364285       -0.0168576454
  O        -0.0155831783        0.0060806509        0.0133972284
  O        -0.0023121392        0.0067569986       -0.0069986716
  O        -0.0281105746       -0.0162537949       -0.0040306248
  O         0.0078689195        0.0029207910       -0.0003861311
  O        -0.0060962267        0.0048465324        0.0074301637
  O        -0.0228677676        0.0042010170       -0.0161644611
  O         0.0023780415        0.0054792954       -0.0235630197
  S         0.0088170918       -0.0127870856       -0.0091715950
  S        -0.0257028984        0.0338721347       -0.0054291632
  S        -0.0187044634       -0.0009663737       -0.0000076660
  O        -0.0103424761       -0.0106260566        0.0187221191
  O        -0.0044808176       -0.0102168169       -0.0187983736
  O        -0.0067388304       -0.0049305839        0.0135016151
  O         0.0041155940        0.0285889221       -0.0132168105
  O         0.0141822536       -0.0157043043        0.0120942869
  O         0.0087085505        0.0095756809        0.0003697068
  O         0.0312229327       -0.0077620081        0.0001488341
  O         0.0075865697       -0.0023149535       -0.0204402794
  O         0.0117693640        0.0067361156        0.0111293189
  O        -0.0233262264        0.0020504847        0.0071762709
  O        -0.0225770481       -0.0032068235        0.0251061833
  O        -0.0016362526       -0.0159389604       -0.0161137630
  O         0.0047519185        0.0036562436       -0.0036014495
  O        -0.0188350222        0.0000390435       -0.0010779859
  O         0.0078635979       -0.0417733225        0.0021722901
  H         0.0013419687        0.0029652918        0.0012103212
  H        -0.0036348834        0.0033245843        0.0083883304
  H         0.0090447625        0.0232789832       -0.0185130153
  H         0.0112753645       -0.0130955937        0.0050096712
  H         0.0245212068        0.0098882480       -0.0205209348
  H        -0.0025078773        0.0024112501        0.0041261548
 Ca        -0.0047726556       -0.0009535477        0.0097614360
 Ca         0.0008714152       -0.0007432970        0.0032979808
 Ca        -0.0085946822        0.0136941796        0.0146696713
 Ca         0.0088539280       -0.0177492124       -0.0071364493
 Ca         0.0029828346        0.0000254182       -0.0130285483
 Ca         0.0020650688       -0.0101634534       -0.0056350255
  S        -0.0074125385       -0.0114214144        0.0201263694
  S        -0.0139546336        0.0132297302       -0.0166313905
  S         0.0144905975       -0.0178010770        0.0216033685
  O         0.0019901627        0.0157986071       -0.0036028603
  O         0.0003801720        0.0054455965        0.0202368958
  O        -0.0135319460       -0.0003410706        0.0023022208
  O        -0.0019589189        0.0137024054        0.0066818445
  O         0.0025697900       -0.0109432724        0.0017365965
  O        -0.0123095303       -0.0063155773       -0.0095304623
  O         0.0115865179        0.0060475802       -0.0133525938
  O        -0.0119643886        0.0058075314       -0.0181599318
  O         0.0163062263       -0.0054635667       -0.0048439618
  O        -0.0003438545       -0.0123669309       -0.0102801723
  O         0.0177458839        0.0044836085        0.0054510393
  O         0.0059521449        0.0125941269       -0.0099102836
  S         0.0098054245        0.0292855118        0.0230319988
  S        -0.0004772582        0.0065825155       -0.0082727867
  S         0.0114111622       -0.0029138329       -0.0034658969
  O         0.0198678652       -0.0228720001        0.0058058163
  O        -0.0064582150       -0.0110942842        0.0269461843
  O        -0.0026791078        0.0023129863        0.0116687808
  O        -0.0132237409       -0.0076329693       -0.0021997034
  O         0.0046734404       -0.0010293493        0.0102733541
  O        -0.0075452975        0.0010746425        0.0082290789
  O         0.0074587295        0.0075225224        0.0053792606
  O         0.0013602184        0.0049881155       -0.0116182311
  O         0.0069144489        0.0050093050        0.0020021162
  O        -0.0326911371       -0.0234081481       -0.0231850692
  O         0.0084972235        0.0042303565        0.0196560913
  O        -0.0123901483        0.0002745857       -0.0073670040
  O         0.0025023558       -0.0055042700       -0.0079034454
  O        -0.0173946004       -0.0033861700       -0.0381870865
  O         0.0119751155       -0.0031545319        0.0010745284
  H        -0.0129513562        0.0193801385        0.0041272867
  H         0.0234984464       -0.0012853888        0.0105082023
  H        -0.0030646265       -0.0024326972        0.0026158400
  H         0.0071095178       -0.0028823049       -0.0040869472
  H        -0.0059227898        0.0092837261        0.0169710775
  H        -0.0062797174        0.0130901397        0.0030421971
 Ca         0.0006462446        0.0043065818       -0.0116633402
 Ca         0.0009349504       -0.0097622071       -0.0007211665
 Ca        -0.0050294790       -0.0139320015       -0.0012306653
 Ca        -0.0034389574       -0.0021563125        0.0008300327
 Ca        -0.0089418244       -0.0027877195       -0.0030415028
 Ca        -0.0038523694        0.0024617279       -0.0087696261
  S        -0.0023156611       -0.0069543670       -0.0038033115
  S        -0.0446060840       -0.0103224888       -0.0032350490
  S        -0.0240265419       -0.0075701563        0.0358942253
  O         0.0094216535        0.0055775541        0.0077615377
  O         0.0151435617       -0.0008848800        0.0211931911
  O         0.0102647780        0.0099748430       -0.0211375555
  O         0.0081600221        0.0048808473        0.0083179704
  O         0.0007461552        0.0043812000       -0.0006108006
  O        -0.0135888124        0.0080202371        0.0106470433
  O        -0.0073759690       -0.0206829588        0.0137899851
  O        -0.0046888561       -0.0040654682        0.0020258060
  O         0.0155057715       -0.0022731370        0.0009197500
  O         0.0041216026        0.0038156833       -0.0007896894
  O         0.0181192502        0.0092966574       -0.0155219317
  O         0.0024907085        0.0099004933       -0.0249720867
  S         0.0159030947        0.0165743169        0.0111330757
  S        -0.0127209097        0.0260600862       -0.0303943040
  S         0.0068073905        0.0139926286       -0.0126088831
  O        -0.0123094185       -0.0253499841       -0.0145412870
  O        -0.0095142056       -0.0220762905        0.0187041147
  O         0.0015103432        0.0093261084       -0.0170639942
  O        -0.0042904202       -0.0013128442        0.0045574517
  O         0.0161435581       -0.0150351969        0.0171906565
  O        -0.0003343636        0.0081404670        0.0115420339
  O         0.0124292467        0.0028036581        0.0048463574
  O        -0.0069672588        0.0208653215       -0.0185028229
  O        -0.0020573802       -0.0001650003        0.0011180366
  O        -0.0062389509        0.0103745279       -0.0126259934
  O         0.0159162157       -0.0086637825       -0.0082150605
  O        -0.0061335195       -0.0033925324        0.0108293279
  O        -0.0227064333       -0.0219496101        0.0181464218
  O         0.0179486973       -0.0230785811        0.0204940846
  O         0.0043816545       -0.0148258985        0.0103997481
  H         0.0286873187        0.0100972794       -0.0190518727
  H        -0.0098291787       -0.0100615230       -0.0048489380
  H         0.0017297227       -0.0027001025       -0.0080074875
  H        -0.0015904501        0.0119784648       -0.0021086961
  H         0.0054636551        0.0049903619       -0.0046779761
  H        -0.0112970121        0.0210525598       -0.0083568045
     180
 i =       35, time =       17.500, E =     -2871.7611764377
 Ca        -0.0095057330        0.0068269504        0.0006510235
 Ca        -0.0044890577       -0.0062440573        0.0031797952
 Ca         0.0028010083       -0.0008736213        0.0040120477
 Ca        -0.0059701502        0.0079102228       -0.0062326960
 Ca        -0.0086790919        0.0078913706       -0.0014003974
 Ca         0.0006608983        0.0085901512        0.0015415565
  S         0.0196281280        0.0082473600       -0.0149000028
  S        -0.0016811756        0.0007505715        0.0121195681
  S        -0.0169102512       -0.0040553752        0.0036041702
  O        -0.0109243565       -0.0212649195        0.0104210249
  O        -0.0014280072       -0.0116264884        0.0003047719
  O        -0.0035324850        0.0106081291       -0.0111602794
  O        -0.0011348291       -0.0049755664        0.0078972431
  O        -0.0076949718        0.0036640275       -0.0074068126
  O         0.0012392956        0.0006925943       -0.0005970560
  O        -0.0133956368       -0.0117326795       -0.0065444004
  O         0.0131999084        0.0256117628       -0.0069764159
  O         0.0236071278       -0.0146341296        0.0077969349
  O        -0.0104202012        0.0050903925        0.0002343774
  O         0.0196014285       -0.0120099589        0.0043051524
  O        -0.0203803136        0.0063679512       -0.0129117174
  S        -0.0028179049       -0.0175461408       -0.0020256227
  S         0.0173242539        0.0210775426       -0.0223774785
  S         0.0102891035       -0.0052827361       -0.0470438382
  O         0.0084488410        0.0123512455        0.0037396047
  O        -0.0150885460       -0.0148484343       -0.0040370241
  O         0.0013572074        0.0061701298       -0.0058291821
  O        -0.0018875323        0.0000984643       -0.0060465259
  O         0.0119991196       -0.0146964887       -0.0011346720
  O         0.0010984526       -0.0025295787        0.0108187657
  O         0.0033808075       -0.0016943704       -0.0043995397
  O         0.0224523542       -0.0015548842       -0.0087747404
  O        -0.0138584230       -0.0067700544        0.0152359667
  O         0.0049742828        0.0010161925        0.0212794284
  O        -0.0087461824       -0.0133424043        0.0019662044
  O         0.0134027244        0.0141011586        0.0089459152
  O        -0.0049455711        0.0090060041       -0.0068720574
  O         0.0070024478        0.0022117268        0.0097643336
  O         0.0063233460        0.0120655137       -0.0018345622
  H         0.0009056702       -0.0015037164        0.0012570824
  H         0.0066446097        0.0071844567       -0.0039058839
  H        -0.0056719498        0.0044357516        0.0074061404
  H         0.0088462490       -0.0142693196       -0.0017948007
  H        -0.0080756795       -0.0121042780       -0.0065581288
  H         0.0070427355       -0.0086482092        0.0010102703
 Ca         0.0054745816        0.0000752704       -0.0019007271
 Ca        -0.0049880013       -0.0104593808        0.0198323840
 Ca         0.0047819254       -0.0063955354       -0.0021146842
 Ca         0.0011339635        0.0050745885        0.0067220974
 Ca         0.0067414293        0.0108758458        0.0025179475
 Ca        -0.0022116933       -0.0050846955        0.0034363382
  S         0.0059149722       -0.0117929505       -0.0235243468
  S         0.0529888903        0.0179198910        0.0273301227
  S         0.0185526939       -0.0179359355        0.0064626165
  O         0.0134179778        0.0114868562        0.0174919387
  O        -0.0033039143        0.0142987329        0.0069228516
  O        -0.0143169807        0.0095820292        0.0021014907
  O        -0.0228233969        0.0138107197       -0.0019867176
  O         0.0057800737       -0.0223729040       -0.0173732375
  O        -0.0148246256        0.0057650973        0.0138128488
  O         0.0039166551        0.0060393943       -0.0060147157
  O        -0.0306428094       -0.0201086140       -0.0043383951
  O         0.0074518100        0.0028298281       -0.0004524934
  O        -0.0064266386        0.0040736961        0.0073769315
  O        -0.0247674999        0.0040493897       -0.0178084136
  O         0.0026696489        0.0048048271       -0.0235608201
  S         0.0074964163       -0.0106041518       -0.0063358767
  S        -0.0262240115        0.0371689855       -0.0035419389
  S        -0.0171366177       -0.0003254615        0.0013445767
  O        -0.0099781335       -0.0096067075        0.0199904065
  O        -0.0040656078       -0.0106358226       -0.0189567640
  O        -0.0066353382       -0.0043937294        0.0137453787
  O         0.0040982004        0.0280522781       -0.0128839662
  O         0.0129911117       -0.0165804551        0.0109525854
  O         0.0085576595        0.0094367044       -0.0009781680
  O         0.0324827745       -0.0099707459       -0.0006466798
  O         0.0044055660       -0.0055370016       -0.0173684590
  O         0.0106280531        0.0065591737        0.0099619171
  O        -0.0240092364        0.0016387840        0.0043341468
  O        -0.0246588886       -0.0033123943        0.0265536178
  O        -0.0021175270       -0.0162432834       -0.0094048868
  O         0.0028131563        0.0053646849       -0.0037745790
  O        -0.0184258799       -0.0019931428        0.0015430701
  O         0.0088289838       -0.0351252241       -0.0012565498
  H         0.0014795708        0.0026154570        0.0014404387
  H        -0.0043817906        0.0038955545        0.0074735339
  H         0.0067724065        0.0175592511       -0.0145484265
  H         0.0050201793       -0.0138069841        0.0046237947
  H         0.0253532343        0.0111696633       -0.0223766355
  H        -0.0014606923        0.0011646834        0.0036074564
 Ca        -0.0048259722       -0.0012447304        0.0098531561
 Ca         0.0009895294       -0.0007155983        0.0033861756
 Ca        -0.0089168046        0.0145498329        0.0154290712
 Ca         0.0087520001       -0.0180909370       -0.0071349949
 Ca         0.0036384999       -0.0005869942       -0.0136765929
 Ca         0.0019449964       -0.0100100748       -0.0055736779
  S        -0.0064188807       -0.0097047498        0.0190452970
  S        -0.0151974560        0.0185477430       -0.0218515857
  S         0.0164274066       -0.0171823786        0.0230570795
  O         0.0023926974        0.0154448526       -0.0030839275
  O         0.0000899994        0.0049912480        0.0217480893
  O        -0.0136099519       -0.0008280963        0.0022649009
  O        -0.0023640770        0.0142289637        0.0069316149
  O         0.0028163622       -0.0114140222        0.0020635364
  O        -0.0107114071       -0.0055174517       -0.0099805550
  O         0.0114434625        0.0065636878       -0.0132892122
  O        -0.0138588369        0.0026634887       -0.0177444704
  O         0.0145276966       -0.0045141966       -0.0050060096
  O        -0.0014331635       -0.0134491989       -0.0092782044
  O         0.0207112057        0.0032682084        0.0091777395
  O         0.0067941201        0.0117847445       -0.0107473756
  S         0.0116703699        0.0328807123        0.0255743984
  S        -0.0061391690        0.0054373770       -0.0075464753
  S         0.0104698089       -0.0017534213       -0.0018540907
  O         0.0183908366       -0.0251180755        0.0051008817
  O        -0.0049621625       -0.0117988688        0.0267559891
  O        -0.0029100278        0.0015088858        0.0124479801
  O        -0.0132488799       -0.0073889916       -0.0024754096
  O         0.0059272667       -0.0002408610        0.0108442857
  O        -0.0066176658       -0.0001001823        0.0082194187
  O         0.0086004560        0.0062680175        0.0045710014
  O         0.0014008732        0.0052679302       -0.0115032274
  O         0.0062814724        0.0051425438        0.0005809555
  O        -0.0339538601       -0.0239933814       -0.0242600074
  O         0.0077378611        0.0059011613        0.0202405510
  O        -0.0119540678        0.0002074129       -0.0077862768
  O        -0.0005416876       -0.0064856903       -0.0067125402
  O        -0.0014887325       -0.0099278007       -0.0415904810
  O         0.0107195200       -0.0047861217        0.0026104843
  H        -0.0072136503        0.0171726351        0.0016634860
  H         0.0144994934        0.0035082652        0.0061480435
  H        -0.0026623248       -0.0015914206        0.0017915613
  H         0.0051943130        0.0004395782       -0.0029031672
  H        -0.0115980262        0.0121414082        0.0237455853
  H        -0.0066111241        0.0136513090        0.0029713759
 Ca         0.0003900561        0.0045277309       -0.0117560579
 Ca         0.0006087163       -0.0100539241       -0.0009355923
 Ca        -0.0051711539       -0.0147740767       -0.0010977472
 Ca        -0.0034668112       -0.0018217798        0.0007880353
 Ca        -0.0088894044       -0.0027823477       -0.0032978558
 Ca        -0.0041685056        0.0020884232       -0.0086907475
  S         0.0009591315       -0.0051030265       -0.0031541935
  S        -0.0444272799       -0.0096355290       -0.0051754780
  S        -0.0255000681       -0.0077287570        0.0372659959
  O         0.0088337045        0.0061235694        0.0076258228
  O         0.0144172781       -0.0013086060        0.0217748567
  O         0.0098780775        0.0100264022       -0.0203602007
  O         0.0071595063        0.0044933482        0.0066436586
  O         0.0011371561        0.0038601508       -0.0007391573
  O        -0.0139490932        0.0076089831        0.0112391303
  O        -0.0073136037       -0.0199948523        0.0130586215
  O        -0.0042117105       -0.0032428859        0.0026295421
  O         0.0155684049       -0.0019963709        0.0014813662
  O         0.0026738098        0.0021401812        0.0004963604
  O         0.0185113201        0.0087847436       -0.0147539447
  O         0.0034127250        0.0089112018       -0.0252011302
  S         0.0177500246        0.0209853316        0.0121754918
  S        -0.0147513179        0.0242438163       -0.0334400541
  S         0.0071186203        0.0102761370       -0.0131260431
  O        -0.0138474876       -0.0284080698       -0.0146202167
  O        -0.0072027110       -0.0230192110        0.0207323252
  O         0.0010063334        0.0075468942       -0.0188057696
  O        -0.0045818772       -0.0025044462        0.0055808309
  O         0.0168370388       -0.0129683759        0.0167056930
  O        -0.0018534267        0.0123651242        0.0125282452
  O         0.0129523094        0.0016605478        0.0047138566
  O        -0.0055981549        0.0217197282       -0.0201713876
  O        -0.0014535644        0.0002375168        0.0018186039
  O        -0.0070171079        0.0101003092       -0.0129686718
  O         0.0168422121       -0.0081133905       -0.0085630490
  O        -0.0047915607       -0.0017159806        0.0110804980
  O         0.0022187724       -0.0229170747        0.0041308514
  O         0.0190333952       -0.0204042627        0.0189544621
  O         0.0031196258       -0.0120003578        0.0094152092
  H         0.0080729481        0.0054920473       -0.0051205346
  H        -0.0085742951       -0.0126558589       -0.0036390902
  H         0.0017247471       -0.0026718757       -0.0077317743
  H        -0.0048853960        0.0174886845       -0.0009288799
  H         0.0047987607        0.0051370183       -0.0043581913
  H        -0.0099863609        0.0185915334       -0.0084560470
     180
 i =       36, time =       18.000, E =     -2871.7582685053
 Ca        -0.0097793943        0.0070580579        0.0007677917
 Ca        -0.0044155107       -0.0065832538        0.0031607162
 Ca         0.0027549420       -0.0004856685        0.0039979814
 Ca        -0.0063104090        0.0083842529       -0.0063180748
 Ca        -0.0090293317        0.0084427756       -0.0016469167
 Ca         0.0009766901        0.0087346003        0.0016504153
  S         0.0212138718        0.0055205683       -0.0126226067
  S        -0.0032445529       -0.0011336667        0.0118654510
  S        -0.0204978708       -0.0031728108        0.0006023005
  O        -0.0132184674       -0.0181022545        0.0093263380
  O        -0.0004391629       -0.0104639219       -0.0014100884
  O        -0.0021466957        0.0117368446       -0.0090535893
  O        -0.0016344259       -0.0050757122        0.0067301881
  O        -0.0075757739        0.0044483803       -0.0065225520
  O         0.0029587935        0.0007654153       -0.0018869648
  O        -0.0133484789       -0.0120869099       -0.0058295585
  O         0.0130730515        0.0256757711       -0.0074155686
  O         0.0247096625       -0.0153545648        0.0085185695
  O        -0.0090807870        0.0058521968       -0.0012544516
  O         0.0206462558       -0.0119597707        0.0056676765
  O        -0.0209032843        0.0066229071       -0.0118791281
  S        -0.0035291600       -0.0187702239       -0.0023523304
  S         0.0210390634        0.0243903706       -0.0276787618
  S         0.0078888532       -0.0048646733       -0.0503814272
  O         0.0084441411        0.0116597020        0.0029467610
  O        -0.0138889583       -0.0163171922       -0.0030281877
  O         0.0014099317        0.0036790600       -0.0046442402
  O        -0.0016043445        0.0002227982       -0.0069305093
  O         0.0106797472       -0.0157708994        0.0003904480
  O         0.0016190407       -0.0024296855        0.0103059356
  O         0.0027783301       -0.0006662780       -0.0045098663
  O         0.0220995189       -0.0015880580       -0.0082223775
  O        -0.0117383878       -0.0059096659        0.0192434345
  O         0.0055516230        0.0005751700        0.0224258206
  O        -0.0059738819       -0.0147990898       -0.0007849704
  O         0.0134125021        0.0132260825        0.0084427531
  O        -0.0121981799        0.0057664504       -0.0005380171
  O         0.0052508755        0.0059118801        0.0091250315
  O         0.0044897920        0.0074107203        0.0028307994
  H         0.0087425303        0.0014511667       -0.0052453515
  H         0.0081466104        0.0063775046       -0.0031391487
  H        -0.0030141440        0.0063297297        0.0034574570
  H         0.0086157402       -0.0138924248       -0.0021633396
  H        -0.0071747715       -0.0134789480       -0.0076340198
  H         0.0061795331       -0.0059207304        0.0003524013
 Ca         0.0053850231       -0.0005874418       -0.0021792477
 Ca        -0.0047652212       -0.0098652609        0.0202905623
 Ca         0.0049147887       -0.0063521880       -0.0020357387
 Ca         0.0014756575        0.0049875446        0.0066602946
 Ca         0.0066519252        0.0109097635        0.0023927394
 Ca        -0.0021233267       -0.0053937079        0.0037201386
  S         0.0065798488       -0.0140960326       -0.0246856519
  S         0.0562620311        0.0240142577        0.0293715734
  S         0.0177059794       -0.0193559641        0.0066941398
  O         0.0104815264        0.0156633573        0.0184540627
  O        -0.0034643589        0.0136883032        0.0072843036
  O        -0.0140640439        0.0095011804        0.0024969405
  O        -0.0212973446        0.0142423197       -0.0009195667
  O         0.0064570483       -0.0251115754       -0.0156922653
  O        -0.0141590845        0.0053626631        0.0140965137
  O         0.0108788032        0.0052142648       -0.0048386643
  O        -0.0329543200       -0.0236254701       -0.0046566760
  O         0.0069501727        0.0026533557       -0.0004388666
  O        -0.0066161786        0.0032451050        0.0073150682
  O        -0.0264617738        0.0038170378       -0.0191371857
  O         0.0029107089        0.0041360160       -0.0234117526
  S         0.0062163864       -0.0084815245       -0.0035837066
  S        -0.0266162891        0.0403015126       -0.0016837735
  S        -0.0155226495        0.0002852719        0.0027750798
  O        -0.0094444286       -0.0084863165        0.0211213716
  O        -0.0036958093       -0.0109069857       -0.0191094173
  O        -0.0064494628       -0.0038663873        0.0138202471
  O         0.0040234512        0.0273888786       -0.0124351633
  O         0.0116147675       -0.0175069318        0.0096316084
  O         0.0083463178        0.0093184394       -0.0018474173
  O         0.0336802424       -0.0120526155       -0.0014979863
  O         0.0021578404       -0.0085429886       -0.0168752083
  O         0.0093144439        0.0064052292        0.0086922448
  O        -0.0245520090        0.0012172876        0.0015595929
  O        -0.0263639899       -0.0032626060        0.0278227316
  O        -0.0024163903       -0.0165366842       -0.0082547424
  O         0.0002457010        0.0071760130       -0.0038540204
  O        -0.0168721913       -0.0041882646        0.0027831478
  O         0.0101485262       -0.0259851727       -0.0060442025
  H         0.0016788900        0.0022066214        0.0016013525
  H        -0.0048086315        0.0043841480        0.0064479801
  H         0.0037638925        0.0097170230       -0.0091012695
  H        -0.0020451381       -0.0143084503        0.0040718924
  H         0.0247263191        0.0125186609       -0.0226698225
  H        -0.0000787475       -0.0003986736        0.0029480652
 Ca        -0.0048875505       -0.0015118710        0.0099749350
 Ca         0.0010884604       -0.0006749594        0.0034501259
 Ca        -0.0092428236        0.0154717424        0.0161957479
 Ca         0.0086631491       -0.0183780687       -0.0070508766
 Ca         0.0043813709       -0.0011681546       -0.0143074523
 Ca         0.0018411706       -0.0098549373       -0.0055263324
  S        -0.0054326027       -0.0079442702        0.0179524780
  S        -0.0163952356        0.0237017649       -0.0266570408
  S         0.0183426343       -0.0164714441        0.0244326981
  O         0.0028056438        0.0150077374       -0.0025332167
  O        -0.0001101122        0.0045285850        0.0228990731
  O        -0.0136639072       -0.0013763448        0.0022668988
  O        -0.0027199457        0.0146150808        0.0072613176
  O         0.0030289910       -0.0117943465        0.0023726937
  O        -0.0089881824       -0.0048648538       -0.0106702720
  O         0.0113650948        0.0069884486       -0.0129816698
  O        -0.0160399293       -0.0005581541       -0.0164479196
  O         0.0126428351       -0.0036048020       -0.0041450858
  O        -0.0025311300       -0.0145048221       -0.0082329013
  O         0.0237023124        0.0021695414        0.0127141535
  O         0.0075746255        0.0108928384       -0.0114065646
  S         0.0132612506        0.0362297279        0.0278228357
  S        -0.0115763836        0.0042433637       -0.0069146305
  S         0.0094397808       -0.0005842311       -0.0002076672
  O         0.0168969733       -0.0273590103        0.0046613227
  O        -0.0032580753       -0.0123217917        0.0265376529
  O        -0.0031321387        0.0007532781        0.0132410806
  O        -0.0131985559       -0.0071118006       -0.0027812661
  O         0.0071536548        0.0005756943        0.0113223512
  O        -0.0057224354       -0.0013003520        0.0080374753
  O         0.0097339284        0.0050023525        0.0040442453
  O         0.0013406799        0.0055852163       -0.0112067356
  O         0.0055419873        0.0051519427       -0.0009751177
  O        -0.0349669314       -0.0244823832       -0.0250687708
  O         0.0069591360        0.0076119433        0.0207795725
  O        -0.0115235200        0.0002632077       -0.0082920248
  O        -0.0040761187       -0.0069918804       -0.0044940479
  O         0.0123704473       -0.0156974044       -0.0427922024
  O         0.0084502865       -0.0055763389        0.0043147405
  H        -0.0002836558        0.0147219342       -0.0012281749
  H         0.0057118610        0.0082806871        0.0019420921
  H        -0.0021213276       -0.0004602203        0.0007029891
  H         0.0029061620        0.0040329104       -0.0015420899
  H        -0.0153676637        0.0142172058        0.0283260272
  H        -0.0062272302        0.0130948179        0.0028286214
 Ca         0.0001206096        0.0047612728       -0.0118430699
 Ca         0.0003065547       -0.0103359980       -0.0011676382
 Ca        -0.0052722891       -0.0155936509       -0.0010397026
 Ca        -0.0034831612       -0.0014784180        0.0007495881
 Ca        -0.0088618062       -0.0027248680       -0.0035800316
 Ca        -0.0044921094        0.0017248026       -0.0086177008
  S         0.0042560576       -0.0032539872       -0.0023890042
  S        -0.0440024883       -0.0089395999       -0.0070349487
  S        -0.0265858275       -0.0077721080        0.0384614398
  O         0.0081109450        0.0066512208        0.0075800667
  O         0.0136750019       -0.0016498622        0.0223088476
  O         0.0097407140        0.0099122024       -0.0194934935
  O         0.0060800990        0.0040371394        0.0048772181
  O         0.0016074299        0.0034289338       -0.0008539530
  O        -0.0142298567        0.0071525473        0.0118195328
  O        -0.0071697301       -0.0193827514        0.0122156935
  O        -0.0037880756       -0.0024276656        0.0032253068
  O         0.0156153497       -0.0020080473        0.0019619735
  O         0.0013438274        0.0006466074        0.0016907284
  O         0.0187957054        0.0082725891       -0.0140016226
  O         0.0041472087        0.0078770565       -0.0246472540
  S         0.0192804274        0.0249513123        0.0130730748
  S        -0.0166161761        0.0222687470       -0.0362261051
  S         0.0073012231        0.0066232257       -0.0135367571
  O        -0.0152373841       -0.0310076092       -0.0146097931
  O        -0.0050696134       -0.0239118724        0.0225065641
  O         0.0004939994        0.0057890102       -0.0204401296
  O        -0.0046565262       -0.0035058139        0.0065145627
  O         0.0176999709       -0.0106704324        0.0158995181
  O        -0.0033521659        0.0160332078        0.0132930162
  O         0.0134953514        0.0007066287        0.0046192352
  O        -0.0042740213        0.0224859789       -0.0216639191
  O        -0.0009012278        0.0005725287        0.0024471509
  O        -0.0076213432        0.0097041051       -0.0131326218
  O         0.0177355832       -0.0074726692       -0.0088718298
  O        -0.0035653679       -0.0002173693        0.0111715097
  O         0.0241575980       -0.0227513434       -0.0090864610
  O         0.0197400978       -0.0175283171        0.0167796846
  O         0.0010660015       -0.0074512215        0.0080675115
  H        -0.0104779968        0.0010538404        0.0074533513
  H        -0.0069860421       -0.0150729737       -0.0022650501
  H         0.0014605557       -0.0027928437       -0.0073133145
  H        -0.0073582183        0.0215205909       -0.0000512361
  H         0.0038217834        0.0052786172       -0.0037107921
  H        -0.0076146165        0.0145032108       -0.0083490293
     180
 i =       37, time =       18.500, E =     -2871.7542509120
 Ca        -0.0100705977        0.0072877356        0.0008671573
 Ca        -0.0043554220       -0.0068988994        0.0031350710
 Ca         0.0026764707       -0.0000658084        0.0040450513
 Ca        -0.0067040307        0.0088741543       -0.0063736457
 Ca        -0.0094245053        0.0089393135       -0.0018788919
 Ca         0.0012570891        0.0088673179        0.0017842661
  S         0.0226285331        0.0027926763       -0.0102405920
  S        -0.0045826447       -0.0028501510        0.0115911014
  S        -0.0239719940       -0.0024028539       -0.0023855599
  O        -0.0154970446       -0.0148099672        0.0080591961
  O         0.0001866983       -0.0093501699       -0.0030881183
  O        -0.0007322191        0.0128801015       -0.0068637760
  O        -0.0021389831       -0.0051904868        0.0055029118
  O        -0.0076266175        0.0052654993       -0.0056755997
  O         0.0045376164        0.0007482326       -0.0031047746
  O        -0.0131572948       -0.0122586975       -0.0051072256
  O         0.0127962897        0.0256202490       -0.0078862096
  O         0.0256755751       -0.0160522490        0.0091329570
  O        -0.0076432117        0.0067105245       -0.0026158933
  O         0.0216247992       -0.0118924314        0.0069562473
  O        -0.0213363981        0.0067105749       -0.0108336639
  S        -0.0039830720       -0.0198200635       -0.0025810541
  S         0.0246192272        0.0277353559       -0.0328441303
  S         0.0055757311       -0.0043435829       -0.0533519538
  O         0.0086764491        0.0104551590        0.0021172585
  O        -0.0126795954       -0.0175456928       -0.0019301888
  O         0.0012247651        0.0012816075       -0.0034552631
  O        -0.0013364355        0.0003181443       -0.0077409818
  O         0.0095015121       -0.0170159342        0.0012340390
  O         0.0023896948       -0.0023166442        0.0097173804
  O         0.0021012571        0.0003024713       -0.0045677852
  O         0.0216110987       -0.0020947061       -0.0076667621
  O        -0.0090068097       -0.0051428861        0.0237437940
  O         0.0059843671       -0.0000829662        0.0233228052
  O        -0.0033496878       -0.0148578335       -0.0031742688
  O         0.0133665709        0.0122782638        0.0078242566
  O        -0.0179338080        0.0015478801        0.0055081046
  O         0.0035080269        0.0091803663        0.0081117076
  O         0.0028363227        0.0016837535        0.0075830560
  H         0.0161033198        0.0042270272       -0.0113326639
  H         0.0095047396        0.0055644708       -0.0023052539
  H        -0.0001790324        0.0083502586       -0.0006069916
  H         0.0077918088       -0.0124734804       -0.0022357390
  H        -0.0062887935       -0.0145137428       -0.0082006178
  H         0.0049457020       -0.0022630920       -0.0003366164
 Ca         0.0053070003       -0.0012302757       -0.0024657456
 Ca        -0.0045234238       -0.0092738126        0.0207088798
 Ca         0.0050281996       -0.0063204888       -0.0019120781
 Ca         0.0018249480        0.0048564309        0.0065770897
 Ca         0.0065011700        0.0108950491        0.0022738567
 Ca        -0.0020312912       -0.0056749266        0.0040150924
  S         0.0071227006       -0.0162534077       -0.0257310438
  S         0.0589819466        0.0296773958        0.0310187144
  S         0.0166946065       -0.0205680241        0.0069046554
  O         0.0079333377        0.0191419855        0.0190815631
  O        -0.0034663072        0.0130185936        0.0076853688
  O        -0.0137433368        0.0095501349        0.0028265551
  O        -0.0197061114        0.0146197158        0.0000593109
  O         0.0070964701       -0.0275258173       -0.0135080481
  O        -0.0136360745        0.0048446298        0.0143115406
  O         0.0177008911        0.0042820275       -0.0035414055
  O        -0.0349914799       -0.0267496397       -0.0049861544
  O         0.0063911236        0.0024002145       -0.0003478590
  O        -0.0067334804        0.0023993418        0.0069694793
  O        -0.0280928790        0.0033254467       -0.0202308406
  O         0.0030953159        0.0034936249       -0.0231063403
  S         0.0049868436       -0.0064167767       -0.0009446515
  S        -0.0268546117        0.0432222815        0.0001076314
  S        -0.0138676808        0.0008600550        0.0042445245
  O        -0.0087169319       -0.0073883885        0.0221127856
  O        -0.0033611421       -0.0110509041       -0.0192362002
  O        -0.0061859594       -0.0032843511        0.0138142440
  O         0.0038836968        0.0265291793       -0.0118755470
  O         0.0100482858       -0.0183776817        0.0081362426
  O         0.0080869747        0.0092262549       -0.0025567321
  O         0.0348276201       -0.0139748882       -0.0023406074
  O         0.0004656821       -0.0114173063       -0.0170696444
  O         0.0078215552        0.0062972986        0.0073434934
  O        -0.0249622032        0.0007337336       -0.0011056602
  O        -0.0277518968       -0.0030839851        0.0289338909
  O        -0.0025209653       -0.0168337638       -0.0064681078
  O        -0.0035508551        0.0090463186       -0.0037642227
  O        -0.0142100153       -0.0065002336        0.0025547863
  O         0.0114409027       -0.0158980436       -0.0112474098
  H         0.0019165820        0.0017531718        0.0017384676
  H        -0.0048892329        0.0047634752        0.0053380915
  H         0.0005569819        0.0011363980       -0.0031458183
  H        -0.0091418407       -0.0145671248        0.0034204185
  H         0.0226215176        0.0138823802       -0.0213503032
  H         0.0014771368       -0.0021113310        0.0022119273
 Ca        -0.0049575015       -0.0017507345        0.0101199001
 Ca         0.0011647178       -0.0006250882        0.0034885813
 Ca        -0.0095605072        0.0164435073        0.0169587953
 Ca         0.0086059272       -0.0186251350       -0.0068996075
 Ca         0.0051899496       -0.0016783145       -0.0149466508
 Ca         0.0017570392       -0.0097066392       -0.0054932725
  S        -0.0044671745       -0.0061482910        0.0168555807
  S        -0.0175265481        0.0286215752       -0.0309313116
  S         0.0201935367       -0.0156490865        0.0257277737
  O         0.0032294078        0.0144780791       -0.0019375151
  O        -0.0002120137        0.0040374292        0.0235977112
  O        -0.0136854523       -0.0019934731        0.0022070574
  O        -0.0030342612        0.0148893893        0.0073904882
  O         0.0032131310       -0.0120861114        0.0026480099
  O        -0.0074246003       -0.0042032055       -0.0115788162
  O         0.0114077508        0.0072534016       -0.0130134914
  O        -0.0183426049       -0.0038163016       -0.0142536937
  O         0.0107168615       -0.0027893929       -0.0039837947
  O        -0.0036326447       -0.0155637495       -0.0071383941
  O         0.0266616502        0.0012710474        0.0159898407
  O         0.0082069740        0.0099526307       -0.0118853865
  S         0.0145515621        0.0392747228        0.0297749043
  S        -0.0167112197        0.0029831152       -0.0063800897
  S         0.0083347642        0.0005855371        0.0014563902
  O         0.0153663817       -0.0295184856        0.0044165904
  O        -0.0013908005       -0.0124713560        0.0266128001
  O        -0.0033117268        0.0000432369        0.0141255127
  O        -0.0130810433       -0.0068023673       -0.0031194916
  O         0.0083485873        0.0013856708        0.0117621371
  O        -0.0048756323       -0.0025271243        0.0077926841
  O         0.0108350993        0.0038149724        0.0038056756
  O         0.0011357242        0.0059384368       -0.0107785942
  O         0.0046580260        0.0050284855       -0.0027026266
  O        -0.0357482035       -0.0248823790       -0.0256101116
  O         0.0061366191        0.0092490182        0.0212235292
  O        -0.0111085076        0.0004375394       -0.0089109687
  O        -0.0079296287       -0.0070134669       -0.0020140214
  O         0.0224401996       -0.0199213647       -0.0410768187
  O         0.0054658128       -0.0054496109        0.0058971128
  H         0.0070510590        0.0121931990       -0.0042313247
  H        -0.0020011483        0.0125527078       -0.0017449936
  H        -0.0015134455        0.0008140392       -0.0005176553
  H         0.0003613114        0.0075544595       -0.0000938088
  H        -0.0164324233        0.0152264968        0.0296339805
  H        -0.0051700267        0.0114919274        0.0026221538
 Ca        -0.0001660588        0.0050064151       -0.0119214787
 Ca         0.0000386992       -0.0106036659       -0.0014158134
 Ca        -0.0053348897       -0.0163666950       -0.0010584393
 Ca        -0.0034868233       -0.0011260873        0.0007095156
 Ca        -0.0088587330       -0.0026336629       -0.0038873318
 Ca        -0.0048190674        0.0013763863       -0.0085513392
  S         0.0075602347       -0.0014130545       -0.0015092785
  S        -0.0433158571       -0.0082374881       -0.0087984356
  S        -0.0272884714       -0.0077465524        0.0394433168
  O         0.0072839860        0.0071376939        0.0071969565
  O         0.0129563578       -0.0019379107        0.0228308667
  O         0.0098838640        0.0097103310       -0.0186078214
  O         0.0048887095        0.0035179275        0.0030462277
  O         0.0020315984        0.0030367489       -0.0010436173
  O        -0.0144306004        0.0066539950        0.0123766126
  O        -0.0070663120       -0.0189599845        0.0112741414
  O        -0.0034296378       -0.0016163882        0.0038031902
  O         0.0155667654       -0.0022268610        0.0022947881
  O         0.0001058248       -0.0007075246        0.0028612657
  O         0.0189737058        0.0077945077       -0.0132696994
  O         0.0046886146        0.0065093982       -0.0229311556
  S         0.0204642964        0.0284069318        0.0138017360
  S        -0.0183225873        0.0201885654       -0.0387435353
  S         0.0073522728        0.0030618496       -0.0138306878
  O        -0.0164066567       -0.0330920742       -0.0145167820
  O        -0.0030911025       -0.0247714527        0.0240215477
  O        -0.0000639033        0.0040665864       -0.0217934398
  O        -0.0045773866       -0.0041391933        0.0072897499
  O         0.0187023615       -0.0082734657        0.0148329859
  O        -0.0048554667        0.0190902161        0.0139330701
  O         0.0140419598       -0.0000944916        0.0046864453
  O        -0.0030346597        0.0231794464       -0.0229217816
  O        -0.0004097923        0.0008257258        0.0030431678
  O        -0.0081136948        0.0093308732       -0.0131418640
  O         0.0184482830       -0.0070780577       -0.0091330129
  O        -0.0025423861        0.0011575584        0.0110446574
  O         0.0405541978       -0.0209346777       -0.0194634643
  O         0.0202113757       -0.0145913823        0.0141668881
  O        -0.0017808243       -0.0013405824        0.0064005100
  H        -0.0250406581       -0.0028068617        0.0173707175
  H        -0.0051254708       -0.0172469875       -0.0007781637
  H         0.0009603044       -0.0030120119       -0.0067719653
  H        -0.0086168284        0.0232434232        0.0004824135
  H         0.0026177903        0.0053990276       -0.0028086671
  H        -0.0042350317        0.0088893193       -0.0080496244
     180
 i =       38, time =       19.000, E =     -2871.7498051380
 Ca        -0.0103798981        0.0075170712        0.0009426330
 Ca        -0.0043099021       -0.0071890375        0.0031037891
 Ca         0.0025771460        0.0003849608        0.0041468004
 Ca        -0.0071513997        0.0093693933       -0.0063924032
 Ca        -0.0098648360        0.0093840339       -0.0021017499
 Ca         0.0015031308        0.0089943161        0.0019560557
  S         0.0238581292        0.0000785668       -0.0077655684
  S        -0.0056700601       -0.0043803004        0.0112872784
  S        -0.0272789165       -0.0017735373       -0.0053616137
  O        -0.0176324231       -0.0116694500        0.0067288973
  O         0.0006712505       -0.0084037669       -0.0046459062
  O         0.0006971470        0.0140157520       -0.0046471223
  O        -0.0026423570       -0.0053215108        0.0042143022
  O        -0.0076090335        0.0061575987       -0.0048585200
  O         0.0059209164        0.0009416150       -0.0043549243
  O        -0.0128946073       -0.0122627356       -0.0043865994
  O         0.0123401488        0.0254295392       -0.0084041616
  O         0.0264821633       -0.0167080504        0.0096387357
  O        -0.0061583393        0.0076236839       -0.0038835560
  O         0.0225122591       -0.0118052202        0.0081812330
  O        -0.0216683759        0.0065689733       -0.0096858778
  S        -0.0041809689       -0.0207066415       -0.0027149872
  S         0.0280374572        0.0310739477       -0.0378917715
  S         0.0033469328       -0.0037185218       -0.0559629852
  O         0.0089763911        0.0092096226        0.0019258695
  O        -0.0114295970       -0.0185873903       -0.0007847391
  O         0.0011273216       -0.0009707129       -0.0022805892
  O        -0.0010888112        0.0003927148       -0.0085157445
  O         0.0084227998       -0.0183928136        0.0001116425
  O         0.0031815124       -0.0021211946        0.0091273198
  O         0.0013571180        0.0012702375       -0.0036905393
  O         0.0208621939       -0.0028537488       -0.0069924865
  O        -0.0057273978       -0.0048068056        0.0279196739
  O         0.0062861470       -0.0008462075        0.0239737876
  O        -0.0011072820       -0.0121865655       -0.0051661026
  O         0.0132461394        0.0113017668        0.0070873833
  O        -0.0209891728       -0.0030907354        0.0100983912
  O         0.0021622359        0.0119563896        0.0066609921
  O         0.0015289068       -0.0042905016        0.0119590615
  H         0.0217016277        0.0063714608       -0.0159371799
  H         0.0105756128        0.0048588553       -0.0014493310
  H         0.0024945678        0.0101614792       -0.0042933884
  H         0.0064193161       -0.0100265631       -0.0019973126
  H        -0.0054392664       -0.0151772300       -0.0082427873
  H         0.0035142123        0.0018319819       -0.0010871142
 Ca         0.0052428923       -0.0018517101       -0.0027353504
 Ca        -0.0042674680       -0.0086905673        0.0210857513
 Ca         0.0051119726       -0.0063123860       -0.0017432401
 Ca         0.0021701976        0.0046900686        0.0064774385
 Ca         0.0063039435        0.0108318136        0.0021600066
 Ca        -0.0019379827       -0.0059321238        0.0043216477
  S         0.0075500477       -0.0182649735       -0.0266583837
  S         0.0610959250        0.0348031195        0.0323026470
  S         0.0154902582       -0.0215660858        0.0070966822
  O         0.0058526758        0.0216322348        0.0194594392
  O        -0.0032847601        0.0122354865        0.0081453950
  O        -0.0133712162        0.0097090950        0.0031658107
  O        -0.0180824691        0.0149471907        0.0009471838
  O         0.0077123727       -0.0296047376       -0.0135687278
  O        -0.0132554481        0.0041905252        0.0145022441
  O         0.0235313270        0.0032724610       -0.0023223280
  O        -0.0367021281       -0.0294243716       -0.0052856854
  O         0.0058175871        0.0020702508       -0.0001939728
  O        -0.0068003042        0.0016368801        0.0065320200
  O        -0.0296291706        0.0025618054       -0.0211875003
  O         0.0032317738        0.0028862587       -0.0226334594
  S         0.0038044328       -0.0044022207        0.0015619352
  S        -0.0269094841        0.0458955156        0.0018082718
  S        -0.0121810807        0.0013907182        0.0057557547
  O        -0.0078501708       -0.0063791159        0.0229763917
  O        -0.0030551578       -0.0110843675       -0.0193222933
  O        -0.0058192425       -0.0026182424        0.0137482884
  O         0.0036738947        0.0255793589       -0.0112010206
  O         0.0083367971       -0.0192736647        0.0065306589
  O         0.0077831057        0.0091586761       -0.0028962601
  O         0.0359249684       -0.0157273048       -0.0031817447
  O        -0.0011981650       -0.0143111232       -0.0143598906
  O         0.0061853275        0.0062744768        0.0058978229
  O        -0.0252400514        0.0001792402       -0.0036879593
  O        -0.0288660037       -0.0027916878        0.0298830402
  O        -0.0024248918       -0.0171363647       -0.0061036189
  O        -0.0086856122        0.0109450486       -0.0036949474
  O        -0.0104468286       -0.0088809122        0.0007556604
  O         0.0124760455       -0.0062170963       -0.0161307779
  H         0.0021569194        0.0012619008        0.0018732516
  H        -0.0046163042        0.0050116070        0.0041610147
  H        -0.0024145339       -0.0070299546        0.0025164056
  H        -0.0153413416       -0.0145687526        0.0027590590
  H         0.0190061904        0.0152348454       -0.0183160689
  H         0.0030184108       -0.0037803306        0.0014636915
 Ca        -0.0050350823       -0.0019619648        0.0102767257
 Ca         0.0012176364       -0.0005714711        0.0034966533
 Ca        -0.0098611973        0.0174532913        0.0177101212
 Ca         0.0085944849       -0.0188499112       -0.0066970325
 Ca         0.0060460501       -0.0020854547       -0.0155768333
 Ca         0.0016943812       -0.0095715994       -0.0054697589
  S        -0.0035330793       -0.0043214525        0.0157528216
  S        -0.0185652548        0.0332480787       -0.0345871512
  S         0.0219412123       -0.0147120313        0.0269482949
  O         0.0036789841        0.0138727595       -0.0013239150
  O        -0.0002218035        0.0035280328        0.0242207332
  O        -0.0136688627       -0.0026682094        0.0020953288
  O        -0.0033254055        0.0150844272        0.0074706702
  O         0.0033713491       -0.0122935193        0.0028763837
  O        -0.0062263013       -0.0034139250       -0.0124621397
  O         0.0115278193        0.0073224130       -0.0131515502
  O        -0.0205576528       -0.0070452993       -0.0107382316
  O         0.0087994844       -0.0021036402       -0.0048585896
  O        -0.0047299612       -0.0166262709       -0.0059817604
  O         0.0294869486        0.0005262654        0.0189740531
  O         0.0086987317        0.0089426188       -0.0121726466
  S         0.0155157098        0.0419736157        0.0314239552
  S        -0.0214990839        0.0016457772       -0.0059269248
  S         0.0071554070        0.0017563602        0.0031326754
  O         0.0139028374       -0.0316045848        0.0042446119
  O         0.0007820601       -0.0122280753        0.0268170007
  O        -0.0034481335       -0.0006130697        0.0149036663
  O        -0.0129015101       -0.0064625948       -0.0034867014
  O         0.0095299173        0.0021573817        0.0122102805
  O        -0.0040793426       -0.0037805002        0.0073600501
  O         0.0118818697        0.0026302391        0.0036845803
  O         0.0007580484        0.0062908026       -0.0102324701
  O         0.0035963063        0.0048201255       -0.0045912650
  O        -0.0362891960       -0.0251699021       -0.0258902809
  O         0.0053194580        0.0109009529        0.0216212700
  O        -0.0106932854        0.0007118603       -0.0096287752
  O        -0.0115006984       -0.0067427009        0.0002327880
  O         0.0281214268       -0.0222857060       -0.0361790617
  O         0.0020182860       -0.0043937873        0.0073694457
  H         0.0137428538        0.0097303789       -0.0069492994
  H        -0.0083071606        0.0160702161       -0.0047868239
  H        -0.0009157816        0.0020677027       -0.0017137291
  H        -0.0022943537        0.0106056210        0.0013304235
  H        -0.0145791693        0.0150984297        0.0272709162
  H        -0.0035056785        0.0089614570        0.0023635303
 Ca        -0.0004726385        0.0052629426       -0.0119842538
 Ca        -0.0001900660       -0.0108536028       -0.0016793817
 Ca        -0.0053658343       -0.0170783606       -0.0011491045
 Ca        -0.0034768455       -0.0007635810        0.0006676827
 Ca        -0.0088785170       -0.0025267638       -0.0042210389
 Ca        -0.0051456253        0.0010457206       -0.0084945876
  S         0.0108668329        0.0004202343       -0.0005159105
  S        -0.0423493819       -0.0075311325       -0.0104535570
  S        -0.0276317549       -0.0077147552        0.0401685197
  O         0.0064032083        0.0075773659        0.0067750911
  O         0.0122475223       -0.0021919275        0.0233279970
  O         0.0101535561        0.0095932974       -0.0174432506
  O         0.0035613273        0.0029368278        0.0011753077
  O         0.0023078958        0.0026233730       -0.0013835591
  O        -0.0145583493        0.0061302276        0.0129260876
  O        -0.0071528376       -0.0187562092        0.0104279603
  O        -0.0031341165       -0.0008342799        0.0043627917
  O         0.0153702523       -0.0025824000        0.0024439196
  O        -0.0010729041       -0.0019674016        0.0041463612
  O         0.0190224485        0.0073280709       -0.0125680915
  O         0.0050669665        0.0050913342       -0.0212002159
  S         0.0212603663        0.0312945295        0.0143750040
  S        -0.0198866234        0.0180439550       -0.0409953510
  S         0.0072772251       -0.0004005236       -0.0140019519
  O        -0.0172937160       -0.0346002001       -0.0143682475
  O        -0.0012392436       -0.0256378338        0.0252856812
  O        -0.0007067866        0.0022250539       -0.0227393545
  O        -0.0043700242       -0.0044428205        0.0079425909
  O         0.0196696307       -0.0060610437        0.0139939770
  O        -0.0062282910        0.0216638306        0.0145217374
  O         0.0147132174       -0.0007629351        0.0050512244
  O        -0.0018847799        0.0237776120       -0.0239303146
  O         0.0000285837        0.0010040537        0.0036311926
  O        -0.0084693057        0.0091751951       -0.0131024382
  O         0.0187594326       -0.0073026569       -0.0093126260
  O        -0.0017260117        0.0025790875        0.0107269173
  O         0.0508345983       -0.0170653511       -0.0266635369
  O         0.0205651378       -0.0116812913        0.0112636556
  O        -0.0052947109        0.0060022664        0.0044969198
  H        -0.0352485558       -0.0059513532        0.0243744123
  H        -0.0030739595       -0.0191297432        0.0007622593
  H         0.0002673807       -0.0032581198       -0.0061423366
  H        -0.0085016273        0.0222434813        0.0007172409
  H         0.0012906451        0.0054768508       -0.0017438567
  H        -0.0000031699        0.0019960332       -0.0075940072
     180
 i =       39, time =       19.500, E =     -2871.7456775325
 Ca        -0.0107092644        0.0077457874        0.0009924762
 Ca        -0.0042798796       -0.0074536480        0.0030669691
 Ca         0.0024694970        0.0008730696        0.0042908563
 Ca        -0.0076369426        0.0098550393       -0.0063693529
 Ca        -0.0103537467        0.0097867705       -0.0023179089
 Ca         0.0017135520        0.0091161236        0.0021696120
  S         0.0248926758       -0.0026261061       -0.0052014356
  S        -0.0064952292       -0.0057208673        0.0109520077
  S        -0.0303664576       -0.0013040079       -0.0083443309
  O        -0.0195396847       -0.0089348849        0.0054702526
  O         0.0012011486       -0.0076308104       -0.0059750192
  O         0.0021248725        0.0151188967       -0.0024210784
  O        -0.0031425378       -0.0054715312        0.0028722407
  O        -0.0073914140        0.0070912135       -0.0040884379
  O         0.0072077515        0.0014452838       -0.0057650159
  O        -0.0125272539       -0.0121172293       -0.0036636457
  O         0.0116971399        0.0251063287       -0.0089911283
  O         0.0271089445       -0.0173014990        0.0100261562
  O        -0.0047077464        0.0086293723       -0.0050032057
  O         0.0232938194       -0.0116923230        0.0093364246
  O        -0.0219155481        0.0062156226       -0.0086598521
  S        -0.0041385651       -0.0214446296       -0.0027664746
  S         0.0312992888        0.0343983767       -0.0428201819
  S         0.0012044203       -0.0029955829       -0.0582265543
  O         0.0091710450        0.0083441311        0.0016370289
  O        -0.0101461952       -0.0194091767        0.0003820435
  O         0.0012024084       -0.0030492767       -0.0011374109
  O        -0.0008626527        0.0004682253       -0.0092218649
  O         0.0073988880       -0.0197267429       -0.0013779844
  O         0.0039404744       -0.0018241248        0.0086258697
  O         0.0005677251        0.0023165079        0.0015752226
  O         0.0197350154       -0.0040459782       -0.0062247894
  O        -0.0025267167       -0.0047380936        0.0310291506
  O         0.0065139038       -0.0016212854        0.0243824789
  O         0.0004583949       -0.0070747558       -0.0067841811
  O         0.0130408650        0.0103323661        0.0063996761
  O        -0.0209081196       -0.0076804615        0.0121233963
  O         0.0011820146        0.0142220246        0.0049186082
  O         0.0007439640       -0.0096487540        0.0154796094
  H         0.0244016353        0.0074891122       -0.0181136087
  H         0.0112299103        0.0043632933       -0.0006096205
  H         0.0046578601        0.0113870466       -0.0071049475
  H         0.0045674162       -0.0065993331       -0.0014443132
  H        -0.0046469419       -0.0154453515       -0.0077516458
  H         0.0020700777        0.0058754959       -0.0019118994
 Ca         0.0051911309       -0.0024526926       -0.0029808861
 Ca        -0.0039996776       -0.0081139080        0.0214188368
 Ca         0.0051569482       -0.0063382905       -0.0015303960
 Ca         0.0025031785        0.0044980584        0.0063645548
 Ca         0.0060705548        0.0107250072        0.0020545235
 Ca        -0.0018435873       -0.0061687462        0.0046394875
  S         0.0078716940       -0.0201438316       -0.0274675657
  S         0.0625417055        0.0393305651        0.0332402492
  S         0.0140695986       -0.0223543225        0.0072697301
  O         0.0040993199        0.0234079536        0.0195890734
  O        -0.0029034546        0.0112594467        0.0086641054
  O        -0.0129315161        0.0099644389        0.0034240184
  O        -0.0164756732        0.0152297199        0.0017483443
  O         0.0083311425       -0.0313972677       -0.0138156190
  O        -0.0129822525        0.0034513582        0.0147228200
  O         0.0274973998        0.0021843238       -0.0012447474
  O        -0.0380197313       -0.0316359185       -0.0055601335
  O         0.0052674598        0.0016927541       -0.0000071133
  O        -0.0068930414        0.0009951911        0.0059411224
  O        -0.0309744822        0.0016596597       -0.0219827318
  O         0.0033178544        0.0023230860       -0.0219824803
  S         0.0026689425       -0.0024175746        0.0039296934
  S        -0.0267475329        0.0483044485        0.0034032081
  S        -0.0104646536        0.0018802485        0.0073171277
  O        -0.0069345759       -0.0054580507        0.0236775540
  O        -0.0027893218       -0.0110288868       -0.0193622339
  O        -0.0053870213       -0.0018044716        0.0135720312
  O         0.0033341462        0.0245155139       -0.0104030081
  O         0.0065757649       -0.0201820037        0.0048753094
  O         0.0074513113        0.0091101151       -0.0031137178
  O         0.0369619809       -0.0173014417       -0.0040600539
  O        -0.0034167039       -0.0174504457       -0.0091533105
  O         0.0044796068        0.0063699473        0.0043371617
  O        -0.0253384361       -0.0004355287       -0.0062405223
  O        -0.0297409992       -0.0024199088        0.0306174284
  O        -0.0021705833       -0.0174337156       -0.0062174376
  O        -0.0151728374        0.0127418170       -0.0034872909
  O        -0.0054805187       -0.0112776738       -0.0027275000
  O         0.0131990918        0.0021055793       -0.0201438986
  H         0.0023714125        0.0007475254        0.0020458680
  H        -0.0040088714        0.0051162338        0.0029324202
  H        -0.0048745055       -0.0140200877        0.0073491226
  H        -0.0196887110       -0.0142888133        0.0021846596
  H         0.0138578281        0.0165699132       -0.0134635312
  H         0.0043471793       -0.0052035751        0.0007677190
 Ca        -0.0051182262       -0.0021471358        0.0104292716
 Ca         0.0012483396       -0.0005194403        0.0034722558
 Ca        -0.0101407764        0.0184826898        0.0184509336
 Ca         0.0086366792       -0.0190688793       -0.0064573904
 Ca         0.0069277237       -0.0023703743       -0.0162036161
 Ca         0.0016530167       -0.0094529334       -0.0054626034
  S        -0.0026360547       -0.0024614187        0.0146359990
  S        -0.0194714279        0.0375522514       -0.0375931582
  S         0.0235408144       -0.0136639256        0.0280954112
  O         0.0041389057        0.0131698922       -0.0006653537
  O        -0.0001479236        0.0029972251        0.0244038427
  O        -0.0136311971       -0.0033730276        0.0020518342
  O        -0.0036061069        0.0152358397        0.0076698820
  O         0.0035077724       -0.0124104732        0.0030590932
  O        -0.0055053536       -0.0024124416       -0.0132327200
  O         0.0117169051        0.0070829846       -0.0133690350
  O        -0.0225627256       -0.0101648096       -0.0036950951
  O         0.0069772867       -0.0015487445       -0.0062788940
  O        -0.0058141852       -0.0176711973       -0.0048044841
  O         0.0320595556       -0.0002394324        0.0216725352
  O         0.0091383418        0.0079632756       -0.0122626335
  S         0.0161263544        0.0442909439        0.0327755202
  S        -0.0259127136        0.0002114729       -0.0055441763
  S         0.0059028179        0.0029338785        0.0048141575
  O         0.0125506962       -0.0335943457        0.0044207517
  O         0.0031681388       -0.0113686900        0.0273222420
  O        -0.0035408629       -0.0011828877        0.0156776302
  O        -0.0126614581       -0.0060917421       -0.0038974833
  O         0.0106954133        0.0029362519        0.0125925822
  O        -0.0033417755       -0.0050673152        0.0067970578
  O         0.0127942440        0.0012254178        0.0034323740
  O         0.0001839266        0.0065923879       -0.0096773940
  O         0.0023873699        0.0045127860       -0.0066371358
  O        -0.0365919766       -0.0253689204       -0.0259108198
  O         0.0045438360        0.0127153202        0.0219844652
  O        -0.0102675429        0.0010448503       -0.0104277080
  O        -0.0138765716       -0.0061131469        0.0016999777
  O         0.0298109661       -0.0228911981       -0.0285261991
  O        -0.0017301526       -0.0024050526        0.0086121806
  H         0.0186042226        0.0074081666       -0.0089584450
  H        -0.0132062929        0.0187343047       -0.0071882264
  H        -0.0004033740        0.0031378768       -0.0027338010
  H        -0.0049041477        0.0127764372        0.0026101106
  H        -0.0102611294        0.0139919853        0.0216796930
  H        -0.0013283891        0.0056631599        0.0020669333
 Ca        -0.0008017263        0.0055319370       -0.0120243331
 Ca        -0.0003789915       -0.0110802854       -0.0019562949
 Ca        -0.0053765265       -0.0177209112       -0.0013015436
 Ca        -0.0034524721       -0.0003898791        0.0006064012
 Ca        -0.0089161594       -0.0024206116       -0.0045772092
 Ca        -0.0054666251        0.0007326179       -0.0084386539
  S         0.0141834070        0.0022554969        0.0005971760
  S        -0.0410863203       -0.0068140752       -0.0119962938
  S        -0.0276490339       -0.0077365178        0.0406060739
  O         0.0055230957        0.0079676386        0.0063101257
  O         0.0115522618       -0.0024183356        0.0238094168
  O         0.0104296213        0.0097333394       -0.0161955690
  O         0.0020808839        0.0022956724       -0.0006938230
  O         0.0023331593        0.0021465696       -0.0018862906
  O        -0.0146185255        0.0055899228        0.0134851621
  O        -0.0074127331       -0.0188003502        0.0095876853
  O        -0.0029113672       -0.0000643724        0.0049039051
  O         0.0149174392       -0.0029785529        0.0024434629
  O        -0.0022314708       -0.0032702356        0.0056291377
  O         0.0189474245        0.0068782664       -0.0119040150
  O         0.0053277390        0.0037331766       -0.0201320562
  S         0.0216614316        0.0335944348        0.0147898664
  S        -0.0213204154        0.0158592559       -0.0429744923
  S         0.0070773692       -0.0037746925       -0.0140427016
  O        -0.0178673551       -0.0355101013       -0.0141319746
  O         0.0005128401       -0.0262923586        0.0263277381
  O        -0.0014756343        0.0000298124       -0.0232774815
  O        -0.0040689382       -0.0043791117        0.0085750237
  O         0.0203443020       -0.0041348654        0.0135222910
  O        -0.0074215136        0.0238743172        0.0151310532
  O         0.0156084714       -0.0013471240        0.0057800412
  O        -0.0008316845        0.0242935202       -0.0247010479
  O         0.0004283747        0.0011104114        0.0041330895
  O        -0.0086815403        0.0093713393       -0.0129093166
  O         0.0187145960       -0.0088230174       -0.0093290259
  O        -0.0010046574        0.0041734491        0.0101686510
  O         0.0555882540       -0.0112023630       -0.0309742195
  O         0.0208589192       -0.0088640828        0.0082679330
  O        -0.0092001097        0.0139979880        0.0024768697
  H        -0.0414109537       -0.0083754381        0.0286690485
  H        -0.0009444025       -0.0206749351        0.0022822149
  H        -0.0005557054       -0.0034487756       -0.0054651717
  H        -0.0071225651        0.0186271873        0.0007721061
  H        -0.0000436609        0.0054855693       -0.0006250996
  H         0.0047623224       -0.0057012010       -0.0070392367
     180
 i =       40, time =       20.000, E =     -2871.7424052205
 Ca        -0.0110589194        0.0079701056        0.0010221548
 Ca        -0.0042644332       -0.0076969986        0.0030274728
 Ca         0.0023690421        0.0013944197        0.0044675618
 Ca        -0.0081610438        0.0103298431       -0.0063060920
 Ca        -0.0108838230        0.0101546655       -0.0025243624
 Ca         0.0018898804        0.0092338253        0.0024278659
  S         0.0257234831       -0.0053165183       -0.0025629801
  S        -0.0070403196       -0.0068637061        0.0105903234
  S        -0.0331658487       -0.0010141221       -0.0113400224
  O        -0.0211800633       -0.0067706633        0.0042740725
  O         0.0017135628       -0.0069632032       -0.0071880639
  O         0.0035654662        0.0161862948       -0.0001742901
  O        -0.0036408627       -0.0056314901        0.0015569801
  O        -0.0069920470        0.0080038351       -0.0033940967
  O         0.0085609952        0.0021331781       -0.0073462488
  O        -0.0120820172       -0.0118426465       -0.0029664504
  O         0.0108664822        0.0246608811       -0.0096307243
  O         0.0275339913       -0.0178099650        0.0102957326
  O        -0.0033326633        0.0096739964       -0.0058418626
  O         0.0239598536       -0.0115296987        0.0103769105
  O        -0.0220888686        0.0058307546       -0.0075254138
  S        -0.0038688358       -0.0220449290       -0.0026386454
  S         0.0343698304        0.0376713592       -0.0475789432
  S        -0.0008490266       -0.0021817956       -0.0601635925
  O         0.0093318656        0.0079011995        0.0011667658
  O        -0.0087918178       -0.0200359795        0.0015113328
  O         0.0013453975       -0.0049529482       -0.0000228254
  O        -0.0006617505        0.0005214644       -0.0098452927
  O         0.0064886198       -0.0207793446       -0.0031117199
  O         0.0047641811       -0.0014347570        0.0081980243
  O        -0.0002197633        0.0034935458        0.0015756473
  O         0.0181189868       -0.0054631757       -0.0054422589
  O         0.0003276136       -0.0047477058        0.0334449794
  O         0.0066378638       -0.0023028453        0.0245308356
  O         0.0012933293       -0.0051249803       -0.0076623869
  O         0.0128015856        0.0093948685        0.0057061987
  O        -0.0173925893       -0.0119453807        0.0110243111
  O         0.0009334597        0.0158608834        0.0031220642
  O         0.0006254106       -0.0136013739        0.0177130077
  H         0.0235412562        0.0073663225       -0.0173365079
  H         0.0113606569        0.0041562575        0.0001787270
  H         0.0059969450        0.0116672954       -0.0086302030
  H         0.0023630418       -0.0023405675       -0.0005964431
  H        -0.0039371762       -0.0152976682       -0.0067244788
  H         0.0007857223        0.0094303410       -0.0027989464
 Ca         0.0051502530       -0.0030290168       -0.0031763808
 Ca        -0.0037236533       -0.0075471458        0.0217080249
 Ca         0.0051553532       -0.0063998284       -0.0012792420
 Ca         0.0028172041        0.0042893737        0.0062415433
 Ca         0.0058129061        0.0105856776        0.0019520276
 Ca        -0.0017486571       -0.0063844685        0.0049671643
  S         0.0080913262       -0.0218851032       -0.0281429625
  S         0.0632419536        0.0431797777        0.0338729464
  S         0.0124094108       -0.0229271356        0.0074213454
  O         0.0024626397        0.0249652197        0.0195364023
  O        -0.0024402211        0.0101538432        0.0091991838
  O        -0.0124468424        0.0102711425        0.0036514223
  O        -0.0149622086        0.0154831560        0.0024966331
  O         0.0089471064       -0.0329182674       -0.0142794311
  O        -0.0127864619        0.0027329753        0.0150658144
  O         0.0287882287        0.0010125087       -0.0004228443
  O        -0.0388998295       -0.0333071066       -0.0057933301
  O         0.0048071278        0.0012672360        0.0001851626
  O        -0.0070908986        0.0004998189        0.0051647457
  O        -0.0320211308        0.0007800172       -0.0225623674
  O         0.0033135650        0.0018636241       -0.0211622566
  S         0.0015815482       -0.0004538469        0.0061399145
  S        -0.0263236341        0.0504599618        0.0048478982
  S        -0.0087191575        0.0023277143        0.0089207207
  O        -0.0060191901       -0.0046326087        0.0241931190
  O        -0.0025450704       -0.0108078393       -0.0193456427
  O        -0.0048731613       -0.0008818593        0.0132630533
  O         0.0028361624        0.0234423244       -0.0095079658
  O         0.0047893810       -0.0210844712        0.0032695677
  O         0.0070922275        0.0090752798       -0.0033404063
  O         0.0379312342       -0.0186886284       -0.0048957067
  O        -0.0065698278       -0.0206312873       -0.0025068317
  O         0.0028005161        0.0066109529        0.0026583473
  O        -0.0253130218       -0.0010861825       -0.0087125911
  O        -0.0303784813       -0.0016839961        0.0310907592
  O        -0.0017927103       -0.0177068181       -0.0066878000
  O        -0.0191593542        0.0144148379       -0.0034531258
  O         0.0005796015       -0.0136749742       -0.0079156186
  O         0.0136552003        0.0084358088       -0.0231392650
  H         0.0025154597        0.0002203052        0.0022780366
  H        -0.0030979418        0.0050685018        0.0016675952
  H        -0.0066776897       -0.0193890814        0.0110393189
  H        -0.0213672742       -0.0136850746        0.0017773490
  H         0.0072437916        0.0178782039       -0.0067808854
  H         0.0052656821       -0.0061856035        0.0001803065
 Ca        -0.0052014132       -0.0023086001        0.0105682102
 Ca         0.0012588437       -0.0004769144        0.0034209667
 Ca        -0.0103902388        0.0195076737        0.0191775701
 Ca         0.0087309662       -0.0192992954       -0.0061873300
 Ca         0.0078158822       -0.0025310951       -0.0168241017
 Ca         0.0016323720       -0.0093517369       -0.0054593257
  S        -0.0017862514       -0.0005678496        0.0135086647
  S        -0.0202063372        0.0414739424       -0.0398158896
  S         0.0249411328       -0.0125241348        0.0291464066
  O         0.0046111337        0.0123889745        0.0000034194
  O         0.0000224917        0.0024161734        0.0242949830
  O        -0.0135580797       -0.0040779465        0.0019460343
  O        -0.0038828864        0.0153581906        0.0078144932
  O         0.0036137201       -0.0124341014        0.0031786470
  O        -0.0053747305       -0.0011397298       -0.0137645526
  O         0.0119410333        0.0065007359       -0.0136889258
  O        -0.0243442602       -0.0130789376       -0.0022097055
  O         0.0053704472       -0.0011092853       -0.0078121187
  O        -0.0068791678       -0.0186739158       -0.0036269397
  O         0.0342789188       -0.0009809379        0.0240624015
  O         0.0095513746        0.0069736952       -0.0121878755
  S         0.0163576505        0.0461718076        0.0338131390
  S        -0.0299149615       -0.0013477447       -0.0052264377
  S         0.0045773100        0.0041137467        0.0064903079
  O         0.0113504682       -0.0353673427        0.0049089561
  O         0.0055090349       -0.0104301634        0.0275356384
  O        -0.0035853739       -0.0016723364        0.0163500290
  O        -0.0123668994       -0.0056789507       -0.0043224635
  O         0.0118313518        0.0036574118        0.0129482544
  O        -0.0026342589       -0.0064137179        0.0060693118
  O         0.0134301904       -0.0005587028        0.0028781824
  O        -0.0005774617        0.0068167604       -0.0090352693
  O         0.0011461602        0.0042102661       -0.0087063857
  O        -0.0366553636       -0.0254784967       -0.0256708717
  O         0.0037967689        0.0143645501        0.0222638207
  O        -0.0098055704        0.0013871732       -0.0112475264
  O        -0.0139196269       -0.0046560210        0.0022507873
  O         0.0285223924       -0.0220540575       -0.0191161542
  O        -0.0056226713        0.0005310415        0.0096123359
  H         0.0205575812        0.0052040564       -0.0098968434
  H        -0.0168367211        0.0205276211       -0.0090133744
  H        -0.0000415572        0.0038734585       -0.0034372312
  H        -0.0072983304        0.0136870429        0.0036218942
  H        -0.0044015233        0.0122218813        0.0139390427
  H         0.0012102536        0.0018382393        0.0017496314
 Ca        -0.0011495819        0.0058150157       -0.0120380253
 Ca        -0.0005283668       -0.0112785527       -0.0022478285
 Ca        -0.0053802539       -0.0182805968       -0.0014996908
 Ca        -0.0034140970       -0.0000084288        0.0005260291
 Ca        -0.0089626318       -0.0023249563       -0.0049399766
 Ca        -0.0057782587        0.0004369292       -0.0083834368
  S         0.0175022363        0.0040927235        0.0018237595
  S        -0.0395140312       -0.0060834886       -0.0134149985
  S        -0.0273650585       -0.0078618281        0.0407207234
  O         0.0046935702        0.0083065537        0.0061546940
  O         0.0108174302       -0.0026852758        0.0242587339
  O         0.0106490562        0.0100462887       -0.0150270972
  O         0.0004551477        0.0016029873       -0.0025874626
  O         0.0020725157        0.0015878538       -0.0025046126
  O        -0.0146176238        0.0050325521        0.0140271956
  O        -0.0078038431       -0.0190638060        0.0087904280
  O        -0.0027698155        0.0006718723        0.0054236114
  O         0.0142334018       -0.0032417289        0.0023743137
  O        -0.0033984685       -0.0047772088        0.0071791594
  O         0.0187443464        0.0064555137       -0.0112998785
  O         0.0054454692        0.0023003025       -0.0196037004
  S         0.0216568750        0.0352715126        0.0150374579
  S        -0.0226221658        0.0136778545       -0.0446600410
  S         0.0067562867       -0.0070582899       -0.0139483679
  O        -0.0181236173       -0.0357753201       -0.0138491719
  O         0.0021459610       -0.0269734919        0.0271198547
  O        -0.0024061394       -0.0024778007       -0.0233960594
  O        -0.0036808260       -0.0040695390        0.0092298186
  O         0.0206282088       -0.0025247083        0.0134327272
  O        -0.0084312340        0.0258213748        0.0157978995
  O         0.0167782596       -0.0019107657        0.0069583760
  O         0.0001590654        0.0246736569       -0.0252552834
  O         0.0007950348        0.0011585714        0.0045248963
  O        -0.0087669844        0.0099427850       -0.0126273323
  O         0.0184443956       -0.0106534953       -0.0090694945
  O        -0.0002243391        0.0059280835        0.0094413198
  O         0.0556800391       -0.0038945188       -0.0327605049
  O         0.0211670899       -0.0061712026        0.0054684994
  O        -0.0130303577        0.0217582765        0.0004128256
  H        -0.0438997565       -0.0100864209        0.0305173335
  H         0.0011114055       -0.0218372944        0.0036860319
  H        -0.0014430123       -0.0035085834       -0.0047825176
  H        -0.0048261488        0.0130022803        0.0007945498
  H        -0.0012482491        0.0053913128        0.0004262915
  H         0.0094953413       -0.0133866784       -0.0064581489
     180
 i =       41, time =       20.500, E =     -2871.7403012245
 Ca        -0.0114202944        0.0081801414        0.0010348172
 Ca        -0.0042612531       -0.0079182520        0.0029845239
 Ca         0.0022929051        0.0019362402        0.0046549709
 Ca        -0.0087214026        0.0107980556       -0.0062098466
 Ca        -0.0114379044        0.0104871022       -0.0027188675
 Ca         0.0020302031        0.0093492834        0.0027088537
  S         0.0263380908       -0.0079465646        0.0000882960
  S        -0.0072976734       -0.0077961368        0.0102234665
  S        -0.0355666921       -0.0009265787       -0.0142934987
  O        -0.0225367660       -0.0051667775        0.0032690934
  O         0.0018486667       -0.0063322476       -0.0081241341
  O         0.0049827171        0.0171417332        0.0020883912
  O        -0.0041106916       -0.0057999299        0.0001916822
  O        -0.0066343637        0.0088117437       -0.0028166550
  O         0.0100943261        0.0027819125       -0.0089770039
  O        -0.0117385110       -0.0114903268       -0.0022451231
  O         0.0098754166        0.0240872411       -0.0103163317
  O         0.0277316600       -0.0181995056        0.0104513772
  O        -0.0020578560        0.0107301229       -0.0064635984
  O         0.0244810140       -0.0113314173        0.0113003537
  O        -0.0221628632        0.0052712802       -0.0065020637
  S        -0.0034033447       -0.0224998139       -0.0023682263
  S         0.0371529783        0.0407712114       -0.0520136040
  S        -0.0027858070       -0.0013026626       -0.0617667267
  O         0.0095727339        0.0076027966       -0.0001473073
  O        -0.0073968991       -0.0205032257        0.0025060680
  O         0.0013661794       -0.0066643920        0.0010680700
  O        -0.0004764352        0.0005564228       -0.0104088756
  O         0.0056515069       -0.0213355167       -0.0051480240
  O         0.0058011896       -0.0010452948        0.0077479309
  O        -0.0009441926        0.0048061875        0.0021854435
  O         0.0161067319       -0.0069041718       -0.0045877824
  O         0.0027059533       -0.0048067984        0.0357329754
  O         0.0066989247       -0.0027519807        0.0244520137
  O         0.0016847918       -0.0056756538       -0.0074359790
  O         0.0125083552        0.0085251269        0.0051294620
  O        -0.0107799154       -0.0157069818        0.0071214683
  O         0.0012465432        0.0168309396        0.0013577629
  O         0.0012091586       -0.0154950724        0.0183741728
  H         0.0193026281        0.0060845278       -0.0137818155
  H         0.0109096692        0.0042768695        0.0008782791
  H         0.0063040093        0.0107646761       -0.0086455748
  H         0.0000306078        0.0023917906        0.0004375100
  H        -0.0033502376       -0.0147249822       -0.0051868484
  H        -0.0001766903        0.0120961563       -0.0037000521
 Ca         0.0051187861       -0.0035680471       -0.0033057297
 Ca        -0.0034476070       -0.0070032622        0.0219470180
 Ca         0.0051043836       -0.0065037919       -0.0010004040
 Ca         0.0031017409        0.0040783796        0.0061085746
 Ca         0.0055506104        0.0104155485        0.0018463528
 Ca        -0.0016540032       -0.0065756476        0.0052989507
  S         0.0082047328       -0.0234472417       -0.0286710847
  S         0.0631437367        0.0462296161        0.0342271094
  S         0.0105425063       -0.0232697965        0.0075452556
  O         0.0008648119        0.0265671925        0.0193992239
  O        -0.0020580172        0.0091777623        0.0096768155
  O        -0.0119093332        0.0105574948        0.0038776499
  O        -0.0135970993        0.0157105729        0.0031667366
  O         0.0095395617       -0.0341505648       -0.0148763260
  O        -0.0126367287        0.0021759801        0.0155385962
  O         0.0268860599       -0.0002847963        0.0001460620
  O        -0.0392854828       -0.0343694613       -0.0059629067
  O         0.0044968424        0.0008186327        0.0003581699
  O        -0.0073887563        0.0000750193        0.0042200022
  O        -0.0327881838       -0.0000069578       -0.0229033961
  O         0.0032350633        0.0015265206       -0.0201845294
  S         0.0005582059        0.0014541543        0.0081434579
  S        -0.0256466811        0.0523251416        0.0061000444
  S        -0.0069807322        0.0027318109        0.0105312281
  O        -0.0051276166       -0.0039127749        0.0244211683
  O        -0.0023535046       -0.0105454302       -0.0192938290
  O        -0.0042787752        0.0000405872        0.0129189791
  O         0.0021757637        0.0223489223       -0.0085031375
  O         0.0031060985       -0.0220604142        0.0017887592
  O         0.0067209577        0.0090439416       -0.0033890474
  O         0.0387883461       -0.0198615062       -0.0055584732
  O        -0.0102380442       -0.0236717277        0.0034125751
  O         0.0012686315        0.0069894718        0.0008884599
  O        -0.0251594676       -0.0016781060       -0.0110161951
  O        -0.0308017086       -0.0009080454        0.0313850291
  O        -0.0013759646       -0.0179229948       -0.0074413993
  O        -0.0220288880        0.0156752120       -0.0036851597
  O         0.0073392085       -0.0159591892       -0.0144611132
  O         0.0140392278        0.0123589022       -0.0249408683
  H         0.0025760529       -0.0002928290        0.0025856596
  H        -0.0019619831        0.0048732758        0.0004235061
  H        -0.0077485465       -0.0228587452        0.0133921396
  H        -0.0199922676       -0.0127193642        0.0015837536
  H        -0.0004151961        0.0191216768        0.0013437826
  H         0.0056026776       -0.0065612423       -0.0002487072
 Ca        -0.0052756542       -0.0024444566        0.0106771486
 Ca         0.0012524004       -0.0004505640        0.0033430708
 Ca        -0.0105928980        0.0204881899        0.0198743138
 Ca         0.0088725740       -0.0195492650       -0.0059060480
 Ca         0.0086751346       -0.0025756331       -0.0174243908
 Ca         0.0016312700       -0.0092683729       -0.0054635862
  S        -0.0010062428        0.0013128260        0.0123969136
  S        -0.0206990516        0.0449095762       -0.0412580229
  S         0.0260672652       -0.0113431472        0.0300456040
  O         0.0050970487        0.0115555270        0.0006810672
  O         0.0002654401        0.0018082747        0.0238248926
  O        -0.0134794284       -0.0047298838        0.0018189119
  O        -0.0041426472        0.0154492157        0.0077935750
  O         0.0036822364       -0.0123728297        0.0032443633
  O        -0.0057978866        0.0003644553       -0.0139885874
  O         0.0120741467        0.0057197563       -0.0138367896
  O        -0.0258522245       -0.0156977004       -0.0005953677
  O         0.0040697383       -0.0007254144       -0.0091581470
  O        -0.0079084961       -0.0195078024       -0.0024701486
  O         0.0360292697       -0.0016516259        0.0260456635
  O         0.0098589102        0.0060475805       -0.0120500356
  S         0.0161987935        0.0475558478        0.0345175875
  S        -0.0334167298       -0.0030158581       -0.0049607436
  S         0.0032049096        0.0052718314        0.0081159593
  O         0.0103167109       -0.0367445446        0.0054853180
  O         0.0074349516       -0.0095440036        0.0276900528
  O        -0.0035807704       -0.0020350070        0.0170590901
  O        -0.0120155059       -0.0052282585       -0.0047825368
  O         0.0129150986        0.0042849690        0.0132296587
  O        -0.0019472570       -0.0077771854        0.0052140526
  O         0.0136954238       -0.0027081180        0.0019105965
  O        -0.0014610390        0.0068419988       -0.0084433640
  O         0.0000238894        0.0038268099       -0.0105921438
  O        -0.0364799380       -0.0255073519       -0.0251712391
  O         0.0031580744        0.0154868160        0.0224376505
  O        -0.0093082988        0.0017204380       -0.0120491120
  O        -0.0108697300       -0.0017818073        0.0019023889
  O         0.0254840819       -0.0202198536       -0.0093345298
  O        -0.0092926394        0.0041692858        0.0101551912
  H         0.0190517049        0.0030324450       -0.0096005119
  H        -0.0193151852        0.0214455958       -0.0103083680
  H         0.0001200801        0.0041529078       -0.0037089102
  H        -0.0092928366        0.0131015268        0.0042574721
  H         0.0018325931        0.0101745398        0.0055087759
  H         0.0038422288       -0.0021064751        0.0014271731
 Ca        -0.0015047206        0.0061094598       -0.0120257165
 Ca        -0.0006398141       -0.0114380060       -0.0025480253
 Ca        -0.0053931028       -0.0187416335       -0.0017223347
 Ca        -0.0033637616        0.0003701429        0.0004254326
 Ca        -0.0090071663       -0.0022483673       -0.0052922442
 Ca        -0.0060774894        0.0001626752       -0.0083309605
  S         0.0207439922        0.0058925325        0.0031329607
  S        -0.0376624396       -0.0053510124       -0.0146757754
  S        -0.0268217342       -0.0081307692        0.0405026304
  O         0.0039684682        0.0085855001        0.0061852031
  O         0.0100161174       -0.0030423472        0.0246578812
  O         0.0107493186        0.0102467637       -0.0138554689
  O        -0.0012732211        0.0008804457       -0.0044451591
  O         0.0015316582        0.0009814422       -0.0031926098
  O        -0.0145514957        0.0044643564        0.0145510658
  O        -0.0082483596       -0.0195198663        0.0079439473
  O        -0.0027041988        0.0013550461        0.0059034092
  O         0.0133833661       -0.0033060932        0.0023204503
  O        -0.0045624869       -0.0065182916        0.0086781557
  O         0.0184135069        0.0060647125       -0.0107625840
  O         0.0054670828        0.0010440631       -0.0193857186
  S         0.0212663280        0.0362941100        0.0151060126
  S        -0.0237568719        0.0115598851       -0.0460032758
  S         0.0063237377       -0.0101873524       -0.0137191408
  O        -0.0180744716       -0.0353744750       -0.0134799762
  O         0.0036206420       -0.0275912979        0.0276752338
  O        -0.0033947541       -0.0051062962       -0.0232542960
  O        -0.0032703376       -0.0036264472        0.0098805259
  O         0.0206731753       -0.0010804662        0.0135230114
  O        -0.0093429334        0.0274718068        0.0163792720
  O         0.0180298064       -0.0024855675        0.0085172400
  O         0.0011230226        0.0248624703       -0.0256661815
  O         0.0011401704        0.0011493630        0.0046918724
  O        -0.0088239990        0.0106908250       -0.0121540390
  O         0.0180646997       -0.0110271746       -0.0084636841
  O         0.0007320516        0.0076686281        0.0086357588
  O         0.0518886345        0.0038267959       -0.0322589617
  O         0.0214518632       -0.0036707334        0.0031112432
  O        -0.0159848700        0.0279860812       -0.0015181060
  H        -0.0429160295       -0.0110431644        0.0300468068
  H         0.0028733840       -0.0225533684        0.0048386801
  H        -0.0023016173       -0.0033725855       -0.0041549293
  H        -0.0021220798        0.0063536592        0.0009203479
  H        -0.0021750104        0.0051593619        0.0012714462
  H         0.0133382869       -0.0198343084       -0.0059349769
     180
 i =       42, time =       21.000, E =     -2871.7392728000
 Ca        -0.0117997819        0.0083725142        0.0010345528
 Ca        -0.0042677726       -0.0081254075        0.0029373767
 Ca         0.0022522381        0.0025015722        0.0048366572
 Ca        -0.0093228333        0.0112650545       -0.0060836486
 Ca        -0.0120258983        0.0107985226       -0.0029109095
 Ca         0.0021120803        0.0094567708        0.0030034405
  S         0.0267427732       -0.0105706701        0.0027931296
  S        -0.0072699907       -0.0085428620        0.0098526256
  S        -0.0375706365       -0.0010422889       -0.0172603243
  O        -0.0236992923       -0.0038859118        0.0023032135
  O         0.0014579643       -0.0057111474       -0.0088310337
  O         0.0064125171        0.0179996056        0.0044608934
  O        -0.0045639414       -0.0059721793       -0.0011914594
  O        -0.0066133375        0.0095144587       -0.0023287500
  O         0.0118223819        0.0031451343       -0.0105757837
  O        -0.0114540041       -0.0110565430       -0.0015276924
  O         0.0087518118        0.0233690355       -0.0110240118
  O         0.0276958906       -0.0184725186        0.0104733097
  O        -0.0008606529        0.0117782715       -0.0068275357
  O         0.0248486970       -0.0110919347        0.0120774652
  O        -0.0221641178        0.0047254432       -0.0053388654
  S        -0.0027549183       -0.0228266864       -0.0019167971
  S         0.0396691073        0.0437091964       -0.0561678480
  S        -0.0046449034       -0.0003418830       -0.0630868809
  O         0.0097865136        0.0072032075       -0.0033340292
  O        -0.0059379127       -0.0207898660        0.0033448686
  O         0.0012498743       -0.0082657638        0.0021826658
  O        -0.0003055760        0.0005919642       -0.0109021473
  O         0.0047724814       -0.0214334225       -0.0075318659
  O         0.0070985111       -0.0007467910        0.0071805812
  O        -0.0015856024        0.0062750538        0.0017755466
  O         0.0139315448       -0.0080456362       -0.0035926974
  O         0.0047686232       -0.0048890659        0.0379938871
  O         0.0067046812       -0.0029304849        0.0241581977
  O         0.0020708943       -0.0069933857       -0.0065180452
  O         0.0121714818        0.0077188422        0.0046844929
  O        -0.0021129448       -0.0187619448        0.0010052593
  O         0.0022822830        0.0171445324       -0.0001383440
  O         0.0023685221       -0.0151103842        0.0174824821
  H         0.0124868774        0.0039438303       -0.0081404977
  H         0.0098744714        0.0047098783        0.0014970992
  H         0.0055881631        0.0086265976       -0.0072094086
  H        -0.0022354208        0.0072564194        0.0015532329
  H        -0.0029004416       -0.0137150943       -0.0031254551
  H        -0.0007376346        0.0137162648       -0.0045894648
 Ca         0.0050937828       -0.0040769019       -0.0033557023
 Ca        -0.0031697875       -0.0064764978        0.0221402606
 Ca         0.0050011229       -0.0066538030       -0.0006954014
 Ca         0.0033675659        0.0038687881        0.0059634171
 Ca         0.0052844972        0.0102246898        0.0017411945
 Ca        -0.0015573741       -0.0067460624        0.0056437451
  S         0.0082146040       -0.0248489568       -0.0290502674
  S         0.0621990383        0.0485084841        0.0343513487
  S         0.0084328896       -0.0233937022        0.0076377601
  O        -0.0006892239        0.0282091121        0.0191174360
  O        -0.0018660472        0.0083766281        0.0100378113
  O        -0.0113220835        0.0107918599        0.0040980428
  O        -0.0124138772        0.0159326296        0.0038274941
  O         0.0101104237       -0.0351224216       -0.0154935859
  O        -0.0124369372        0.0018636173        0.0160961203
  O         0.0220469949       -0.0018816051        0.0004404174
  O        -0.0391416330       -0.0348303852       -0.0060727644
  O         0.0043622405        0.0003573188        0.0005041076
  O        -0.0077256519       -0.0003292913        0.0031168043
  O        -0.0332157974       -0.0007420220       -0.0230377784
  O         0.0030787707        0.0013359900       -0.0190398299
  S        -0.0004289376        0.0033524744        0.0099716216
  S        -0.0246843523        0.0538867274        0.0071501860
  S        -0.0052121162        0.0031003215        0.0121771103
  O        -0.0042882947       -0.0032520736        0.0244396709
  O        -0.0021864412       -0.0101567375       -0.0191966342
  O        -0.0036115843        0.0009389028        0.0124796347
  O         0.0013690048        0.0213761128       -0.0073721121
  O         0.0014694240       -0.0230316131        0.0004652811
  O         0.0063333792        0.0090034858       -0.0034446201
  O         0.0395345165       -0.0208462684       -0.0061638657
  O        -0.0137290640       -0.0266821703        0.0080822612
  O        -0.0001085523        0.0074560746       -0.0010191700
  O        -0.0249297317       -0.0021848125       -0.0130780611
  O        -0.0310210826       -0.0002124094        0.0314829779
  O        -0.0009869724       -0.0180467064       -0.0084475965
  O        -0.0223534145        0.0166768387       -0.0041305879
  O         0.0143588305       -0.0181224410       -0.0218375469
  O         0.0144189703        0.0138214221       -0.0255648981
  H         0.0025615959       -0.0007961376        0.0029655052
  H        -0.0006457805        0.0045324166       -0.0007836978
  H        -0.0081134004       -0.0244477976        0.0144150386
  H        -0.0157333544       -0.0113299798        0.0015855273
  H        -0.0086759332        0.0202803930        0.0104079252
  H         0.0052896587       -0.0062722194       -0.0005131231
 Ca        -0.0053337624       -0.0025608649        0.0107458124
 Ca         0.0012333152       -0.0004480170        0.0032358928
 Ca        -0.0107387127        0.0214325048        0.0205571179
 Ca         0.0090560056       -0.0198353210       -0.0056086846
 Ca         0.0095034558       -0.0025240847       -0.0180121616
 Ca         0.0016475694       -0.0091977419       -0.0054751794
  S        -0.0002853254        0.0032157599        0.0112741551
  S        -0.0209068314        0.0478855643       -0.0419372227
  S         0.0269120615       -0.0101328905        0.0307809316
  O         0.0056035414        0.0106714570        0.0013555362
  O         0.0005696525        0.0011817138        0.0229941162
  O        -0.0133797750       -0.0053057200        0.0018076612
  O        -0.0044061063        0.0154894457        0.0080893475
  O         0.0037021530       -0.0122147792        0.0032584053
  O        -0.0065573983        0.0019797430       -0.0140001852
  O         0.0120434886        0.0049323985       -0.0138621815
  O        -0.0270808685       -0.0180703252       -0.0002453470
  O         0.0030410453       -0.0003821176       -0.0103634549
  O        -0.0088869562       -0.0202014358       -0.0014980815
  O         0.0373294647       -0.0021173053        0.0275589161
  O         0.0100910254        0.0051282969       -0.0118674712
  S         0.0156333918        0.0484335743        0.0348840320
  S        -0.0364844625       -0.0048090707       -0.0047257009
  S         0.0017568985        0.0064288119        0.0097041956
  O         0.0094167718       -0.0377158709        0.0062735897
  O         0.0087684820       -0.0091550921        0.0276090918
  O        -0.0035366645       -0.0023184682        0.0175337395
  O        -0.0116068204       -0.0047441658       -0.0053044638
  O         0.0139991103        0.0049006653        0.0134941530
  O        -0.0012246586       -0.0091907129        0.0042855788
  O         0.0137489919       -0.0050185925        0.0005537969
  O        -0.0024095752        0.0065918436       -0.0079049622
  O        -0.0009472985        0.0034483831       -0.0122480366
  O        -0.0360590684       -0.0254534536       -0.0243892115
  O         0.0026146664        0.0160840330        0.0224855477
  O        -0.0087528833        0.0020262671       -0.0128031609
  O        -0.0046479901        0.0028096604        0.0011007416
  O         0.0216574276       -0.0176210870        0.0000121070
  O        -0.0125011280        0.0082151992        0.0102539631
  H         0.0142780680        0.0006903147       -0.0081747817
  H        -0.0208544881        0.0215590429       -0.0111719273
  H         0.0000798401        0.0039339778       -0.0035132780
  H        -0.0108403333        0.0109906724        0.0044934109
  H         0.0077012458        0.0080920881       -0.0026574521
  H         0.0063427337       -0.0058383794        0.0011037014
 Ca        -0.0018671349        0.0064244820       -0.0119846132
 Ca        -0.0007225314       -0.0115566478       -0.0028616774
 Ca        -0.0054291593       -0.0191058756       -0.0019574823
 Ca        -0.0033014697        0.0007507130        0.0002993335
 Ca        -0.0090497716       -0.0021877712       -0.0056306692
 Ca        -0.0063674513       -0.0000967929       -0.0082738110
  S         0.0239599161        0.0076898761        0.0045473664
  S        -0.0354914435       -0.0045953366       -0.0157989436
  S        -0.0260306282       -0.0085760005        0.0399306130
  O         0.0033503541        0.0088155296        0.0064693679
  O         0.0091156050       -0.0034999285        0.0250264649
  O         0.0106880327        0.0100758436       -0.0122938892
  O        -0.0031074893        0.0001256120       -0.0063036080
  O         0.0007505474        0.0003596150       -0.0038854464
  O        -0.0144025979        0.0038496140        0.0150538631
  O        -0.0087579025       -0.0200888826        0.0071662193
  O        -0.0027276900        0.0019867184        0.0063466584
  O         0.0124673454       -0.0031493008        0.0022438896
  O        -0.0057165480       -0.0084367499        0.0100950392
  O         0.0179582631        0.0057035306       -0.0103023145
  O         0.0054105127       -0.0000801454       -0.0194953935
  S         0.0205117942        0.0366902293        0.0149780646
  S        -0.0247398830        0.0094752606       -0.0469992543
  S         0.0057759889       -0.0132228452       -0.0133495444
  O        -0.0177567246       -0.0343117740       -0.0129920587
  O         0.0049738718       -0.0281732808        0.0279870515
  O        -0.0043382797       -0.0078501377       -0.0230426212
  O        -0.0028906959       -0.0031631322        0.0104919354
  O         0.0207220448        0.0001930308        0.0135516789
  O        -0.0102429320        0.0288329176        0.0165350836
  O         0.0191487225       -0.0031132409        0.0101715595
  O         0.0020085198        0.0248483569       -0.0259673346
  O         0.0014436413        0.0010973788        0.0050386605
  O        -0.0088755404        0.0113322220       -0.0113866217
  O         0.0175047354       -0.0105337477       -0.0076766542
  O         0.0019255514        0.0091708476        0.0077687733
  O         0.0445672772        0.0111086836       -0.0295714720
  O         0.0217972887       -0.0012848594        0.0013570287
  O        -0.0174067927        0.0316678761       -0.0033328938
  H        -0.0383969996       -0.0111958819        0.0272248451
  H         0.0041970239       -0.0228037792        0.0056585732
  H        -0.0030843752       -0.0030008093       -0.0036070234
  H         0.0005957593       -0.0005644157        0.0012309007
  H        -0.0027448722        0.0047502546        0.0018322101
  H         0.0155697071       -0.0240650479       -0.0055005729
     180
 i =       43, time =       21.500, E =     -2871.7390890917
 Ca        -0.0121881128        0.0085367510        0.0010278074
 Ca        -0.0042815535       -0.0083147616        0.0028818636
 Ca         0.0022599519        0.0030762364        0.0049905811
 Ca        -0.0099351680        0.0117069449       -0.0059362314
 Ca        -0.0126258268        0.0110913676       -0.0030992575
 Ca         0.0021554050        0.0095601882        0.0033139334
  S         0.0269275903       -0.0131580306        0.0054950251
  S        -0.0069602548       -0.0090907244        0.0095033971
  S        -0.0390949594       -0.0013613433       -0.0201854996
  O        -0.0246938173       -0.0027219580        0.0013675743
  O         0.0008273909       -0.0050996350       -0.0093880269
  O         0.0078221873        0.0187130984        0.0068833305
  O        -0.0049827318       -0.0061277850       -0.0026115970
  O        -0.0070843366        0.0101295393       -0.0018791018
  O         0.0136171805        0.0029713026       -0.0120285017
  O        -0.0112710156       -0.0105210738       -0.0007760026
  O         0.0075518891        0.0224790460       -0.0116703815
  O         0.0274203863       -0.0186078105        0.0103601224
  O         0.0002653455        0.0127995738       -0.0069828019
  O         0.0250703896       -0.0108042599        0.0127104902
  O        -0.0220531690        0.0041598774       -0.0044271214
  S        -0.0019451241       -0.0230055743       -0.0013143676
  S         0.0418040171        0.0463871359       -0.0599207100
  S        -0.0063915296        0.0006824491       -0.0641069008
  O         0.0097016714        0.0065916188       -0.0053085069
  O        -0.0044221931       -0.0209996042        0.0039566222
  O         0.0009031080       -0.0097826366        0.0033638772
  O        -0.0001407907        0.0006361871       -0.0113289788
  O         0.0038547163       -0.0211985083       -0.0098878377
  O         0.0085021606       -0.0006368002        0.0065560931
  O        -0.0021191860        0.0078056416        0.0011900126
  O         0.0120486625       -0.0087584023       -0.0025796819
  O         0.0067329424       -0.0049817737        0.0399118897
  O         0.0065992866       -0.0029426838        0.0236648754
  O         0.0027454172       -0.0082495352       -0.0076135747
  O         0.0117798446        0.0069756043        0.0043059268
  O         0.0067817634       -0.0207733697       -0.0062829956
  O         0.0036860850        0.0168536619       -0.0022960624
  O         0.0038707045       -0.0125295864        0.0153238009
  H         0.0044465814        0.0014173998       -0.0015562575
  H         0.0083278601        0.0053987646        0.0020331075
  H         0.0040267772        0.0054622028       -0.0046388391
  H        -0.0041219829        0.0116178051        0.0025551928
  H        -0.0026092491       -0.0123091606       -0.0006276470
  H        -0.0008279421        0.0141619336       -0.0054186168
 Ca         0.0050714313       -0.0045458541       -0.0033217462
 Ca        -0.0028978799       -0.0059766690        0.0222778077
 Ca         0.0048491618       -0.0068416145       -0.0003776491
 Ca         0.0036192092        0.0036697076        0.0058065568
 Ca         0.0050253066        0.0100205998        0.0016357105
 Ca        -0.0014599305       -0.0068949132        0.0059979865
  S         0.0081231230       -0.0260614498       -0.0292718679
  S         0.0603691337        0.0499392510        0.0342777578
  S         0.0061137235       -0.0232959516        0.0076933070
  O        -0.0020494239        0.0297466521        0.0188769554
  O        -0.0018651461        0.0079218593        0.0102193696
  O        -0.0106643574        0.0109063612        0.0042811249
  O        -0.0114261710        0.0161654896        0.0044978790
  O         0.0106556835       -0.0358009077       -0.0160230639
  O        -0.0120099931        0.0018058615        0.0167074645
  O         0.0150185558       -0.0039011660        0.0004955631
  O        -0.0384502616       -0.0346516075       -0.0061000960
  O         0.0044352997       -0.0000994968        0.0006148483
  O        -0.0080184977       -0.0007290129        0.0019204158
  O        -0.0333004464       -0.0014080546       -0.0230217434
  O         0.0028412286        0.0013017501       -0.0177648550
  S        -0.0013712088        0.0052155095        0.0115807939
  S        -0.0234547897        0.0551064128        0.0080290649
  S        -0.0034417676        0.0034278958        0.0138300796
  O        -0.0034876502       -0.0026743633        0.0242080530
  O        -0.0020614705       -0.0097066422       -0.0190886176
  O        -0.0029218323        0.0017182038        0.0120051686
  O         0.0005016753        0.0206189298       -0.0061388739
  O        -0.0000550948       -0.0238568489       -0.0007232224
  O         0.0059414505        0.0089430121       -0.0033805435
  O         0.0401426034       -0.0216203414       -0.0061003166
  O        -0.0164654979       -0.0299897621        0.0123064642
  O        -0.0013108294        0.0079069146       -0.0029915218
  O        -0.0247589396       -0.0026415152       -0.0147459639
  O        -0.0310035620        0.0005760330        0.0313478476
  O        -0.0006913322       -0.0180532544       -0.0096205670
  O        -0.0215109474        0.0173885002       -0.0048700412
  O         0.0206377218       -0.0200176027       -0.0287731308
  O         0.0147387943        0.0128066804       -0.0249143140
  H         0.0024739618       -0.0012694328        0.0034005649
  H         0.0007264310        0.0040754989       -0.0019049510
  H        -0.0077753096       -0.0241067288        0.0140675658
  H        -0.0093683307       -0.0095198308        0.0017185059
  H        -0.0164505255        0.0212566408        0.0190647062
  H         0.0043459272       -0.0053497090       -0.0006292367
 Ca        -0.0053643261       -0.0026611375        0.0107690328
 Ca         0.0012052482       -0.0004734197        0.0031038177
 Ca        -0.0108163473        0.0223111026        0.0212193774
 Ca         0.0092679185       -0.0201610516       -0.0053033564
 Ca         0.0102721311       -0.0024052860       -0.0185709112
 Ca         0.0016798169       -0.0091382974       -0.0054942598
  S         0.0003575078        0.0051132839        0.0101662374
  S        -0.0207686303        0.0503251291       -0.0418641612
  S         0.0274282790       -0.0089459709        0.0313120987
  O         0.0061210025        0.0097635520        0.0020266078
  O         0.0009537221        0.0005526265        0.0220024333
  O        -0.0132696873       -0.0057443390        0.0016632260
  O        -0.0046514669        0.0155075123        0.0080009088
  O         0.0036634992       -0.0119676894        0.0032340967
  O        -0.0072605446        0.0034673195       -0.0138057912
  O         0.0117942734        0.0043590839       -0.0136622116
  O        -0.0280017643       -0.0201546506        0.0014042918
  O         0.0022527992       -0.0000701197       -0.0114555869
  O        -0.0098170161       -0.0206901774       -0.0005718978
  O         0.0380908789       -0.0022864471        0.0285141769
  O         0.0101281190        0.0042341377       -0.0115988163
  S         0.0146479789        0.0487579832        0.0348859885
  S        -0.0390655089       -0.0066812993       -0.0045050409
  S         0.0002496056        0.0075670973        0.0112194222
  O         0.0086024276       -0.0381796475        0.0071459732
  O         0.0095163532       -0.0094774610        0.0273673373
  O        -0.0034604563       -0.0024722867        0.0177406753
  O        -0.0111528034       -0.0042219176       -0.0058417334
  O         0.0150209359        0.0054268077        0.0136622554
  O        -0.0004401702       -0.0106403448        0.0033286489
  O         0.0138363408       -0.0070506805       -0.0008780609
  O        -0.0033515628        0.0061292770       -0.0075631281
  O        -0.0017545353        0.0031222628       -0.0136036017
  O        -0.0353852747       -0.0253222520       -0.0233178347
  O         0.0022663541        0.0160775716        0.0224111116
  O        -0.0081361838        0.0023136851       -0.0134574425
  O         0.0037682606        0.0089489751        0.0001932533
  O         0.0177262717       -0.0146019535        0.0080742016
  O        -0.0148913630        0.0121140491        0.0094801515
  H         0.0071657512       -0.0018936814       -0.0059634829
  H        -0.0215047865        0.0208965308       -0.0116235121
  H        -0.0001410510        0.0032348619       -0.0028693714
  H        -0.0118934358        0.0075823319        0.0043487784
  H         0.0125603004        0.0061819297       -0.0096807747
  H         0.0083576491       -0.0088478086        0.0007911159
 Ca        -0.0022258228        0.0067563811       -0.0119165150
 Ca        -0.0007835702       -0.0116273258       -0.0031864987
 Ca        -0.0054966845       -0.0193735626       -0.0021794928
 Ca        -0.0032300020        0.0011221806        0.0001503924
 Ca        -0.0090887214       -0.0021495658       -0.0059379188
 Ca        -0.0066390619       -0.0003423766       -0.0082027815
  S         0.0270884531        0.0094539273        0.0060420519
  S        -0.0330240696       -0.0038265899       -0.0167590102
  S        -0.0250272318       -0.0092193476        0.0389998046
  O         0.0028535681        0.0090019820        0.0067108820
  O         0.0081483258       -0.0040242589        0.0253636922
  O         0.0105683381        0.0095993964       -0.0101869216
  O        -0.0049659897       -0.0006337314       -0.0081873673
  O        -0.0001593639       -0.0002146728       -0.0044696220
  O        -0.0141509914        0.0031564875        0.0154531728
  O        -0.0092459143       -0.0207237747        0.0063360821
  O        -0.0028309700        0.0025481562        0.0067443190
  O         0.0115749866       -0.0027942682        0.0021159364
  O        -0.0068486539       -0.0103883817        0.0111087315
  O         0.0173544434        0.0053856301       -0.0099469593
  O         0.0053038951       -0.0010351806       -0.0197836424
  S         0.0194114959        0.0364601579        0.0146509235
  S        -0.0255413629        0.0074544172       -0.0476014284
  S         0.0051303181       -0.0161207234       -0.0128426923
  O        -0.0172096077       -0.0326225932       -0.0123717855
  O         0.0061066733       -0.0287737598        0.0280710205
  O        -0.0051093607       -0.0107796402       -0.0228632972
  O        -0.0025640350       -0.0028074302        0.0110197463
  O         0.0209010090        0.0012512571        0.0132331101
  O        -0.0111254009        0.0299983815        0.0166573644
  O         0.0199424011       -0.0037752248        0.0116356663
  O         0.0028805377        0.0245807146       -0.0261953110
  O         0.0017112160        0.0010055635        0.0052043840
  O        -0.0089709832        0.0115810939       -0.0104613531
  O         0.0167346770       -0.0102145092       -0.0068953964
  O         0.0032943827        0.0102025031        0.0069616673
  O         0.0338506552        0.0169653878       -0.0245819802
  O         0.0222879404        0.0010296081        0.0004081269
  O        -0.0167235817        0.0319698581       -0.0049906696
  H        -0.0300853955       -0.0103985356        0.0218661208
  H         0.0049197396       -0.0225576646        0.0060504784
  H        -0.0037448366       -0.0024026408       -0.0031660566
  H         0.0029381339       -0.0069321140        0.0017815335
  H        -0.0028793767        0.0041448080        0.0020438257
  H         0.0155648766       -0.0252113011       -0.0051569458
     180
 i =       44, time =       22.000, E =     -2871.7394257358
 Ca        -0.0125844988        0.0086666761        0.0010181627
 Ca        -0.0043013729       -0.0084858535        0.0028183374
 Ca         0.0023265536        0.0036498718        0.0050968985
 Ca        -0.0105505636        0.0121214947       -0.0057773719
 Ca        -0.0132266776        0.0113702293       -0.0032816359
 Ca         0.0021549150        0.0096569426        0.0036202806
  S         0.0268953070       -0.0157228078        0.0081933732
  S        -0.0063947828       -0.0094623100        0.0092043831
  S        -0.0401431019       -0.0018730863       -0.0230568278
  O        -0.0255452731       -0.0014766056        0.0003679933
  O         0.0004164078       -0.0044909041       -0.0098018354
  O         0.0091857633        0.0193022268        0.0093492912
  O        -0.0053629043       -0.0062648244       -0.0039740469
  O        -0.0078739569        0.0107979359       -0.0014181589
  O         0.0153062021        0.0022527456       -0.0133082794
  O        -0.0111744119       -0.0099031547       -0.0000355843
  O         0.0063063252        0.0214137939       -0.0122504620
  O         0.0269385433       -0.0186091883        0.0101184598
  O         0.0013585405        0.0137833980       -0.0067037720
  O         0.0251528182       -0.0104590814        0.0131529203
  O        -0.0217984671        0.0037011595       -0.0034202514
  S        -0.0010121517       -0.0230293601       -0.0005444416
  S         0.0435119364        0.0487591756       -0.0632372378
  S        -0.0080419689        0.0017697567       -0.0648350905
  O         0.0092014646        0.0056465776       -0.0063351520
  O        -0.0028292993       -0.0211769341        0.0043186411
  O         0.0004422290       -0.0112353407        0.0045762384
  O         0.0000213598        0.0006871875       -0.0117033959
  O         0.0028674602       -0.0208501058       -0.0118790312
  O         0.0097525787       -0.0007938138        0.0060031442
  O        -0.0025482661        0.0093376875        0.0006601550
  O         0.0108964418       -0.0091555339       -0.0016674855
  O         0.0083653331       -0.0050433033        0.0413614369
  O         0.0063403442       -0.0027878168        0.0229967221
  O         0.0037797508       -0.0095380248       -0.0090794634
  O         0.0113366593        0.0062521769        0.0040161925
  O         0.0157142078       -0.0217403172       -0.0137524331
  O         0.0051327764        0.0160318780       -0.0056946737
  O         0.0054071356       -0.0080445834        0.0123484031
  H        -0.0036035352       -0.0010819454        0.0049651219
  H         0.0063772658        0.0062427084        0.0025034769
  H         0.0019067644        0.0016074942       -0.0013848757
  H        -0.0053725242        0.0148787741        0.0032228778
  H        -0.0024790808       -0.0105493742        0.0022291024
  H        -0.0004229392        0.0134239070       -0.0061648536
 Ca         0.0050474850       -0.0049738654       -0.0032062732
 Ca        -0.0026329958       -0.0055011514        0.0223540850
 Ca         0.0046547932       -0.0070619169       -0.0000640359
 Ca         0.0038678117        0.0034810889        0.0056313235
 Ca         0.0047764136        0.0098086571        0.0015253408
 Ca        -0.0013604643       -0.0070227057        0.0063620580
  S         0.0079298239       -0.0270930622       -0.0293342250
  S         0.0576486849        0.0505398147        0.0340300667
  S         0.0036079825       -0.0229829977        0.0077003066
  O        -0.0031359234        0.0311648623        0.0186442316
  O        -0.0018675873        0.0076098685        0.0102037719
  O        -0.0099384687        0.0108342990        0.0044707329
  O        -0.0105851214        0.0163975334        0.0052107352
  O         0.0111448393       -0.0361922456       -0.0163827680
  O        -0.0111701319        0.0019360910        0.0173092704
  O         0.0067391906       -0.0064253411        0.0003143795
  O        -0.0372224663       -0.0338564404       -0.0060858021
  O         0.0046905997       -0.0005497855        0.0007063503
  O        -0.0082584599       -0.0011227864        0.0006795172
  O        -0.0330463341       -0.0020713358       -0.0228831046
  O         0.0025055273        0.0013995928       -0.0163761337
  S        -0.0022876113        0.0070479000        0.0129811160
  S        -0.0219599779        0.0559700523        0.0087328305
  S        -0.0016520983        0.0037262263        0.0154883870
  O        -0.0026693354       -0.0021385607        0.0237059121
  O        -0.0019692040       -0.0091487102       -0.0189807271
  O        -0.0021484146        0.0024173534        0.0115001786
  O        -0.0003598005        0.0200840599       -0.0048164938
  O        -0.0014950370       -0.0244663767       -0.0018429402
  O         0.0055453812        0.0088432681       -0.0033919382
  O         0.0405811509       -0.0221758097       -0.0047412715
  O        -0.0184290877       -0.0337293808        0.0169671774
  O        -0.0023835557        0.0082646538       -0.0050026937
  O        -0.0245868566       -0.0031355542       -0.0159386067
  O        -0.0307703197        0.0014464396        0.0310819203
  O        -0.0005150307       -0.0179331997       -0.0106514359
  O        -0.0192048243        0.0178976090       -0.0055726122
  O         0.0250757170       -0.0214750261       -0.0336536752
  O         0.0149053097        0.0093804838       -0.0229694242
  H         0.0023452927       -0.0017183139        0.0038522741
  H         0.0020754720        0.0035194512       -0.0028979885
  H        -0.0067408740       -0.0218096428        0.0123187746
  H        -0.0018494321       -0.0073189652        0.0019013690
  H        -0.0225600964        0.0218864248        0.0257674317
  H         0.0028607754       -0.0039010478       -0.0006352303
 Ca        -0.0053582481       -0.0027465740        0.0107486555
 Ca         0.0011714689       -0.0005322293        0.0029463566
 Ca        -0.0108147038        0.0231180250        0.0218714197
 Ca         0.0094966003       -0.0205330911       -0.0049907795
 Ca         0.0109692788       -0.0022528143       -0.0190951066
 Ca         0.0017257597       -0.0090836028       -0.0055155843
  S         0.0009320556        0.0070103767        0.0090605286
  S        -0.0202436460        0.0522216856       -0.0410925320
  S         0.0276173888       -0.0078083587        0.0316146814
  O         0.0066435593        0.0088369430        0.0026764179
  O         0.0013931150       -0.0000698957        0.0206484432
  O        -0.0131603213       -0.0060194541        0.0016470064
  O        -0.0049010780        0.0155029245        0.0081836187
  O         0.0035576609       -0.0116406948        0.0031937871
  O        -0.0074952663        0.0046491785       -0.0135167563
  O         0.0114148252        0.0040198500       -0.0134169587
  O        -0.0285951927       -0.0219503243        0.0021014263
  O         0.0016041230        0.0002105287       -0.0124142782
  O        -0.0106360227       -0.0209948897        0.0002196163
  O         0.0382440834       -0.0021184435        0.0288856013
  O         0.0099059111        0.0033035646       -0.0112067379
  S         0.0132581986        0.0485475341        0.0345223152
  S        -0.0411856813       -0.0086241926       -0.0042770612
  S        -0.0013225103        0.0086867019        0.0126559913
  O         0.0078842201       -0.0381869695        0.0080848575
  O         0.0098594399       -0.0102264844        0.0269880915
  O        -0.0033623036       -0.0025049884        0.0179212163
  O        -0.0106570650       -0.0036659324       -0.0064049907
  O         0.0159674342        0.0058459225        0.0137473620
  O         0.0004290703       -0.0121093230        0.0024066742
  O         0.0140844232       -0.0085938580       -0.0022790730
  O        -0.0042070789        0.0052573641       -0.0073672871
  O        -0.0024653167        0.0029789020       -0.0147113254
  O        -0.0344525067       -0.0251087888       -0.0219370908
  O         0.0020884149        0.0155727101        0.0223024470
  O        -0.0074552514        0.0025957926       -0.0140259898
  O         0.0129074300        0.0161213951       -0.0006405766
  O         0.0139284730       -0.0112445854        0.0145110380
  O        -0.0162519736        0.0153458330        0.0076551096
  H        -0.0010807293       -0.0047233908       -0.0033814600
  H        -0.0212700619        0.0194859089       -0.0116715566
  H        -0.0004820035        0.0021392437       -0.0018566955
  H        -0.0124858330        0.0032558880        0.0038991519
  H         0.0161723788        0.0045100983       -0.0152544585
  H         0.0095991033       -0.0107367021        0.0004770771
 Ca        -0.0025783061        0.0071079448       -0.0118235063
 Ca        -0.0008308808       -0.0116486225       -0.0035204256
 Ca        -0.0056048817       -0.0195460395       -0.0023728158
 Ca        -0.0031513834        0.0014851208       -0.0000206399
 Ca        -0.0091350871       -0.0021338836       -0.0062104304
 Ca        -0.0068900072       -0.0005834265       -0.0081085832
  S         0.0301242228        0.0111926895        0.0076138602
  S        -0.0302648329       -0.0030396226       -0.0175543021
  S        -0.0238210517       -0.0100542907        0.0377182612
  O         0.0024683610        0.0091620098        0.0068533593
  O         0.0071368528       -0.0045178466        0.0256196567
  O         0.0106228644        0.0091087116       -0.0078108438
  O        -0.0068139201       -0.0013901336       -0.0101040620
  O        -0.0011051795       -0.0006992459       -0.0048874372
  O        -0.0137856846        0.0023965346        0.0157714049
  O        -0.0097383864       -0.0213583392        0.0055023996
  O        -0.0030206247        0.0030450987        0.0070973772
  O         0.0107553220       -0.0022471162        0.0019314017
  O        -0.0079350407       -0.0121883401        0.0114116468
  O         0.0166217281        0.0050823280       -0.0096979866
  O         0.0051743293       -0.0017588207       -0.0203318026
  S         0.0180221826        0.0356411430        0.0141230860
  S        -0.0261484928        0.0054813412       -0.0477786856
  S         0.0043863966       -0.0188912682       -0.0121954452
  O        -0.0165081010       -0.0303811171       -0.0116146843
  O         0.0070918152       -0.0291991795        0.0279539928
  O        -0.0056283689       -0.0140207723       -0.0227080191
  O        -0.0022619350       -0.0026888779        0.0115140010
  O         0.0210643543        0.0019064466        0.0124552122
  O        -0.0119416394        0.0310975194        0.0161951318
  O         0.0203341575       -0.0044621298        0.0125903388
  O         0.0037426355        0.0241396079       -0.0263036234
  O         0.0019469837        0.0008679904        0.0047762715
  O        -0.0091295921        0.0113641027       -0.0097365994
  O         0.0158001772       -0.0092102253       -0.0062391305
  O         0.0047630318        0.0108754933        0.0062757446
  O         0.0194794317        0.0207318571       -0.0169816545
  O         0.0228321221        0.0032321312        0.0003928715
  O        -0.0138500114        0.0287553526       -0.0065321107
  H        -0.0175299426       -0.0084750140        0.0136791280
  H         0.0049437481       -0.0217893094        0.0059587653
  H        -0.0042576545       -0.0015946255       -0.0028419515
  H         0.0047166435       -0.0123404305        0.0025506798
  H        -0.0025616344        0.0033312481        0.0018789177
  H         0.0131906651       -0.0230906868       -0.0048459851
     180
 i =       45, time =       22.500, E =     -2871.7399465492
 Ca        -0.0129792114        0.0087560140        0.0010129032
 Ca        -0.0043269196       -0.0086344997        0.0027468897
 Ca         0.0024549715        0.0042062409        0.0051352116
 Ca        -0.0111513420        0.0125132830       -0.0056146872
 Ca        -0.0138056570        0.0116362979       -0.0034499151
 Ca         0.0021143066        0.0097386781        0.0039164526
  S         0.0266460814       -0.0182128953        0.0108201492
  S        -0.0056022484       -0.0096557410        0.0089954999
  S        -0.0406772338       -0.0025444768       -0.0257841758
  O        -0.0262002547       -0.0000921365       -0.0007529379
  O         0.0004405054       -0.0039079914       -0.0104911163
  O         0.0104312637        0.0197537027        0.0117528144
  O        -0.0056933729       -0.0063681294       -0.0052430888
  O        -0.0085208142        0.0116948565       -0.0008535827
  O         0.0167381291        0.0013132351       -0.0143243350
  O        -0.0111846129       -0.0092178113        0.0007570757
  O         0.0050428642        0.0201921471       -0.0127376628
  O         0.0261886655       -0.0184768240        0.0097347878
  O         0.0024214470        0.0146938305       -0.0059365577
  O         0.0250958284       -0.0100747336        0.0134120787
  O        -0.0213644851        0.0033942713       -0.0025670532
  S        -0.0000034525       -0.0228853448        0.0003866471
  S         0.0446996984        0.0507094039       -0.0659859685
  S        -0.0095671133        0.0028946734       -0.0652653453
  O         0.0084332186        0.0042632799       -0.0069958586
  O        -0.0011624557       -0.0213277156        0.0044331469
  O        -0.0001917171       -0.0125854051        0.0057887245
  O         0.0001860497        0.0007573926       -0.0119898151
  O         0.0019234440       -0.0206149555       -0.0133725549
  O         0.0106561916       -0.0011586840        0.0055963415
  O        -0.0028829012        0.0107290385        0.0001305479
  O         0.0105228631       -0.0095681091       -0.0004340100
  O         0.0093793733       -0.0051667535        0.0424816810
  O         0.0059055597       -0.0025409405        0.0221500832
  O         0.0049361313       -0.0105803340       -0.0104161218
  O         0.0108259543        0.0055020446        0.0039361278
  O         0.0218328488       -0.0216173581       -0.0199686580
  O         0.0066264406        0.0148642743       -0.0098187055
  O         0.0066458663       -0.0022570159        0.0090348103
  H        -0.0105272256       -0.0031967681        0.0105102586
  H         0.0042077945        0.0071104532        0.0029127682
  H        -0.0003940541       -0.0024218600        0.0019794925
  H        -0.0057674001        0.0164643802        0.0033308241
  H        -0.0024850464       -0.0085606907        0.0052154824
  H         0.0004518887        0.0116085048       -0.0067799101
 Ca         0.0050203946       -0.0053490599       -0.0030079906
 Ca        -0.0023790706       -0.0050573914        0.0223744106
 Ca         0.0044323428       -0.0073071676        0.0002229293
 Ca         0.0041253799        0.0033060146        0.0054358971
 Ca         0.0045438555        0.0095936051        0.0014082322
 Ca        -0.0012599940       -0.0071270090        0.0067283847
  S         0.0076466365       -0.0279227170       -0.0292339377
  S         0.0540795462        0.0503044230        0.0336347736
  S         0.0009843966       -0.0224671391        0.0076504378
  O        -0.0039400335        0.0325288628        0.0184205141
  O        -0.0015997731        0.0071226327        0.0100113944
  O        -0.0091364946        0.0105565459        0.0046428518
  O        -0.0098196779        0.0165989178        0.0059399972
  O         0.0116014086       -0.0363063925       -0.0166373986
  O        -0.0099722803        0.0021616372        0.0178863239
  O        -0.0015909665       -0.0093518181       -0.0000694317
  O        -0.0355024667       -0.0324780676       -0.0059987331
  O         0.0051001867       -0.0009915622        0.0007937815
  O        -0.0084064339       -0.0014765262       -0.0004299827
  O        -0.0324936255       -0.0026987832       -0.0226442726
  O         0.0020811200        0.0016210352       -0.0149269012
  S        -0.0031708255        0.0088085330        0.0141623182
  S        -0.0202101915        0.0564392779        0.0092245431
  S         0.0001190898        0.0039904507        0.0171053310
  O        -0.0018302131       -0.0016257375        0.0231245921
  O        -0.0019282424       -0.0085251019       -0.0188727777
  O        -0.0013419961        0.0030752238        0.0110622402
  O        -0.0012100164        0.0196469428       -0.0034567223
  O        -0.0028638758       -0.0248281677       -0.0028597908
  O         0.0051522191        0.0086901732       -0.0032139112
  O         0.0408206218       -0.0224878287       -0.0032699573
  O        -0.0198422411       -0.0373285184        0.0218935462
  O        -0.0034066612        0.0083772117       -0.0070333876
  O        -0.0244019829       -0.0036633832       -0.0167175504
  O        -0.0303017259        0.0024464627        0.0305799541
  O        -0.0004654247       -0.0176752534       -0.0115434951
  O        -0.0155952488        0.0182063969       -0.0067836098
  O         0.0265390095       -0.0222091696       -0.0348116190
  O         0.0147455008        0.0037624584       -0.0196561256
  H         0.0022030323       -0.0021250498        0.0042699349
  H         0.0032693927        0.0029099209       -0.0037175794
  H        -0.0050398854       -0.0175959799        0.0091802812
  H         0.0056411931       -0.0048539183        0.0020441020
  H        -0.0257386425        0.0219361333        0.0288197859
  H         0.0010373609       -0.0021409080       -0.0005791290
 Ca        -0.0053078925       -0.0028186929        0.0106835278
 Ca         0.0011359590       -0.0006242967        0.0027703741
 Ca        -0.0107295181        0.0238375846        0.0225003829
 Ca         0.0097226000       -0.0209447400       -0.0046721196
 Ca         0.0115694640       -0.0021058715       -0.0195673433
 Ca         0.0017839624       -0.0090296020       -0.0055400665
  S         0.0014261277        0.0088717310        0.0079838975
  S        -0.0193112083        0.0535222202       -0.0396943323
  S         0.0274677379       -0.0067723540        0.0316622381
  O         0.0071663154        0.0078865536        0.0033066663
  O         0.0019114027       -0.0006391096        0.0194234191
  O        -0.0130291478       -0.0060888518        0.0013147875
  O        -0.0051392949        0.0154716843        0.0082166732
  O         0.0033734666       -0.0112516143        0.0031675862
  O        -0.0070798335        0.0054722312       -0.0132018172
  O         0.0110462426        0.0037890229       -0.0131552756
  O        -0.0288784172       -0.0234276424        0.0028676173
  O         0.0010364871        0.0004153213       -0.0133563837
  O        -0.0113356101       -0.0211300162        0.0010347415
  O         0.0377066438       -0.0016665172        0.0286405753
  O         0.0094792560        0.0023882549       -0.0106893087
  S         0.0114886497        0.0477980342        0.0337729719
  S        -0.0428051840       -0.0105750991       -0.0040211128
  S        -0.0029257097        0.0097613235        0.0139745787
  O         0.0073375383       -0.0377496361        0.0090563246
  O         0.0099964908       -0.0110331034        0.0265203244
  O        -0.0032280167       -0.0023942266        0.0178914795
  O        -0.0101377387       -0.0030860073       -0.0069656351
  O         0.0167752304        0.0061232870        0.0137194282
  O         0.0013734793       -0.0135666582        0.0015744375
  O         0.0144059719       -0.0096572155       -0.0034116678
  O        -0.0048783442        0.0042587242       -0.0073636973
  O        -0.0031857565        0.0030475369       -0.0155458335
  O        -0.0332647993       -0.0248179531       -0.0202511158
  O         0.0021417991        0.0149741557        0.0221823564
  O        -0.0067449196        0.0029039137       -0.0145706218
  O         0.0212519973        0.0236515867       -0.0011919272
  O         0.0102758155       -0.0076989923        0.0190719465
  O        -0.0164709701        0.0173833231        0.0043327425
  H        -0.0090921920       -0.0076254281       -0.0008808273
  H        -0.0200756896        0.0173683924       -0.0112902784
  H        -0.0008617962        0.0008027732       -0.0006178169
  H        -0.0126738600       -0.0014339398        0.0032570520
  H         0.0184286671        0.0031119001       -0.0192008210
  H         0.0098287872       -0.0111904976        0.0001561508
 Ca        -0.0029156432        0.0074724671       -0.0117120949
 Ca        -0.0008732489       -0.0116192613       -0.0038554416
 Ca        -0.0057577012       -0.0196262324       -0.0025157786
 Ca        -0.0030691800        0.0018311374       -0.0002048700
 Ca        -0.0091995154       -0.0021475833       -0.0064440563
 Ca        -0.0071126223       -0.0008178638       -0.0079905817
  S         0.0329903388        0.0128678112        0.0092102917
  S        -0.0272692351       -0.0022455305       -0.0181624067
  S        -0.0224390219       -0.0110519143        0.0361144146
  O         0.0021875257        0.0093100956        0.0067242388
  O         0.0060900024       -0.0049123988        0.0256717647
  O         0.0109487826        0.0088178168       -0.0058157633
  O        -0.0085506967       -0.0021276844       -0.0120345510
  O        -0.0020226754       -0.0011115019       -0.0051300631
  O        -0.0133180572        0.0016177822        0.0159743993
  O        -0.0102154791       -0.0219006987        0.0046633144
  O        -0.0032901939        0.0034584320        0.0073957316
  O         0.0100223747       -0.0015239062        0.0017503033
  O        -0.0089283308       -0.0136866869        0.0104247341
  O         0.0157468841        0.0047866863       -0.0095606947
  O         0.0050575869       -0.0021892678       -0.0211677044
  S         0.0163935857        0.0342786786        0.0134012178
  S        -0.0265404580        0.0035831575       -0.0474912541
  S         0.0035672353       -0.0214775808       -0.0114317289
  O        -0.0157176501       -0.0277339916       -0.0107579767
  O         0.0078534357       -0.0293064725        0.0277032604
  O        -0.0058202098       -0.0174390233       -0.0225688712
  O        -0.0019183734       -0.0029522032        0.0120740114
  O         0.0210739959        0.0020594553        0.0113335138
  O        -0.0126467881        0.0320852777        0.0155118209
  O         0.0203959446       -0.0051073851        0.0130554668
  O         0.0045414704        0.0236218248       -0.0262520503
  O         0.0021052429        0.0006869784        0.0046606589
  O        -0.0093054223        0.0108955134       -0.0100064304
  O         0.0148024179       -0.0072857478       -0.0055076064
  O         0.0062818801        0.0116234779        0.0057858390
  O         0.0017103827        0.0219517562       -0.0068082355
  O         0.0235325298        0.0052643883        0.0011199922
  O        -0.0092093797        0.0226384503       -0.0079183518
  H        -0.0008906736       -0.0053575044        0.0027822912
  H         0.0042734394       -0.0205189583        0.0053902540
  H        -0.0046229527       -0.0006505576       -0.0026316512
  H         0.0058184664       -0.0164693575        0.0034622784
  H        -0.0018394904        0.0023371489        0.0013939585
  H         0.0088837222       -0.0182565489       -0.0044965942
     180
 i =       46, time =       23.000, E =     -2871.7403858171
 Ca        -0.0133778918        0.0088064406        0.0010109691
 Ca        -0.0043595463       -0.0087575237        0.0026688595
 Ca         0.0026487696        0.0047404521        0.0050988528
 Ca        -0.0117251253        0.0128883186       -0.0054419827
 Ca        -0.0143684439        0.0118960378       -0.0035992815
 Ca         0.0020375590        0.0098023180        0.0042066521
  S         0.0261891747       -0.0206526030        0.0133725477
  S        -0.0046136603       -0.0096903734        0.0089043826
  S        -0.0407317744       -0.0033407998       -0.0283509573
  O        -0.0266320852        0.0014421778       -0.0019144533
  O         0.0008587659       -0.0033401209       -0.0110224017
  O         0.0115335356        0.0201013474        0.0139865848
  O        -0.0059754027       -0.0064361625       -0.0063487459
  O        -0.0085899629        0.0128990983       -0.0000764771
  O         0.0179075011        0.0005933743       -0.0150028172
  O        -0.0111536530       -0.0085489584        0.0014473049
  O         0.0037714095        0.0187875849       -0.0131090114
  O         0.0252973116       -0.0182222408        0.0092364494
  O         0.0035022327        0.0155291874       -0.0041868130
  O         0.0249111195       -0.0096292722        0.0134724641
  O        -0.0207061341        0.0032543174       -0.0018892915
  S         0.0010601709       -0.0225669895        0.0014718769
  S         0.0453449321        0.0521950884       -0.0681267753
  S        -0.0109859421        0.0040528408       -0.0654365503
  O         0.0076219887        0.0024898384       -0.0072874894
  O         0.0005289774       -0.0213902085        0.0043726486
  O        -0.0008714703       -0.0138165002        0.0069841152
  O         0.0003558471        0.0008517772       -0.0121801070
  O         0.0009976332       -0.0204951780       -0.0146172550
  O         0.0112712642       -0.0015695336        0.0052597365
  O        -0.0031459165        0.0119150280       -0.0004096107
  O         0.0103028288       -0.0099028516        0.0008782993
  O         0.0099089847       -0.0053275156        0.0437249647
  O         0.0052582596       -0.0023474808        0.0211322734
  O         0.0060712563       -0.0113965818       -0.0114021729
  O         0.0102799957        0.0046486575        0.0045597168
  O         0.0258844835       -0.0202152644       -0.0242206021
  O         0.0082002873        0.0135197077       -0.0142222706
  O         0.0073987568        0.0042673100        0.0058779282
  H        -0.0157809637       -0.0047604592        0.0146406650
  H         0.0019552672        0.0078939126        0.0032782336
  H        -0.0025924281       -0.0062306240        0.0050461456
  H        -0.0052614346        0.0161139716        0.0027372534
  H        -0.0025643749       -0.0064465671        0.0081123109
  H         0.0017403900        0.0088866521       -0.0072484182
 Ca         0.0049884292       -0.0056720200       -0.0027437852
 Ca        -0.0021346899       -0.0046414195        0.0223493936
 Ca         0.0041909089       -0.0075629744        0.0004680106
 Ca         0.0044236097        0.0031366229        0.0052115863
 Ca         0.0043168162        0.0093817433        0.0012866716
 Ca        -0.0011560232       -0.0072059909        0.0070915107
  S         0.0072734866       -0.0285632538       -0.0289697736
  S         0.0496731866        0.0492776611        0.0330885923
  S        -0.0017306686       -0.0217603620        0.0075358752
  O        -0.0045369116        0.0339346118        0.0181029109
  O        -0.0009366618        0.0062249273        0.0096978338
  O        -0.0082523263        0.0100722241        0.0047596756
  O        -0.0089959532        0.0166972137        0.0066393951
  O         0.0120139287       -0.0361218416       -0.0167822510
  O        -0.0086734344        0.0024094557        0.0184445898
  O        -0.0091740541       -0.0125313985       -0.0005635596
  O        -0.0333085861       -0.0305649864       -0.0058602565
  O         0.0056031333       -0.0014192464        0.0008966466
  O        -0.0084765255       -0.0017533154       -0.0013552491
  O        -0.0316516973       -0.0032887315       -0.0222892162
  O         0.0015497168        0.0019340240       -0.0134374257
  S        -0.0040350406        0.0105074211        0.0151523926
  S        -0.0181774060        0.0564922469        0.0094965512
  S         0.0018905528        0.0042305973        0.0186830699
  O        -0.0009154564       -0.0011141945        0.0224868973
  O        -0.0019352879       -0.0078303645       -0.0187267378
  O        -0.0004975379        0.0037692641        0.0104895665
  O        -0.0021957126        0.0189528585       -0.0020600199
  O        -0.0041635391       -0.0249392082       -0.0036691818
  O         0.0047674178        0.0084611092       -0.0029001253
  O         0.0408550452       -0.0225478122       -0.0026069475
  O        -0.0209837803       -0.0405958541        0.0262703957
  O        -0.0044539308        0.0082420333       -0.0089936736
  O        -0.0240456352       -0.0042854591       -0.0173353323
  O        -0.0296358186        0.0037601271        0.0299250077
  O        -0.0005399465       -0.0172929691       -0.0122521624
  O        -0.0114331193        0.0182726277       -0.0084471502
  O         0.0245364057       -0.0219695547       -0.0313107364
  O         0.0140107135       -0.0038480996       -0.0149715175
  H         0.0020817846       -0.0024987737        0.0046063099
  H         0.0042298306        0.0022714084       -0.0043551428
  H        -0.0026960701       -0.0115084223        0.0046607140
  H         0.0123234394       -0.0022326416        0.0020870620
  H        -0.0253945477        0.0211566418        0.0273842190
  H        -0.0009354999       -0.0002696596       -0.0005084587
 Ca        -0.0052065690       -0.0028797281        0.0105810398
 Ca         0.0010999481       -0.0007512321        0.0025752342
 Ca        -0.0105604656        0.0244832634        0.0231162739
 Ca         0.0099297647       -0.0213874338       -0.0043535893
 Ca         0.0120717303       -0.0019981571       -0.0199871261
 Ca         0.0018527267       -0.0089701544       -0.0055663906
  S         0.0018525387        0.0107094850        0.0069305060
  S        -0.0179597916        0.0542413487       -0.0377496435
  S         0.0270078408       -0.0058353161        0.0314435961
  O         0.0076848444        0.0068834614        0.0039150648
  O         0.0024897853       -0.0011240824        0.0180757923
  O        -0.0128856498       -0.0059769472        0.0014057046
  O        -0.0053852060        0.0154137915        0.0084847034
  O         0.0030969727       -0.0107781717        0.0031795468
  O        -0.0061206356        0.0060300175       -0.0129097050
  O         0.0107780838        0.0035297961       -0.0129471799
  O        -0.0289806352       -0.0245650966        0.0031923050
  O         0.0004982938        0.0005136789       -0.0142656567
  O        -0.0118960778       -0.0211537484        0.0016350636
  O         0.0364514342       -0.0010631320        0.0277926254
  O         0.0089952847        0.0015639794       -0.0100454821
  S         0.0093521055        0.0465272188        0.0326309502
  S        -0.0439542773       -0.0125209919       -0.0037150016
  S        -0.0045680745        0.0107934641        0.0151759195
  O         0.0069730908       -0.0368829684        0.0100506398
  O         0.0100096704       -0.0126783679        0.0259407741
  O        -0.0031028355       -0.0021441202        0.0175361764
  O        -0.0095931687       -0.0024811562       -0.0075219415
  O         0.0175508065        0.0063656305        0.0135228289
  O         0.0024219592       -0.0149982348        0.0008518733
  O         0.0147207650       -0.0104030931       -0.0040675238
  O        -0.0052866270        0.0031319920       -0.0075973953
  O        -0.0039747064        0.0033344489       -0.0162682718
  O        -0.0317997745       -0.0244552077       -0.0182350405
  O         0.0023458322        0.0143682749        0.0219949084
  O        -0.0059930350        0.0032482409       -0.0150696549
  O         0.0280538733        0.0311276190       -0.0013847037
  O         0.0065474419       -0.0039280293        0.0218395796
  O        -0.0155849192        0.0180184785        0.0011196411
  H        -0.0159940691       -0.0104329499        0.0012589249
  H        -0.0177564127        0.0145445251       -0.0104287671
  H        -0.0012029814       -0.0006207936        0.0007004471
  H        -0.0125444018       -0.0060544380        0.0025276760
  H         0.0194172799        0.0019406679       -0.0216792711
  H         0.0089850316       -0.0101551963       -0.0001954591
 Ca        -0.0032384701        0.0078539070       -0.0115890821
 Ca        -0.0009208767       -0.0115406244       -0.0041945338
 Ca        -0.0059589335       -0.0196216996       -0.0025987831
 Ca        -0.0029848067        0.0021616658       -0.0003945885
 Ca        -0.0092891309       -0.0021889012       -0.0066396005
 Ca        -0.0073075082       -0.0010501364       -0.0078470305
  S         0.0356889034        0.0144876870        0.0108203396
  S        -0.0240339531       -0.0014357320       -0.0185847704
  S        -0.0208470599       -0.0121800669        0.0342119285
  O         0.0019929062        0.0094699032        0.0066337689
  O         0.0049718816       -0.0051738438        0.0254651774
  O         0.0112101883        0.0086638078       -0.0041248286
  O        -0.0101422953       -0.0028108360       -0.0139138244
  O        -0.0029169102       -0.0015113934       -0.0052538204
  O        -0.0127792487        0.0008968726        0.0161174406
  O        -0.0107088670       -0.0222930390        0.0038305394
  O        -0.0036347141        0.0037872569        0.0076305907
  O         0.0092961530       -0.0005673822        0.0015864341
  O        -0.0097977995       -0.0148420203        0.0076358964
  O         0.0147049025        0.0044775346       -0.0095148984
  O         0.0050017226       -0.0023647777       -0.0223014531
  S         0.0145615989        0.0324147168        0.0125059246
  S        -0.0266986425        0.0017384533       -0.0467242514
  S         0.0026709435       -0.0239034470       -0.0105477115
  O        -0.0148196023       -0.0247681883       -0.0097998031
  O         0.0083484194       -0.0293250802        0.0272087664
  O        -0.0056781869       -0.0209348314       -0.0223543544
  O        -0.0014936778       -0.0035851220        0.0127944162
  O         0.0209124004        0.0023712045        0.0102205189
  O        -0.0132383954        0.0329347775        0.0154401543
  O         0.0201854858       -0.0056840058        0.0131071787
  O         0.0052330381        0.0230977835       -0.0260075045
  O         0.0021921485        0.0004639041        0.0042378338
  O        -0.0093971312        0.0104215486       -0.0120866752
  O         0.0138561113       -0.0044895998       -0.0044719410
  O         0.0078779979        0.0129305535        0.0054486170
  O        -0.0187252890        0.0206497435        0.0054402885
  O         0.0244547318        0.0071418915        0.0025868177
  O        -0.0034762051        0.0146816429       -0.0091513152
  H         0.0190971754       -0.0011578264       -0.0103031464
  H         0.0029606974       -0.0187463170        0.0043790932
  H        -0.0048690707        0.0003701481       -0.0025077879
  H         0.0062742603       -0.0193049706        0.0044406806
  H        -0.0007833457        0.0011823141        0.0006429055
  H         0.0033633529       -0.0116616102       -0.0040358340
     180
 i =       47, time =       23.500, E =     -2871.7407074874
 Ca        -0.0137752697        0.0088186978        0.0010144713
 Ca        -0.0044010130       -0.0088495519        0.0025868631
 Ca         0.0029013466        0.0052433801        0.0049820128
 Ca        -0.0122478533        0.0132369462       -0.0052623473
 Ca        -0.0149027331        0.0121430067       -0.0037215562
 Ca         0.0019271008        0.0098446630        0.0044935494
  S         0.0255338448       -0.0230123003        0.0158256357
  S        -0.0034744806       -0.0095724077        0.0089562241
  S        -0.0403217947       -0.0042105702       -0.0306744369
  O        -0.0268230798        0.0030857031       -0.0031057833
  O         0.0013135392       -0.0027911616       -0.0113895931
  O         0.0124386954        0.0203604792        0.0159766363
  O        -0.0062001755       -0.0064536268       -0.0073896662
  O        -0.0078887221        0.0142126530        0.0009198810
  O         0.0189055639        0.0002230003       -0.0154234523
  O        -0.0110716148       -0.0079645441        0.0020545710
  O         0.0024983844        0.0172241799       -0.0133616976
  O         0.0242365011       -0.0178686369        0.0085678025
  O         0.0046177430        0.0162335676       -0.0034375395
  O         0.0246196480       -0.0091394840        0.0133252167
  O        -0.0198110446        0.0033052738       -0.0012170990
  S         0.0021402985       -0.0220745150        0.0026917108
  S         0.0453800788        0.0531291883       -0.0695720769
  S        -0.0122751273        0.0052128582       -0.0653824167
  O         0.0070547645        0.0005914553       -0.0073153571
  O         0.0021714613       -0.0214483555        0.0041740848
  O        -0.0015538590       -0.0148828258        0.0081309110
  O         0.0005325914        0.0009625508       -0.0123140898
  O         0.0000087939       -0.0203354473       -0.0156989106
  O         0.0116455863       -0.0018919336        0.0048842449
  O        -0.0033126999        0.0128727716       -0.0009658837
  O         0.0096073940       -0.0102665776        0.0022243479
  O         0.0104616420       -0.0054629520        0.0451390927
  O         0.0044422587       -0.0021211237        0.0199737834
  O         0.0069917330       -0.0118960947       -0.0120611455
  O         0.0097390778        0.0036733526        0.0078433637
  O         0.0271750602       -0.0175426898       -0.0258936265
  O         0.0096354346        0.0122452931       -0.0184666196
  O         0.0075590376        0.0108001987        0.0032219777
  H        -0.0189927026       -0.0056740472        0.0170730701
  H        -0.0001978316        0.0084786526        0.0036043253
  H        -0.0044295807       -0.0094128248        0.0074527565
  H        -0.0039658371        0.0139018210        0.0014342815
  H        -0.0026206447       -0.0043753734        0.0105853752
  H         0.0033071137        0.0055725243       -0.0075574042
 Ca         0.0049533639       -0.0059343526       -0.0024300056
 Ca        -0.0019036127       -0.0042591351        0.0222832815
 Ca         0.0039433692       -0.0078193482        0.0006574501
 Ca         0.0047823699        0.0029678409        0.0049566786
 Ca         0.0040883419        0.0091840711        0.0011718680
 Ca        -0.0010476583       -0.0072540812        0.0074348730
  S         0.0068140310       -0.0290030037       -0.0285499524
  S         0.0445163521        0.0475084203        0.0323907691
  S        -0.0044641929       -0.0208781365        0.0073565502
  O        -0.0050151813        0.0353368717        0.0176718571
  O        -0.0000080462        0.0051251832        0.0093071067
  O        -0.0072948889        0.0094273711        0.0047729670
  O        -0.0079863405        0.0166083053        0.0072256429
  O         0.0123613146       -0.0356254562       -0.0168702352
  O        -0.0075895789        0.0026098962        0.0188856808
  O        -0.0153221752       -0.0156435567       -0.0010811924
  O        -0.0307302494       -0.0281839423       -0.0056595234
  O         0.0061436865       -0.0018115597        0.0010309966
  O        -0.0084615379       -0.0019757222       -0.0021265223
  O        -0.0305369076       -0.0038263135       -0.0217824736
  O         0.0009237687        0.0023092543       -0.0119422819
  S        -0.0048718734        0.0121151461        0.0159244726
  S        -0.0158646260        0.0561134726        0.0095197238
  S         0.0036351428        0.0044493224        0.0201827620
  O         0.0000657913       -0.0006172907        0.0218877859
  O        -0.0019880240       -0.0070231950       -0.0185855135
  O         0.0004150840        0.0045045464        0.0096088825
  O        -0.0033965465        0.0177679765       -0.0006408902
  O        -0.0053916393       -0.0248205266       -0.0033100610
  O         0.0043971037        0.0081376994       -0.0025067534
  O         0.0406931051       -0.0223590390       -0.0030305197
  O        -0.0221011310       -0.0428983130        0.0295652019
  O        -0.0055554846        0.0079387824       -0.0108407264
  O        -0.0234362630       -0.0050245225       -0.0178539431
  O        -0.0288273172        0.0053869497        0.0291540011
  O        -0.0006785998       -0.0167908495       -0.0127763793
  O        -0.0071085334        0.0182131997       -0.0105657735
  O         0.0193950758       -0.0205432171       -0.0233869031
  O         0.0126027532       -0.0128831481       -0.0090598484
  H         0.0020115323       -0.0028340809        0.0048164442
  H         0.0048861262        0.0016394047       -0.0048073509
  H         0.0001588140       -0.0038975373       -0.0010101213
  H         0.0175127966        0.0003682976        0.0019933658
  H        -0.0217429011        0.0193962550        0.0217547668
  H        -0.0028153301        0.0014720146       -0.0004685690
 Ca        -0.0050535354       -0.0029288607        0.0104497848
 Ca         0.0010644646       -0.0009111042        0.0023637742
 Ca        -0.0103179466        0.0250581266        0.0237144258
 Ca         0.0100990231       -0.0218408474       -0.0040110669
 Ca         0.0124695026       -0.0019622909       -0.0203445644
 Ca         0.0019287676       -0.0089015761       -0.0055945083
  S         0.0022103647        0.0125027273        0.0059137201
  S        -0.0162096544        0.0543633535       -0.0353517173
  S         0.0262560127       -0.0050243447        0.0309521173
  O         0.0081888214        0.0057874730        0.0045209412
  O         0.0030762745       -0.0014936520        0.0166522852
  O        -0.0126816294       -0.0056672391        0.0010010756
  O        -0.0056337587        0.0153380089        0.0087295369
  O         0.0027239903       -0.0102276760        0.0032490975
  O        -0.0048530916        0.0064308255       -0.0126962675
  O         0.0106188811        0.0031937314       -0.0127121636
  O        -0.0289296761       -0.0252971657        0.0032166440
  O         0.0000026901        0.0004905682       -0.0150840831
  O        -0.0123383284       -0.0210916931        0.0021731328
  O         0.0344807503       -0.0004527315        0.0264373676
  O         0.0085514259        0.0009405374       -0.0092186231
  S         0.0068891805        0.0447621076        0.0310844632
  S        -0.0446257836       -0.0144066602       -0.0033291607
  S        -0.0062192840        0.0117581650        0.0162379132
  O         0.0068163184       -0.0356330937        0.0110193105
  O         0.0099541785       -0.0140095254        0.0252922719
  O        -0.0029674414       -0.0017327627        0.0169744199
  O        -0.0090341642       -0.0018706564       -0.0080768746
  O         0.0182011807        0.0065015854        0.0132112776
  O         0.0035133612       -0.0163889270        0.0002721945
  O         0.0149862578       -0.0110148935       -0.0042248082
  O        -0.0053816645        0.0017620808       -0.0080985930
  O        -0.0048572033        0.0038241942       -0.0169141212
  O        -0.0300543562       -0.0240280041       -0.0159091269
  O         0.0026326432        0.0136330188        0.0215912824
  O        -0.0052097774        0.0036678409       -0.0155139376
  O         0.0327504957        0.0378443073       -0.0013506220
  O         0.0025334245       -0.0000136150        0.0228008314
  O        -0.0137634650        0.0172223686       -0.0010195880
  H        -0.0211004795       -0.0129161267        0.0028294799
  H        -0.0141500942        0.0110695810       -0.0090402385
  H        -0.0014252456       -0.0019479924        0.0019184416
  H        -0.0121850052       -0.0101650836        0.0018126428
  H         0.0192314501        0.0009760919       -0.0227882369
  H         0.0071796113       -0.0078172969       -0.0005854458
 Ca        -0.0035423337        0.0082473130       -0.0114663155
 Ca        -0.0009815108       -0.0114176128       -0.0045360864
 Ca        -0.0062064851       -0.0195459453       -0.0026096153
 Ca        -0.0029009968        0.0024729412       -0.0005814599
 Ca        -0.0094010654       -0.0022550113       -0.0067843332
 Ca        -0.0074725479       -0.0012774022       -0.0076872381
  S         0.0381685832        0.0160312237        0.0123410211
  S        -0.0206123494       -0.0006178454       -0.0188152833
  S        -0.0190250897       -0.0133753533        0.0320647949
  O         0.0018780596        0.0096614418        0.0063495653
  O         0.0037741511       -0.0052482105        0.0250059741
  O         0.0110877250        0.0086420110       -0.0023879543
  O        -0.0114821941       -0.0034127252       -0.0158537225
  O        -0.0037929587       -0.0019287306       -0.0053071228
  O        -0.0122234227        0.0003090485        0.0162565246
  O        -0.0112183165       -0.0224756190        0.0030234797
  O        -0.0040496626        0.0040328147        0.0077994524
  O         0.0085230361        0.0005888016        0.0012471210
  O        -0.0104923421       -0.0156202587        0.0052344783
  O         0.0135026087        0.0041327909       -0.0095623386
  O         0.0050896641       -0.0022259601       -0.0239335631
  S         0.0125943116        0.0301221317        0.0114080093
  S        -0.0266113692       -0.0000585971       -0.0454584570
  S         0.0017195355       -0.0261352880       -0.0095685884
  O        -0.0138078299       -0.0215842001       -0.0087984766
  O         0.0087243506       -0.0286488351        0.0265485377
  O        -0.0053136478       -0.0243384052       -0.0220464984
  O        -0.0009824366       -0.0045699689        0.0137098081
  O         0.0205848145        0.0026302568        0.0092442307
  O        -0.0136860712        0.0336691634        0.0152611305
  O         0.0197703116       -0.0061801334        0.0126678668
  O         0.0058573822        0.0226903718       -0.0255706498
  O         0.0021948865        0.0002090205        0.0037308923
  O        -0.0092937951        0.0099698701       -0.0132408930
  O         0.0130915118       -0.0011620070       -0.0031940183
  O         0.0094911033        0.0149228131        0.0053587824
  O        -0.0390756288        0.0174616758        0.0179712868
  O         0.0254715971        0.0088838816        0.0044790224
  O         0.0024665181        0.0061777568       -0.0104003948
  H         0.0396238092        0.0034619455       -0.0236752514
  H         0.0011931612       -0.0165451743        0.0030392144
  H        -0.0050431770        0.0013743665       -0.0024177210
  H         0.0061487333       -0.0208402091        0.0053833968
  H         0.0004615210       -0.0000685772       -0.0002244660
  H        -0.0024538875       -0.0044975999       -0.0034352552
