     284
 i =        1, E =     -3436.8134580134
 Ca         0.2048809396        1.8120081726        7.8672439585
 Ca         4.5511248122        5.4513454633        9.1263578412
 Ca         9.4902495636        0.9620205242        6.1174179617
 Ca        11.1458374018        4.6115069377        7.4272502656
 Ca         3.0424771138        0.3685187883        5.8600372981
 Ca         6.5753379920        2.0305409360        8.8317674351
  S         3.4386705751        1.9494077631        9.1423498063
  S         7.7377621081        5.3236489779        9.2815634590
  S        12.2028989543       13.5191888779        5.3107394551
  O         4.4401873882        0.7906036025        9.4045509157
  O         8.9001343939        5.5406379504        8.3902493142
  O        13.3719340264        0.6122944120        5.4184991833
  O         2.6026251013        1.5962119360        7.9177922123
  O         6.9416451015        6.5831205588        9.4063347273
  O        11.3590390183        7.2434674254        6.9263756611
  O         1.8156266018        4.8841252284        5.6646510610
  O         6.7955713854        4.3325212980        8.6656689975
  O        11.1388348123        0.2355678992        4.4759083973
  O         4.3323617963        3.1462150503        8.8700520423
  O         8.1480134343        4.8511922131       10.6143001241
  O        12.6161980105        5.5151808755        5.7439062212
  S         1.4572392240        5.2803139320        9.0468874426
  S         5.9757004420        0.5390359864        5.7942907151
  S        10.2122373751        1.8233129540        9.3518889308
  O         0.6870648292        4.0108016349        8.8462777368
  O         5.0829876973        0.8188051393        4.6565733850
  O         9.7017884658        5.1382505545        5.7358053723
  O         2.4012729690        5.5151888107        7.9141306958
  O         6.1465076474        1.7818266886        6.6124744544
  O        10.9597948006        0.4886310278        9.2003214341
  O         0.4182968666        6.3570720402        9.0641049640
  O         4.8267012101        6.3488172978        7.0059536071
  O         8.9982104831        1.9286611864        8.4034105572
  O         2.2761677121        5.2395649955       10.2630052646
  O         6.8527644941        6.2087376188        5.6326927211
  O        11.2130568664        2.9581078853        9.1874915126
  O         2.9356132445        2.5313024443        4.9969507551
  O         8.4740048040        2.9174243938        5.4934665872
  O        11.3317006515        2.5280184202        6.4283578086
  H         3.8330272698        2.7457062986        4.7025379941
  H         8.8869876139        3.8533573438        5.5829286569
  H        11.6917900208        2.6133377136        5.5289148515
  H         2.5087127828        3.3960844433        5.2356932594
  H         7.5257470562        2.9930721688        5.6846822396
  H        10.1679566736        5.2022330600        4.8889597662
 Ca         0.1294742211        8.7824006761        8.3615441690
 Ca         4.6858844389       12.3667252630        8.6737078176
 Ca         8.8893225065        7.1105350041        6.4618327184
 Ca        10.9790520396       12.0990072040        8.5249989667
 Ca         2.6597116515        7.0783603331        6.0103542502
 Ca         6.5055124704        8.8914550833        9.0063320799
  S         3.4634365366        8.9366312634        9.2490129549
  S         7.8963519505       12.3684007266        8.6392095051
  S        12.2007243103        6.9290738131        5.6685027481
  O         4.4023080029        7.7908085320        9.6233891075
  O         8.7791997516       12.7631397692        7.5293906170
  O        13.4325078873        7.7974785122        5.8386090215
  O         2.4922861871        8.5220528860        8.1594415707
  O         7.0453019372       13.5067028290        9.0972877834
  O        11.6327779967       13.4518279527        6.7195934737
  O         2.3516389670       12.0313411901        4.9654257509
  O         6.9591308186       11.2675607854        8.2699662872
  O        11.4669926075        7.2642232740        4.4743403172
  O         4.3973674652       10.0605051132        8.7548191302
  O         8.7948895964       11.9000107172        9.7373019127
  O        12.6736250161       12.2161969917        4.8563253274
  S         1.5649126511       12.3265791166        8.8284461787
  S         5.7530173745        7.0712069967        6.0770119534
  S         9.9883976813        8.7455619925        9.5463756330
  O         0.7181944739       11.1042986504        8.7242403829
  O         4.9029934558        7.5644926815        4.9814157725
  O        10.5536680592       10.8839155268        6.4582144934
  O         2.4381300693       12.4890593792        7.6235516734
  O         6.3801814511        8.2281627412        6.8159118230
  O        10.5924740100        7.4845688738       10.0917828553
  O         0.6038125544       13.4669137290        8.9448458580
  O         5.2067098252       13.3981062395        6.6486901179
  O         8.8213378831        8.5864146282        8.5664342711
  O         2.4779261244       12.2571689444        9.9817027086
  O         7.2878458589        0.0329583045        5.4030037815
  O        11.0212227093        9.7986183390        9.0895223207
  O         2.8656770399        9.2930924643        5.0563301324
  O         8.6820377696        9.2939996595        5.5658847120
  O        11.6673370253       10.1234625042        6.1049057968
  H         3.7877902147        9.3445565415        4.7592556651
  H         9.3196692424        9.9839255118        5.8989879139
  H        14.6770280962       11.8652172694        6.4922131307
  H         2.5078119736       10.2040428686        5.0384546610
  H         7.8059367382        9.6367110457        5.8016099371
  H        12.1333850860       10.7812783910        5.5022421087
 Ca        12.9509051821        1.4932855531        7.7022146074
 Ca        17.6090812988        5.1349643366        8.2902940332
 Ca        22.0954202224        0.1787904521        5.5470035001
 Ca        23.9410139080        5.0254488459        8.1931065663
 Ca        15.7151781578        0.2947385916        5.1953798500
 Ca        19.3716307534        1.4770820742        8.4250232652
  S        16.2485451717        1.7262625305        8.4490127183
  S        20.7557770033        5.1043633104        8.5413974050
  S        25.1038002741       13.5150181850        5.6451132309
  O        17.0764598696        0.4661839664        8.7605136105
  O        21.4692851316        5.4368790047        7.2735122283
  O         0.7382704852        0.6072279630        5.8515196942
  O        15.4490112627        1.5417094255        7.1754610169
  O        19.8015074831        6.2076456518        8.9065207789
  O        24.3192755591        6.1772396591        6.1828152932
  O        15.3982244063        5.2077905792        4.7668217131
  O        19.8703646514        3.9121400926        8.3501576249
  O        24.3129318412        0.0415303140        4.4734489215
  O        17.2862386386        2.8544880051        8.3067954936
  O        21.7839218610        4.8999437044        9.5626317324
  O         0.4887210852        6.4851805924        4.3997263933
  S        14.4784835787        4.9557822697        8.3026308578
  S        18.7472645201        0.4208938926        5.1889806634
  S        22.5227745037        1.7290424105        8.9514636515
  O        13.8329986053        3.6876647166        7.9403960920
  O        17.9128338408        0.9335476802        4.0827566604
  O        22.8319616403        4.7300016708        4.9474467336
  O        15.4033024519        5.4229368146        7.2276700976
  O        19.1630467353        1.5428300010        6.0867055363
  O        23.2677121889        0.5108482178        9.5130910223
  O        13.3963495741        5.9386640227        8.5497971008
  O        17.9805050185        6.0835820543        6.2733320123
  O        21.6722613322        1.3145530649        7.7562207722
  O        15.3555133411        4.8016910454        9.5100747449
  O        19.8270063470        6.2650486627        4.6514120860
  O        23.6056511300        2.7052269316        8.4720652297
  O        15.7973826143        2.5379127972        4.2844940647
  O        21.6199171009        2.3579632648        4.8449621247
  O        25.0790714327        3.5652638672        6.3232800039
  H        16.7355660784        2.5896578784        4.0339680490
  H        22.1228981952        3.2103424445        4.8629971275
  H         0.3558596592        4.1101544970        6.0165709338
  H        15.5399580492        3.4607443285        4.5019513395
  H        20.7247006532        2.5326052426        5.1896753271
  H        24.3798475075        3.7019934512        5.6481684573
 Ca        12.9487443877        8.8963633845        7.8824700442
 Ca        17.2316147363       12.0900303974        7.8975116278
 Ca        21.9871390646        6.9008333763        5.4992412404
 Ca        23.7140414923       12.2050328485        8.7894125384
 Ca        15.7499473939        7.4102561088        5.7194308872
 Ca        19.4379828446        8.5497457404        8.5546368440
  S        16.4042348539        8.7376319640        8.8659348482
  S        20.6445689309       11.9084961564        7.9889868162
  S        25.0749965566        7.1517185078        5.3139271941
  O        17.2571669937        7.4675625785        9.1688564225
  O        21.7449216697       12.2394327400        7.0355019400
  O         0.3948079296        8.0023981450        6.2417384137
  O        15.3333895810        8.3860645577        7.8537014820
  O        19.6248692162       12.9744147509        7.9878125463
  O        24.1985473033       13.7001535479        6.8603194755
  O        15.5879478795       12.0585818588        6.2141955705
  O        19.9795445321       10.6478809545        7.5599963292
  O        24.0488636031        7.9493625878        4.6331798514
  O        17.4092657335        9.7113678550        8.2410344959
  O        21.3200268247       11.7559681323        9.2925352950
  O         0.0824310083       12.1315023957        5.6056569026
  S        13.9335006435       12.0963093614        9.0957954853
  S        18.8508208653        7.0018758883        5.4594124727
  S        22.9155917257        8.1821135088        9.6079182587
  O        13.3381166096       11.2440653444        7.9888746639
  O        17.9096706681        7.8059416607        4.6641712392
  O        22.5980548288       11.6768499210        4.8403513654
  O        15.3131160781       11.6604150424        9.3822275833
  O        19.6379519009        7.8672622013        6.4027215545
  O        23.4974434861        7.3867258456        8.4278031456
  O        13.9420128528       13.5032618370        8.6456890201
  O        17.8583040223       13.3428031843        5.9600080519
  O        21.5898554596        8.7931580938        9.2384040457
  O        13.0103994591       11.9415415037       10.2339260640
  O        19.9562622121       13.5836176637        4.7169500119
  O        23.9609771290        9.2627783918        9.9568625982
  O        15.9977428893        9.6709878579        5.1717387270
  O        21.8883243966        9.3217162843        5.7464872155
  O        24.1253315911       10.3677223381        7.1276762119
  H        16.8702853532        9.7128248325        4.7546846947
  H        22.1873633974       10.0361986120        5.1288226250
  H        24.6094583426       10.8488273975        6.4089949709
  H        15.8320092018       10.6067930119        5.5374558213
  H        21.1032111072        9.7097805382        6.1821747386
  H        23.3367714089        9.9636602096        6.6932472048
  O         7.1202241415       13.1621707395       14.8989906085
  H         9.8700375717        1.7215261101       18.6222584055
  H         7.4692942875       13.4055655962       15.7852593267
  O        13.3407457955       10.9169687843       15.0868835831
  H        14.0311363073       11.4742174557       15.5286395292
  H        13.4498312726       10.0323535206       15.4543310484
  O        17.0953612601       13.4301066369       14.2918186615
  H        17.8688148288       13.1339955207       13.7225979557
  H        16.8424731127        0.4064639613       13.8669548183
  O         8.8082994119        0.2165797339       11.8935922476
  H         8.6416343724       13.1424500772       12.2435151778
  H         9.4807710288        0.0794113033       11.2096338871
  O         8.4410098328       11.6842621068       13.0756332881
  H         7.9930653661       12.1140348754       13.8535834052
  H         9.3750906887       11.5803270396       13.3972030336
  O        23.6437607879       11.6020191422       11.1305609761
  H        22.7244643494       11.6145798363       11.5433370139
  H        23.7691787115       10.6326594552       11.0012654520
  O        16.8571477550       10.2054738288       11.5257291338
  H        16.4207855985        9.9082942814       10.7019450760
  H        17.7608376619       11.3829772939       10.8526266570
  O        11.0636706818        3.3836458694       15.4261876342
  H        11.3612015471        3.2552770656       16.3388931782
  H        10.0864870617        3.4437667205       15.5583932154
  O         5.3665428090        4.8995994022       11.3442364417
  H         4.9641647481        5.1215451133       12.1920518105
  H         6.3330893567        5.0268414568       11.4410226349
  O        13.2355659365        7.9256527382       10.1366631448
  H        12.3015649712        7.8853692148       10.4544021693
  H        13.3264818185        7.0546895531        9.6473528411
  O         4.6380468934       12.6591386469       13.9813901144
  H         4.9462963948       12.7840363611       13.0646143183
  H         5.4680308496       12.7409755478       14.5071356097
  O        22.1752042823        0.3846011909       12.0108579853
  H        21.2071669124        0.4322740846       11.9403385888
  H        22.4894103013        0.3748153712       11.0819245859
  O        21.1378466687       11.1244037872       11.8995632087
  H        20.5017550024       11.7077949843       12.3638626156
  H        20.8806133784       11.2628764948       10.9663376624
  O         7.2444584255        2.2347608586       11.0858273038
  H         7.7337022474        3.0874081376       11.1243324626
  H         7.8475287974        1.5237773085       11.4333714099
  O        24.2167615526        1.3317030999       13.3309664909
  H        24.0044485805        1.9290233936       14.0582454498
  H        23.3388938872        1.1227107388       12.8984565827
  O        15.3133436705       12.4884928228       15.9819635049
  H        15.7396979605       12.5122436500       16.8454587557
  H        16.0310309617       12.7648688722       15.3481726000
  O        24.9040674935       12.5079516574       13.4653876721
  H        24.4647374644       12.1953500492       12.6444044125
  H        24.6125670254       13.4447551839       13.5387327016
  O         7.1766138886       10.1151998061       10.9627085098
  H         7.8252707914       10.8074967630       10.6703846695
  H         7.3355203517       10.0923536672       11.9224362484
  O        11.0148975566       11.9386700977       13.8544153492
  H        10.9323229837       12.8846386231       14.1912745277
  H        11.7717773791       11.5463628609       14.3312532521
  O         5.2297167676       12.8840262731       11.1512150257
  H         4.8196301549       13.7293859258       10.8399542825
  H         6.1805495780       13.0524499167       11.0196207174
  N        10.2559429575        0.6113438556       14.5519473691
  H        10.8503987481        1.4282105896       14.7431463041
  H         9.6153272559        0.4312352862       15.3330458953
  H         9.7292902916        0.7204895004       13.6788251813
  N         3.5452103392       10.4693694041       12.0706281659
  H         3.8360043111        9.7931344557       12.7693036597
  H         4.3673762129       10.9795586311       11.7550035494
  H         3.1366278779        9.9873121197       11.2688157618
  N         1.2204647577        1.1129811868       11.4911815675
  H         1.8344432596        1.8172175197       11.0847926521
  H         0.4802867246        1.5567849985       12.0339718646
  H         0.7883938889        0.5909198397       10.7288547096
  N         2.0739015045       12.7108126773       12.9911504978
  H         2.4946337623       11.8776267520       12.5073504930
  H         2.7256444996       12.9221098251       13.7539840773
  H         1.0949634069       12.5122888032       13.3042496752
  H         1.9844940504       13.5388510171       12.3509268135
  N         6.5514226545        1.8034490601       14.0536187797
  H         6.5187616748        2.0340011350       13.0625745736
  H         7.2165691398        2.4230566863       14.5288013663
  H         6.9550333698        0.2333924636       14.5077522618
  H         5.6361547739        1.9848177583       14.4558628090
  N        15.4696311137        6.8102209547       11.3156107810
  H        16.3155158637        7.2492403328       10.9185306538
  H        15.3244320981        5.9229805505       10.7663787671
  H        14.6442522318        7.4243146151       11.1137969645
  H        15.5698267775        6.6460792199       12.3134733049
  N        14.9031764370       11.6796280677       12.5331488612
  H        14.4077087597       11.3356966654       13.3560857072
  H        14.2207585806       11.8794690024       11.7974675306
  H        16.0729936663       10.7423740440       11.9501158338
  H        15.4060884331       12.5324710722       12.7751106342
  P         8.3563137855        2.1294967861       17.1562944885
  O         9.7234994482        2.4262339503       17.9750690374
  O         8.2496225804        0.6554969677       16.9518152224
  O         8.3868963690        3.0777435837       15.9974310083
  O         7.1701389895        2.5616648230       18.1545089166
  H         7.0717161282        3.5247507149       18.1139215360
  P        18.5497814390       13.3690277956       11.2533504695
  O        19.4221620377        0.4820941106       10.5047452578
  O        19.0341705459       12.9185840097       12.5989198225
  O        18.2673277745       12.0884240533       10.3135920989
  O        17.0915614651        0.1559129650       11.4778309750
  H        16.7358217187        0.3714759318       10.5909977158
