284
Lattice="25.513 0.0 0.0 0.0 13.8536 0.0 0.0 0.0 42.03388919086926" Properties=species:S:1:pos:R:3 pbc="T T F"
Ca         0.0000000000       1.5481398000       6.8170241700
Ca         4.2521666700       5.0080764000       6.1751542000
Ca         8.5043333300       0.3705838000       3.4936974100
Ca        10.7792425000       5.1292954000       6.2651359700
Ca         2.2749091700       0.2320478000       3.5536852500
Ca         6.5270758300       1.5654568000       6.6670545500
S          3.3294465000       1.5550666000       6.8290217400
S          7.5816131700       4.9942228000       6.1751542000
S         11.8337798300       0.3775106000       3.4816998400
O          4.0182975000       0.2424380000       6.9789913600
O          8.2704641700       5.5206596000       4.9633996700
O         12.5226308300       1.1637024000       4.5434847400
O          2.2323875000       1.4442378000       5.8572186100
O          6.4845541700       5.8912434000       6.5650752100
O         10.7367208300       6.5181188000       4.0635819600
O          2.5895695000       5.2747582000       2.0779842000
O          6.8417361700       3.7854962000       5.7732356200
O         11.0939028300       1.3299456000       2.6358711900
O          4.1586190000       2.7326226000       6.5770727800
O          8.4107856700       4.6236390000       7.3209220900
O         12.6629523300       6.4973384000       2.5878809100
S          1.1735980000       4.9665156000       6.2351420500
S          5.4257646700       0.3394132000       3.4277107700
S          9.6779313300       1.6208712000       6.8230229500
O          0.3189125000       3.8201302000       5.8692161700
O          4.5710791700       1.2295070000       2.6178748300
O          8.8232458300       5.3405628000       2.0000000000
O          2.0410400000       5.4271478000       5.1373644300
O          6.2932066700       1.0598004000       4.3755187700
O         10.5453733300       0.4398518000       6.9729925700
O          0.1403215000       6.0193892000       6.3911104500
O          4.3924881700       6.6047038000       4.2615418600
O          8.6446548300       1.2295070000       5.8332234700
O          2.0410400000       4.7344678000       7.4289002100
O          6.2932066700       6.3484122000       2.6298724000
O         10.5453733300       2.7707200000       6.4271031600
O          2.4875175000       2.6529644000       3.6316694600
O          6.7396841700       3.7508622000       2.7258529600
O         10.9918508300       3.9863734000       4.1295685900
H          3.4442550000       2.5906232000       4.0515843900
H          7.6964216700       3.4183758000       2.4619064300
H         11.9485883300       4.3812010000       3.9736001900
H          2.7936735000       3.3317908000       2.9238128500
H          7.0458401700       4.0244708000       3.6676621700
H         11.2980068300       3.0339384000       3.8956159900
Ca         0.0000000000       8.4749398000       6.8170241700
Ca         4.2521666700      11.9348764000       6.1751542000
Ca         8.5043333300       7.2973838000       3.4936974100
Ca        10.7792425000      12.0560954000       6.2651359700
Ca         2.2749091700       7.1588478000       3.5536852500
Ca         6.5270758300       8.4922568000       6.6670545500
S          3.3294465000       8.4818666000       6.8290217400
S          7.5816131700      11.9210228000       6.1751542000
S         11.8337798300       7.3043106000       3.4816998400
O          4.0182975000       7.1692380000       6.9789913600
O          8.2704641700      12.4474596000       4.9633996700
O         12.5226308300       8.0905024000       4.5434847400
O          2.2323875000       8.3710378000       5.8572186100
O          6.4845541700      12.8180434000       6.5650752100
O         10.7367208300      13.4449188000       4.0635819600
O          2.5895695000      12.2015582000       2.0779842000
O          6.8417361700      10.7122962000       5.7732356200
O         11.0939028300       8.2567456000       2.6358711900
O          4.1586190000       9.6594226000       6.5770727800
O          8.4107856700      11.5504390000       7.3209220900
O         12.6629523300      13.4241384000       2.5878809100
S          1.1735980000      11.8933156000       6.2351420500
S          5.4257646700       7.2662132000       3.4277107700
S          9.6779313300       8.5476712000       6.8230229500
O          0.3189125000      10.7469302000       5.8692161700
O          4.5710791700       8.1563070000       2.6178748300
O          8.8232458300      12.2673628000       2.0000000000
O          2.0410400000      12.3539478000       5.1373644300
O          6.2932066700       7.9866004000       4.3755187700
O         10.5453733300       7.3666518000       6.9729925700
O          0.1403215000      12.9461892000       6.3911104500
O          4.3924881700      13.5315038000       4.2615418600
O          8.6446548300       8.1563070000       5.8332234700
O          2.0410400000      11.6612678000       7.4289002100
O          6.2932066700      13.2752122000       2.6298724000
O         10.5453733300       9.6975200000       6.4271031600
O          2.4875175000       9.5797644000       3.6316694600
O          6.7396841700      10.6776622000       2.7258529600
O         10.9918508300      10.9131734000       4.1295685900
H          3.4442550000       9.5174232000       4.0515843900
H          7.6964216700      10.3451758000       2.4619064300
H         11.9485883300      11.3080010000       3.9736001900
H          2.7936735000      10.2585908000       2.9238128500
H          7.0458401700      10.9512708000       3.6676621700
H         11.2980068300       9.9607384000       3.8956159900
Ca        12.7565000000       1.5481398000       6.8170241700
Ca        17.0086666700       5.0080764000       6.1751542000
Ca        21.2608333300       0.3705838000       3.4936974100
Ca        23.5357425000       5.1292954000       6.2651359700
Ca        15.0314091700       0.2320478000       3.5536852500
Ca        19.2835758300       1.5654568000       6.6670545500
S         16.0859465000       1.5550666000       6.8290217400
S         20.3381131700       4.9942228000       6.1751542000
S         24.5902798300       0.3775106000       3.4816998400
O         16.7747975000       0.2424380000       6.9789913600
O         21.0269641700       5.5206596000       4.9633996700
O         25.2791308300       1.1637024000       4.5434847400
O         14.9888875000       1.4442378000       5.8572186100
O         19.2410541700       5.8912434000       6.5650752100
O         23.4932208300       6.5181188000       4.0635819600
O         15.3460695000       5.2747582000       2.0779842000
O         19.5982361700       3.7854962000       5.7732356200
O         23.8504028300       1.3299456000       2.6358711900
O         16.9151190000       2.7326226000       6.5770727800
O         21.1672856700       4.6236390000       7.3209220900
O         25.4194523300       6.4973384000       2.5878809100
S         13.9300980000       4.9665156000       6.2351420500
S         18.1822646700       0.3394132000       3.4277107700
S         22.4344313300       1.6208712000       6.8230229500
O         13.0754125000       3.8201302000       5.8692161700
O         17.3275791700       1.2295070000       2.6178748300
O         21.5797458300       5.3405628000       2.0000000000
O         14.7975400000       5.4271478000       5.1373644300
O         19.0497066700       1.0598004000       4.3755187700
O         23.3018733300       0.4398518000       6.9729925700
O         12.8968215000       6.0193892000       6.3911104500
O         17.1489881700       6.6047038000       4.2615418600
O         21.4011548300       1.2295070000       5.8332234700
O         14.7975400000       4.7344678000       7.4289002100
O         19.0497066700       6.3484122000       2.6298724000
O         23.3018733300       2.7707200000       6.4271031600
O         15.2440175000       2.6529644000       3.6316694600
O         19.4961841700       3.7508622000       2.7258529600
O         23.7483508300       3.9863734000       4.1295685900
H         16.2007550000       2.5906232000       4.0515843900
H         20.4529216700       3.4183758000       2.4619064300
H         24.7050883300       4.3812010000       3.9736001900
H         15.5501735000       3.3317908000       2.9238128500
H         19.8023401700       4.0244708000       3.6676621700
H         24.0545068300       3.0339384000       3.8956159900
Ca        12.7565000000       8.4749398000       6.8170241700
Ca        17.0086666700      11.9348764000       6.1751542000
Ca        21.2608333300       7.2973838000       3.4936974100
Ca        23.5357425000      12.0560954000       6.2651359700
Ca        15.0314091700       7.1588478000       3.5536852500
Ca        19.2835758300       8.4922568000       6.6670545500
S         16.0859465000       8.4818666000       6.8290217400
S         20.3381131700      11.9210228000       6.1751542000
S         24.5902798300       7.3043106000       3.4816998400
O         16.7747975000       7.1692380000       6.9789913600
O         21.0269641700      12.4474596000       4.9633996700
O         25.2791308300       8.0905024000       4.5434847400
O         14.9888875000       8.3710378000       5.8572186100
O         19.2410541700      12.8180434000       6.5650752100
O         23.4932208300      13.4449188000       4.0635819600
O         15.3460695000      12.2015582000       2.0779842000
O         19.5982361700      10.7122962000       5.7732356200
O         23.8504028300       8.2567456000       2.6358711900
O         16.9151190000       9.6594226000       6.5770727800
O         21.1672856700      11.5504390000       7.3209220900
O         25.4194523300      13.4241384000       2.5878809100
S         13.9300980000      11.8933156000       6.2351420500
S         18.1822646700       7.2662132000       3.4277107700
S         22.4344313300       8.5476712000       6.8230229500
O         13.0754125000      10.7469302000       5.8692161700
O         17.3275791700       8.1563070000       2.6178748300
O         21.5797458300      12.2673628000       2.0000000000
O         14.7975400000      12.3539478000       5.1373644300
O         19.0497066700       7.9866004000       4.3755187700
O         23.3018733300       7.3666518000       6.9729925700
O         12.8968215000      12.9461892000       6.3911104500
O         17.1489881700      13.5315038000       4.2615418600
O         21.4011548300       8.1563070000       5.8332234700
O         14.7975400000      11.6612678000       7.4289002100
O         19.0497066700      13.2752122000       2.6298724000
O         23.3018733300       9.6975200000       6.4271031600
O         15.2440175000       9.5797644000       3.6316694600
O         19.4961841700      10.6776622000       2.7258529600
O         23.7483508300      10.9131734000       4.1295685900
H         16.2007550000       9.5174232000       4.0515843900
H         20.4529216700      10.3451758000       2.4619064300
H         24.7050883300      11.3080010000       3.9736001900
H         15.5501735000      10.2585908000       2.9238128500
H         19.8023401700      10.9512708000       3.6676621700
H         24.0545068300       9.9607384000       3.8956159900
O          3.6448143600      13.4600290400      21.7670832800
H          4.4537828100      13.1878343400      21.3338259400
H          3.8582489200      13.4531069600      22.7001586300
O         15.3646915000       9.2112505300      23.8998292000
H         15.8849185400      10.0034775100      24.0338891900
H         15.7759363800       8.7777819000      23.1520227800
O         17.4516776400      13.3311912300      15.9193463000
H         17.9313667600      12.6245727500      15.4871189100
H         17.5085118300      13.1242638400      16.8521821700
O          9.2220923400      10.2295358400      22.9428116900
H          9.8191649400      10.1332280700      23.6847422600
H          8.3667204700       9.9743572600      23.2884338800
O          8.7896414900       8.9686170700      19.2566073900
H          8.3203964500       9.3147995300      20.0156848800
H          8.6798955700       8.0197697400      19.3188682500
O         24.1188619800      12.6277231100      18.1889642500
H         24.5490533100      12.8889216800      19.0031771000
H         23.2931367600      12.2332346800      18.4696573000
O         18.0452765400      13.4783853900      12.0500972000
H         17.8871552700      12.6300818000      12.4643562100
H         18.8932543600      13.3797034700      11.6171684000
O          1.2151114300       8.7356031500      21.8347442600
H          0.7997728100       9.2287246900      22.5422446600
H          1.9113209100       8.2390760600      22.2648431500
O          4.1639958200       4.4739368400      10.6016324600
H          3.3443702900       4.8006482900      10.2305456100
H          4.1546635500       4.7781842000      11.5091446000
O         14.1880924000       4.8090610500      11.9708257400
H         14.9129354500       4.5828684200      12.5536389900
H         13.7278362100       3.9820011600      11.8281091600
O          6.2386717000       2.1040807300      14.3314922200
H          7.0175596300       2.3289616000      14.8404067800
H          5.5047977400       2.3601711800      14.8901321100
O         23.1545698900       3.5475219500      13.6480560700
H         23.6224226900       4.2696135600      13.2286168000
H         22.5787172100       3.2053256300      12.9642964700
O         23.7411531800       1.6327173200      19.8604336100
H         23.2526321300       1.6743552900      19.0383355000
H         24.6506942400       1.5012094000      19.5927162600
O          9.9257413000       3.2489804700       9.7237343200
H          8.9820902900       3.3896160800       9.8010404400
H         10.0272268600       2.2971763300       9.7225539400
O          1.9232798500       1.5890319100      13.9240494900
H          2.6783975500       1.4478316700      14.4950937900
H          1.1665325300       1.5254452100      14.5067347200
O         18.0075938300       9.2259995100      19.1226266100
H         18.7828692900       9.5004456800      18.6328725000
H         18.2762347200       9.2678915300      20.0404005300
O          2.1138864800      12.3574540600      17.8774318400
H          2.8301867600      11.7225830400      17.8866259400
H          2.0860915300      12.6748531400      16.9748150300
O         11.8947915000      10.7991486500      12.9855879000
H         12.6758921800      11.1705832200      13.3956487800
H         11.3196088500      10.5807325300      13.7188621900
O         11.6375524000       8.7553853700      18.9215083900
H         11.9326504800       8.3305333300      19.7268963200
H         12.4316572100       9.1355342400      18.5458539800
O          9.8882815900       1.6399239500      12.5213248200
H         10.6687286000       2.1941202400      12.5204361200
H          9.2884615000       2.0710943100      13.1300446500
N         11.0662267300       5.4812193800      21.6965939600
H         11.9603955900       5.5069932900      21.2127688300
H         10.5703823800       6.3326011700      21.4444502600
H         10.5398723100       4.7059328500      21.3014094200
N          7.0155740100       9.3602206900      12.2790349200
H          7.6690464000       9.2988272900      11.5021863500
H          6.1114665600       9.6075140200      11.8844152100
H          6.9234398800       8.4222321600      12.6611053600
N          1.2289623600      11.2293572200      13.2144843500
H          1.3445658100      11.2683998200      12.2048306800
H          0.8558812600      12.1303325700      13.5031760600
H          0.5069111200      10.5380533500      13.4016473000
N          6.6583301700      12.8295710400      15.7201047500
H          6.8510610300      12.1102952100      15.0230415600
H          7.2668494300      13.6319444300      15.5579281500
H          6.8316207200      12.4544157400      16.6526437000
H          5.6837895100      13.1216287800      15.6468056100
N          8.8562727600       1.0829514400      23.4325156900
H          8.8810155100       2.1014416500      23.4821693400
H          8.9271601000       0.7882055700      22.4586061100
H          7.9787016600       0.7445273400      23.8271523600
H          9.6382137800       0.6976311900      23.9621349500
N         17.3536725100       5.7541239900      10.5710838500
H         17.8702275600       6.0141546800       9.7308726100
H         17.0173880400       4.7954331400      10.4803941800
H         16.5596072200       6.3831261000      10.6903174700
H         17.9674672300       5.8237820300      11.3827511500
N         13.9993247900       1.4925974400      16.4749619700
H         13.0546917900       1.1438849500      16.6376521700
H         14.3254373600       1.9902332700      17.3034601100
H         13.9945505000       2.1276669900      15.6767991600
H         14.6226194900       0.7086045500      16.2819364400
P          2.9863577600       4.9642674800      22.0487225200
O          4.2005833900       5.7628721200      21.6034285400
O          2.0263432200       4.7830912900      20.8582825700
O          2.2636385600       5.7174199900      23.1809938000
O          3.4477047400       3.5562742200      22.5679661500
H          3.7327407800       2.6863675600      22.8887727200
P         20.0731992100       1.8904999100      17.9712606100
O         20.0398132200       3.4096898600      18.0079657800
O         20.2190362700       1.3454768200      19.4041881700
O         21.2688816500       1.4237285200      17.1203387800
O         18.7400304000       1.3528413600      17.3400045400
H         17.9163528600       1.0206574200      16.9499928200
