     284
Lattice="25.5130000000        0.0000000000        0.0000000000        0.0000000000       13.8536000000        0.0000000000        0.0000000000        0.0000000000       42.0338891909" Properties=species:S:1:pos:R:3 pbc="T T F" Converged=F
 Ca        -0.2789946483        1.3976588348        6.3476767564
 Ca         4.3384721073        5.1118172240        6.1271944814
 Ca         8.4792658256       -0.5113110490        2.7706803200
 Ca        11.0010085519        4.9228566061        5.9013802268
 Ca         1.9945531378        0.4178976300        4.0189111884
 Ca         6.2053444119        1.5275698649        6.0813993677
  S         3.2369338320        1.6342890323        7.0541199686
  S         7.3845214776        4.8566188299        6.5205167047
  S        11.4454523519        0.3387371829        2.8948013631
  O         4.1904437166        0.4164435893        6.8841555444
  O         8.5722891440        5.1015167508        5.6110166882
  O        12.1874211007        1.2237710483        4.0683613288
  O         2.0458128817        1.2903048339        6.1092541112
  O         6.5884912861        6.1365694237        6.6360701731
  O        11.1568384139        6.7042719052        4.4192641991
  O         3.5526091125        6.1262704859        2.7544571117
  O         6.4411204312        3.9171215382        5.7714876659
  O        10.2508857250        1.3678758929        2.7154301632
  O         4.0790650394        2.7407996552        6.3344997352
  O         7.7763794563        4.3134571001        7.8137967821
  O        12.5986282979        6.0234038357        2.7098607295
  S         1.2360371392        4.9633298128        6.5647238261
  S         5.4017536463        0.2887747067        2.8965072533
  S         9.5861076365        1.5493787993        7.1101467817
  O         0.4352160381        3.7007580359        6.4682891840
  O         4.5631780960        1.4966628694        2.7124932088
  O         9.1635281897        5.2354953895        2.7424749183
  O         2.0526942716        5.1807448472        5.2870529108
  O         6.4576017708        0.8595294128        3.9173770430
  O        10.4887465278        0.3367719857        6.7308899361
  O         0.2007623662        6.0535575771        6.6414639560
  O         4.4185112294        6.5668238073        3.9705502055
  O         8.4637925815        1.6217344949        6.0850391116
  O         2.1894190867        4.9584582849        7.6807241767
  O         6.3557261532        6.0080707429        2.7097368184
  O        10.5696569334        2.7455182019        6.7948240244
  O         2.4257208804        2.8000205428        3.7714477941
  O         8.4410133705        3.9148148500        2.7456046097
  O        11.2622103694        3.7670820297        3.8463571751
  H         2.1230799114        3.5734812464        4.2799164657
  H         9.2121712808        3.2722229482        2.7790768733
  H        11.3370381413        4.0471936827        2.8802056373
  H         2.5280752221        3.1018624157        2.8332808175
  H         7.9895806974        3.8644552413        3.6226141964
  H        11.6017838526        2.8390833667        3.8753439965
 Ca        -0.2904034701        8.3324730344        6.3026166419
 Ca         4.1634598813       12.0021063389        6.0426908653
 Ca         8.8800360528        6.9929373178        4.2634616552
 Ca        10.7561813757       11.9291621512        5.6936191471
 Ca         2.1410311707        7.3421236931        4.0635470153
 Ca         6.2200749401        8.5796855496        6.1789275130
  S         3.2659041827        8.5539516699        7.1561960790
  S         7.2500037385       11.7835315413        6.0318100406
  S        11.8240057458        7.2521589331        2.9426055138
  O         4.2594490270        7.3544416698        7.0264095654
  O         8.3769621269       12.3097476947        5.2194981364
  O        12.8605424469        8.2173301716        3.6742204327
  O         2.0991202409        8.1989413929        6.1947864008
  O         6.3528494296       12.9183634684        6.4663025319
  O        10.5645643098       13.1846822245        3.7595950503
  O         3.3833855068       12.9303027157        2.7528446487
  O         6.3475655973       10.8990021180        5.1282111231
  O        10.6324333996        8.1256707976        2.7090827030
  O         4.1049043552        9.6795204258        6.4315503295
  O         7.6499196637       10.9604737094        7.1835990253
  O        12.6717760836       13.2681082400        2.7160780540
  S         1.1476723857       11.8567829535        6.5055838261
  S         5.6441795706        7.2822930890        2.8991485005
  S         9.5747901925        8.6335013954        7.0764380876
  O         0.3546453505       10.5914437138        6.4013714421
  O         4.8761317923        8.5349003751        2.7102098566
  O         8.6027812719       11.0542174236        2.7406138031
  O         1.9113011482       12.0793428269        5.2042368391
  O         6.6502518651        7.8775330256        4.0201820484
  O        10.4013629174        7.3281820665        6.9734006173
  O         0.1195543527       12.9470337216        6.6395226944
  O         4.2428105342       13.3772820469        3.9691713801
  O         8.4881826400        8.5006426747        5.9425827193
  O         2.1385169397       11.8404944842        7.5926921807
  O         6.1167518859       12.8254376252        2.7063200818
  O        10.5668980503        9.6969020090        6.4890410728
  O         2.7040314946        9.7251947534        3.7903799332
  O         7.2066411811       10.4929502817        2.7439534411
  O        11.6814081670       10.7259247630        3.8356251642
  H         2.1772444181       10.4473159915        4.1787450203
  H         7.3300515648        9.5112354560        2.7727237456
  H        11.5759911057       10.9447898651        2.8644578760
  H         2.8319281335        9.9789557471        2.8371457292
  H         6.8178234829       10.7221683913        3.6931734483
  H        12.1268420417        9.8528277706        3.7969881959
 Ca        12.4940136812        1.5383660524        6.3448093536
 Ca        16.8835017866        4.8564153285        4.4470008398
 Ca        21.3260439332       -0.0808576682        4.0666692735
 Ca        23.6760123806        4.8524958771        5.8247887119
 Ca        14.5319198438        0.1988552258        4.0497770391
 Ca        19.0064387496        1.6961774429        6.1969182092
  S        16.0564825707        1.8444718298        6.8540498736
  S        19.8440422423        4.7633230529        6.2131311573
  S        24.3769835049        0.2611421310        2.9536171384
  O        17.0566138364        0.6533690606        6.9703159169
  O        21.2604354877        5.1018866191        5.8460811334
  O        25.2306141742        1.2230289505        4.0039695716
  O        14.8322444991        1.2256550869        6.1526095675
  O        19.1287545594        5.9846466206        6.6166790184
  O        23.6780775812        6.3732467864        4.0663651340
  O        15.8535732851        5.7458237341        2.7495522451
  O        19.2216341902        4.1472290916        4.9508266969
  O        23.2614058549        1.2431966977        2.7082067873
  O        16.8100977106        2.7265170526        5.7724021586
  O        19.7461562390        3.7351840719        7.2793197049
  O        25.5730225944        6.1895730460        2.7087062772
  S        13.9746909058        5.0567044730        6.8068628509
  S        18.2083878823        0.4018112567        2.9123362535
  S        22.2955224706        1.5214157832        7.0261055244
  O        13.1910940086        3.7883098977        6.5558719767
  O        17.4280032345        1.6404306045        2.7102937772
  O        21.6384913081        5.0632500888        2.7455028917
  O        14.9387780369        5.3404681151        5.6935479573
  O        19.1605593559        0.9810271456        4.0772104751
  O        23.2043812780        0.2697232253        6.8745532179
  O        12.9139442026        6.1316056665        6.8045933412
  O        17.5433406747        7.1510607580        4.3982262535
  O        21.3122695584        1.4671886615        5.8123526062
  O        14.6546017603        4.9780848351        8.1108173180
  O        18.8545630576        6.1921546070        2.7134080347
  O        23.2993602358        2.6704528485        6.6555289033
  O        15.0119295309        2.5766873089        3.7788552436
  O        20.5782407226        3.9911702067        2.7427625447
  O        23.9859233917        3.6204046499        3.8504510871
  H        15.8366908913        2.5152751234        4.3066553331
  H        21.1407286208        3.1832923896        2.7710015945
  H        23.8897494206        3.8367939441        2.8753131419
  H        15.2365562824        2.7822428285        2.8322418025
  H        20.0512863593        4.0510288121        3.6303549068
  H        24.4512922883        2.7504798093        3.8729101258
 Ca        12.4273831081        8.2765527399        6.0491854070
 Ca        17.0126837979       12.1835019835        6.2070437384
 Ca        21.4259389843        6.8681162885        4.2042409680
 Ca        23.5902358820       11.7434680337        5.8059142844
 Ca        15.2115165156        7.4957546072        4.0751208968
 Ca        18.6717083122        8.4682799607        5.9397281996
  S        15.8539409468        8.8730857243        7.2456646784
  S        20.1196906335       11.7630817776        6.5185491641
  S        24.4917975361        7.1878453284        2.9552159269
  O        16.9739450670        7.7803832374        7.3785607861
  O        21.2005846504       12.0147373937        5.4694510361
  O        25.3946578917        8.1204318761        3.9997619199
  O        14.8248710978        8.2667232567        6.2560030492
  O        19.3142439987       13.0308173534        6.7164311753
  O        23.5908739899       13.2524307139        4.0194103007
  O        16.1156499323       13.0268231407        2.7516404717
  O        19.1383771419       10.8128995517        5.8534793599
  O        23.4214386466        8.2062752694        2.7074594344
  O        16.6574214667        9.9300309763        6.4188944558
  O        20.7161797056       11.2548764647        7.7401887462
  O        25.5060271143       13.1645974888        2.7084918526
  S        13.9052481752       11.9288555542        6.5202066838
  S        18.3500132317        7.5703555810        2.9278747714
  S        22.2613635626        8.4105205488        7.0830989809
  O        13.1591836522       10.6503339879        6.4830624312
  O        17.4264000474        8.7003893108        2.7074814656
  O        21.7775908288       11.8142437643        2.7464370861
  O        14.7899388677       12.0716952673        5.2727665648
  O        19.5827863374        8.2690389290        3.6895733344
  O        23.1860545949        7.1684388827        6.7877821132
  O        12.8550706621       13.0192209383        6.3976408971
  O        17.0146208012       13.4815606614        3.9234780452
  O        21.1868564628        8.3997113248        5.9524406162
  O        14.8042315101       12.0938690383        7.6703427184
  O        19.0039574157       13.0165532198        2.7100166095
  O        23.2558096310        9.5761296942        6.7083603134
  O        15.3830649851        9.8621761099        3.8104938309
  O        20.6497691459       10.8020671727        2.7429382255
  O        24.2258383093       10.5823158343        3.8497413245
  H        15.0336792709       10.6283574365        4.3015435913
  H        21.0948916470        9.9202192178        2.7690870739
  H        24.0531506864       10.7697011086        2.8777172201
  H        15.4435458795       10.1283678692        2.8506183370
  H        20.1598292727       10.8726307865        3.5970009494
  H        24.6871692857        9.7133981756        3.8552977891
  O         3.6373569684       13.2127323029       22.2040829555
  H         2.9182771874       12.8029548747       21.7133987760
  H         3.4740245457       13.1414584941       23.7295912480
  O        15.0848824867        9.4973719840       23.7606557316
  H        15.9232928052       10.1200645046       23.7718671050
  H        15.4034825791        8.5043568654       23.7717007450
  O        16.9293406650       12.8934714816       16.3991223533
  H        17.1710387007       12.6064090312       15.5100039642
  H        18.0876027581       14.3317563533       17.0084499845
  O         8.9212324624       12.2184846712       23.7609422916
  H         9.8513280379       11.7529094307       23.7718504949
  H         8.2006043568       11.4673434617       23.7714653018
  O         8.7647001671        8.9405106853       19.3745913722
  H         8.0687870148        8.3302523603       19.1067031951
  H         9.5671787645        8.6255558882       18.9320900594
  O        24.2154208824       12.9230118781       18.1797990784
  H        24.0087254990       13.6721358171       18.7738005673
  H        23.4450652676       12.9295561011       17.5946794785
  O        17.9854594196       13.4517849289       12.1659942751
  H        17.9400474704       12.8658266315       11.4010600869
  H        18.9282000348       13.6444773161       12.2534162087
  O         1.7796949704        8.4567105663       20.5749180337
  H         1.0553163584        8.3671330741       19.9486582785
  H         2.1421365828        7.5472432083       20.6149796265
  O         4.1227264329        4.4378338497       10.5515087685
  H         3.4584997934        4.3161751611        9.8594523807
  H         4.3142155913        5.3811021866       10.5014607426
  O        14.1714449820        4.8211048237       11.8991295519
  H        14.1578765717        3.8692990775       12.0380824043
  H        13.8792262350        4.9165683384       10.9807285153
  O         6.2385864026        1.2819569088       14.6447478107
  H         7.0962828212        1.4500802389       14.2297305008
  H         5.7534496109        2.1061012530       14.5059464986
  O        23.2408170283        3.5648826516       13.7003047389
  H        22.9319803710        4.4698419422       13.8198742803
  H        22.8403155562        3.0976572843       14.4435552263
  O        23.3156391134        1.4164006052       19.8575820896
  H        22.3403498731        1.2664254175       19.9065541773
  H        23.3761291487        2.2302533048       19.3430047991
  O         9.9562184004        3.2500044258        9.9978121086
  H         9.3364508925        3.9017058718        9.6375171720
  H         9.9546565019        2.5783111609        9.2974814064
  O         1.9383856363        1.5274525623       13.9367260604
  H         1.5512430690        1.7376654838       14.7945762981
  H         1.5315258411        2.1640538893       13.3349417351
  O        17.9839747794        9.3511533808       19.1294072720
  H        17.8352531448       10.1527037427       18.6113839699
  H        18.9060023988        9.1315285599       18.9437434923
  O         2.0857570471       12.4271211531       17.5321222983
  H         2.2574830929       11.7702036974       18.2198634517
  H         1.1535906345       12.6576978899       17.6816721643
  O        11.9123581238       10.8419872050       12.9643121593
  H        12.3950240070       11.3597810050       12.3107284159
  H        12.2784347696        9.9532365924       12.8633554501
  O        11.7413104910        8.7895614015       18.8897515220
  H        11.7793993690        9.7188562182       19.1616533500
  H        12.3168386624        8.7581812578       18.1132830751
  O         9.5527812903        1.9743906470       12.5474745127
  H         9.7186895020        2.5529256814       11.7749708398
  H         9.1655411008        1.1982939038       12.1230504955
  N        11.0139210380        5.3876251320       20.7311942026
  H        11.9442158313        5.3674061925       20.3224022414
  H        10.7132138809        6.3530154944       20.6148978496
  H        10.4366512668        4.8659386777       20.0780451281
  N         6.6357145202       11.2397057508       12.7284623676
  H         7.4498158690       11.8211979158       12.5513395097
  H         6.2561736624       11.0205028640       11.8105602595
  H         7.0052687865       10.3635964338       13.0846891265
  N         2.1056361933       12.5054678122       13.6245090062
  H         1.8107121265       12.0719328191       12.7556309504
  H         1.7971317188       13.4818583843       13.6010627301
  H         1.5846150934       12.0544075189       14.3763689155
