 # Version information for this restart file 
 # current date 2026-01-21 09:41:55.905
 # current working dir /mnt/cp2k
 # Program compiled at                                       2026-01-16 05:48:39
 # Program compiled on                                                          
 # Program compiled for                                                   x86_64
 # Source code revision number                                        4e96ea1a00
 &GLOBAL
   PRINT_LEVEL LOW
   PROJECT_NAME "gypsum_slab_geoopt"
   RUN_TYPE GEO_OPT
 &END GLOBAL
 &MOTION
   &GEO_OPT
     TYPE MINIMIZATION
     OPTIMIZER BFGS
     MAX_ITER 200
     MAX_DR  3.0000000000000001E-003
     MAX_FORCE  4.4999999999999999E-004
     RMS_DR  1.5000000000000000E-003
     RMS_FORCE  2.9999999999999997E-004
     STEP_START_VAL 5
     &BFGS
       TRUST_RADIUS  2.5000000000000000E-001
     &END BFGS
   &END GEO_OPT
   &PRINT
     &TRAJECTORY SILENT
       FORMAT XMOL
       &EACH
         GEO_OPT 1
       &END EACH
     &END TRAJECTORY
     &RESTART SILENT
       BACKUP_COPIES 1
       &EACH
         GEO_OPT 5
       &END EACH
     &END RESTART
     &RESTART_HISTORY OFF
     &END RESTART_HISTORY
   &END PRINT
 &END MOTION
 &FORCE_EVAL
   METHOD QS
   &DFT
     BASIS_SET_FILE_NAME BASIS_MOLOPT_UZH
     POTENTIAL_FILE_NAME POTENTIAL_UZH
     UKS T
     MULTIPLICITY 1
     CHARGE 0
     &SCF
       MAX_SCF 120
       EPS_SCF  9.9999999999999995E-007
       SCF_GUESS ATOMIC
       &OT T
         MINIMIZER DIIS
         STEPSIZE  1.0000000000000001E-001
         PRECONDITIONER FULL_SINGLE_INVERSE
         PRECOND_SOLVER INVERSE_UPDATE
         ENERGY_GAP  1.0000000000000001E-001
       &END OT
       &OUTER_SCF T
         EPS_SCF  9.9999999999999995E-007
         MAX_SCF 20
       &END OUTER_SCF
       &PRINT
         &RESTART SILENT
           BACKUP_COPIES 1
           &EACH
             GEO_OPT 1
           &END EACH
         &END RESTART
       &END PRINT
     &END SCF
     &QS
       EPS_DEFAULT  9.9999999999999998E-013
       EPS_PGF_ORB  1.0000000000000000E-014
       EXTRAPOLATION ASPC
       EXTRAPOLATION_ORDER 5
       METHOD GPW
     &END QS
     &MGRID
       NGRIDS 5
       CUTOFF  4.2000000000000000E+002
       REL_CUTOFF  6.0000000000000000E+001
     &END MGRID
     &XC
       DENSITY_CUTOFF  1.0000000000000000E-010
       GRADIENT_CUTOFF  1.0000000000000000E-010
       TAU_CUTOFF  1.0000000000000000E-010
       &XC_GRID
         XC_SMOOTH_RHO SPLINE3
         XC_DERIV SPLINE3_SMOOTH
       &END XC_GRID
       &XC_FUNCTIONAL NO_SHORTCUT
         &PBE T
           PARAMETRIZATION REVPBE
           SCALE_X  1.0000000000000000E+000
           SCALE_C  1.0000000000000000E+000
         &END PBE
       &END XC_FUNCTIONAL
       &VDW_POTENTIAL
         POTENTIAL_TYPE PAIR_POTENTIAL
         &PAIR_POTENTIAL
           R_CUTOFF  1.5000000000000002E+001
           D4_CUTOFF  3.0000000000000004E+001
           TYPE DFTD4
           REFERENCE_FUNCTIONAL "revPBE"
         &END PAIR_POTENTIAL
       &END VDW_POTENTIAL
     &END XC
     &POISSON
       POISSON_SOLVER MT
       PERIODIC XY
     &END POISSON
     &PRINT
       &E_DENSITY_CUBE OFF
       &END E_DENSITY_CUBE
     &END PRINT
   &END DFT
   &SUBSYS
     &CELL
       A  1.1358000000000001E+001  0.0000000000000000E+000  0.0000000000000000E+000
       B -5.1479508240459984E+000  1.1470885982880008E+001  0.0000000000000000E+000
       C  0.0000000000000000E+000  0.0000000000000000E+000  2.9527031199999996E+001
       PERIODIC XY
       MULTIPLE_UNIT_CELL 1 1 1
     &END CELL
     &COORD
       Ca  9.2941330521039394E+000  1.4340376102283252E+000  2.5735268886659490E+000
       Ca  2.3290902017770159E+000  4.3022044863138111E+000  9.5216435020360475E+000
       Ca -5.1017623164722203E-001  4.3013352912596252E+000  1.3952135096813159E+001
       Ca  7.7551798870561728E-001  1.4336179919208067E+000  7.0064921927183832E+000
       S  2.3367482792073848E+000  4.2977996260743474E+000  1.9099369038411471E+000
       S  9.2946885643423407E+000  1.4338801307790641E+000  9.4624142537952345E+000
       S  7.8509706890961861E-001  1.4299195916973997E+000  1.4616594795252558E+001
       S -5.1066282856627931E-001  4.3015631665392560E+000  7.0647375871954079E+000
       O  7.5452559334417861E+000  3.2551484325465214E+000  3.0958853744609658E+000
       O  8.8377800161299547E+000  2.5805691334985459E-001  1.0310205534468967E+001
       O  1.2387634529943172E+000  2.4802104470774133E+000  1.3431051236619259E+001
       O -5.3722817044197457E-002  5.4773415851806524E+000  6.2169395492034720E+000
       O  2.7903678553665014E+000  5.3478959301162234E+000  3.0957805136546495E+000
       O  9.7520456060296734E+000  2.6095883390763834E+000  1.0310122789922890E+001
       O  5.9936931544363956E+000  3.8763802792434277E-001  1.3431183173880903E+001
       O -9.6805285922800033E-001  3.1258998215392477E+000  6.2170231520489541E+000
       O  9.0653401370736120E+000  3.6713162776613379E+000  9.6695757225457957E-001
       O  1.0431152334484750E+001  9.2284297689382810E-001  8.6053276832604695E+000
       O -2.8115122130495596E-001  2.0641428890159830E+000  1.5560287838238356E+001
       O -1.6471126870827726E+000  4.8124740140902507E+000  7.9220095737632228E+000
       O  1.2718415975372734E+000  4.9314096718863949E+000  9.6378223205328029E-001
       O  8.1582700320604857E+000  1.9450608434867698E+000  8.6052949430263279E+000
       O  7.5119500621283342E+000  8.0402142906244001E-001  1.5563648603646797E+001
       O  6.2573851325691765E-001  3.7905083367341623E+000  7.9220466687137208E+000
       O -4.7144000142417691E-001  2.9051913669003584E+000  3.6269626736556506E+000
       O -1.9914128449929613E+000  5.4735421834680871E+000  1.1047001673150842E+001
       O  9.2555414237277844E+000  2.8302197947842700E+000  1.2900060498997272E+001
       O  1.0775502876321454E+001  2.6253020414721984E-001  5.4799752097184484E+000
       O  7.7029371751545117E+000 -3.7282260858889180E-002  3.6287940533068541E+000
       O  9.6882089001236293E-001  3.1289250537775404E+000  1.1044019220649364E+001
       O  1.0810487656713277E+000  5.7727938659733278E+000  1.2898203984620425E+001
       O  7.8151353128022745E+000  2.6059161615216540E+000  5.4829635693616767E+000
       H  4.5483181133252787E-001  3.0590677059204068E+000  3.2041879388210419E+000
       H  7.1538419237801874E+000  5.7278772205097958E-002  1.0704370424390252E+001
       H  8.3292149116254475E+000  2.6763450000713682E+000  1.3322728430884759E+001
       H  1.6304139365971411E+000  5.6782737202512976E+000  5.8226771403229405E+000
       H -1.4743621971805512E+000  5.5438825253937178E+000  3.2079218196525341E+000
       H  7.7061187420993743E-002  2.8104402426351389E+000  1.0704136635818461E+001
       H  1.0258371350212402E+001  1.9159422195854300E-001  1.3319001769369359E+001
       H  8.7067367303874335E+000  2.9248955382392956E+000  5.8229058163189871E+000
       H -5.9919167240044580E-001  2.9740066222118462E+000  4.6309443529139545E+000
       H -2.0961734838579096E+000  5.8187622510533448E+000  1.2023194499138457E+001
       H  9.3831070175635460E+000  2.7613208769864515E+000  1.1896105162280266E+001
       H  1.0880348567908065E+001 -8.3163219373636674E-002  4.5038841433023160E+000
       H  7.8312705071292195E+000 -1.0712017035024138E-001  4.6335887374580587E+000
       H  1.0761401519300169E+000  2.7863467906396306E+000  1.2019196658143155E+001
       H  9.5287633835385022E-001  5.8426914169027411E+000  1.1893432589425135E+001
       H  7.7077341539899731E+000  2.9489475718082740E+000  4.5078812279035745E+000
       Ca  3.6148406733759697E+000  1.4344159308751805E+000  2.5717803550840181E+000
       Ca  8.0085105414054425E+000  4.3018250334562307E+000  9.5216445297914181E+000
       Ca  5.1691543548484988E+000  4.3009839002547663E+000  1.3953966724224982E+001
       Ca  6.4549359610872523E+000  1.4332380963739608E+000  7.0064931801640871E+000
       S  7.9989771550505004E+000  4.3055155259504341E+000  1.9105207555906996E+000
       S  3.6156911107666585E+000  1.4338804445051669E+000  9.4623319502093164E+000
       S  6.4472604460638339E+000  1.4376568123512876E+000  1.4617211708611777E+001
       S  5.1683332768354751E+000  4.3015627629310362E+000  7.0648213866586627E+000
       O  1.8760417188666516E+000  3.2489412286336123E+000  3.0949596966675181E+000
       O  3.1588787407396000E+000  2.5810331850955015E-001  1.0310265072722558E+001
       O  6.9079280271831713E+000  2.4864630165144437E+000  1.3432057698692553E+001
       O  5.6251780084266834E+000  5.4772942833319656E+000  6.2168804425625108E+000
       O  8.4596797559146566E+000  5.3544135536280457E+000  3.0954331746914141E+000
       O  4.0729507663832054E+000  2.6095432843965605E+000  1.0310183228332379E+001
       O  3.2442697557435024E-001  3.8104921521045615E-001  1.3431577911924425E+001
       O  4.7110402779104357E+000  3.1259452932655605E+000  6.2169636563502522E+000
       O  3.3648438487471974E+000  3.6790184939776758E+000  8.9939876384856332E-001
       O  4.7521616279461485E+000  9.2287422458028556E-001  8.6052758695321714E+000
       O  5.4194031101083935E+000  2.0564195979580675E+000  1.5628101112310164E+001
       O  4.0318773695256089E+000  4.8124417254108547E+000  7.9220636631097578E+000
       O  6.9718855832913258E+000  4.9239637465565398E+000  8.9832477256270415E-001
       O  2.4792649697187130E+000  1.9450360513268941E+000  8.6052485678052903E+000
       O  1.8118972415334633E+000  8.1148444005188380E-001  1.5629205994463875E+001
       O  6.3047428063565443E+000  3.7905321301175814E+000  7.9220937805253167E+000
       O  5.2068737987086386E+000  2.9063168330858722E+000  3.6279048326105112E+000
       O  3.6878759728284396E+000  5.4732957680433030E+000  1.1047161968605140E+001
       O  3.5772231686655069E+000  2.8290845447256832E+000  1.2899125751043664E+001
       O  5.0962111143138031E+000  2.6277879760236733E-001  5.4798151126713810E+000
       O  2.0248242820904929E+000 -3.8293222447089506E-002  3.6299240992278539E+000
       O  6.6475320830516731E+000  3.1291485486367514E+000  1.1044244573266806E+001
       O  6.7591442733518265E+000  5.7737925037712099E+000  1.2897094650855799E+001
       O  2.1364210036420888E+000  2.6056923076372143E+000  5.4827361366057588E+000
       H  6.1310646179226600E+000  3.0585417343599026E+000  3.2047692912147987E+000
       H  1.4748901800495311E+000  5.7334627116852457E-002  1.0704243191770939E+001
       H  2.6529807023861256E+000  2.6768741522565858E+000  1.3322151895398006E+001
       H  7.3093654025578818E+000  5.6782160675988935E+000  5.8228033123995928E+000
       H  4.2074106139728018E+000  5.5444118276850372E+000  3.2085605813396674E+000
       H  5.7560021310214147E+000  2.8103825334654915E+000  1.0703994226100278E+001
       H  4.5766058026411374E+000  1.9106211521822489E-001  1.3318363193237314E+001
       H  3.0277912911298848E+000  2.9249494588127867E+000  5.8230528359299374E+000
       H  5.0799409613843576E+000  2.9739722384938712E+000  4.6320365071037326E+000
       H  3.5822404583191667E+000  5.8189394244660742E+000  1.2023237765624879E+001
       H  3.7039799988570867E+000  2.7613603595240384E+000  1.1895015329605853E+001
       H  5.2019361380821820E+000 -8.3342688543813395E-002  4.5038415719725631E+000
       H  2.1521674452788639E+000 -1.0711032803138326E-001  4.6348460958134776E+000
       H  6.7557263521115516E+000  2.7861717416484288E+000  1.2019307151867531E+001
       H  6.6319722228030074E+000  5.8426720553543472E+000  1.1892192865822079E+001
       H  2.0281489372575918E+000  2.9491242739454262E+000  4.5077708456677943E+000
       Ca  1.0422719596612202E+000  7.1699236193971121E+000  2.5731548780058127E+000
       Ca  5.4336047604652000E+000  1.0036933220996714E+001  9.5208074029636052E+000
       Ca  2.5937274616804120E+000  1.0036335598480123E+001  1.3952624684992934E+001
       Ca  3.8810545864651464E+000  7.1697881001612966E+000  7.0073409411410852E+000
       S  5.4397720673538563E+000  1.0034453261720044E+001  1.9107074943908167E+000
       S  1.0414601899818103E+000  7.1686804785122211E+000  9.4633499243882149E+000
       S  3.8862348194078544E+000  7.1662350524782168E+000  1.4617430184112939E+001
       S  2.5946184485891215E+000  1.0037657096598778E+001  7.0638042049653560E+000
       O -7.0374141061098650E-001  8.9893359114230211E+000  3.0946221994588927E+000
       O  5.8519967484112689E-001  5.9938533817931763E+000  1.0313720891921051E+001
       O  4.3398380816234612E+000  8.2169637917923080E+000  1.3432325165347818E+001
       O  3.0509239681750615E+000  1.1212422119943108E+001  6.2134065408782861E+000
       O  5.8907553325670730E+000  1.1082989621120271E+001  3.1008241482731447E+000
       O  1.4987912550795528E+000  8.3448845355189718E+000  1.0310401874879746E+001
       O -2.2545446201228017E+000  6.1235308702132407E+000  1.3426033848465115E+001
       O  2.1372536972396996E+000  8.8614947533916322E+000  6.2167505691454661E+000
       O  8.0744059044525607E-001  9.4100810154438719E+000  9.4989232548459646E-001
       O  2.1776109019225984E+000  6.6581568727944216E+000  8.6053916435246780E+000
       O  2.8287611196256952E+000  7.7962909227752997E+000  1.5577283040858978E+001
       O  1.4584802319434800E+000  1.0548052293643943E+001  7.9219486172178124E+000
       O  4.3818736479997451E+000  1.0667190222302489E+001  9.5322474750069541E-001
       O -9.4142496234207437E-002  7.6803500928319135E+000  8.6052545649605570E+000
       O -7.4601898101989939E-001  6.5390788742551953E+000  1.5574204387761030E+001
       O  3.7302005300562051E+000  9.5261036200797218E+000  7.9220876580885076E+000
       O  2.6332600578219232E+000  8.6397248155625785E+000  3.6269149601142492E+000
       O  1.1147704713146471E+000  1.1209291051777692E+001  1.1044011356013199E+001
       O  1.0028882551893599E+000  8.5665722607437065E+000  1.2900109861469971E+001
       O  2.5213723638138386E+000  5.9976457593362378E+000  5.4829675017595934E+000
       O -5.4841112415323867E-001  5.6996044262003762E+000  3.6255373008967169E+000
       O  4.0736415457608244E+000  8.8651988608551608E+000  1.1044067867611057E+001
       O  4.1844369511217305E+000  1.1506781035433898E+001  1.2901463974641299E+001
       O -4.3763565219097988E-001  8.3405328087889981E+000  5.4829138454688913E+000
       H  3.5594248675893274E+000  8.7943327093739541E+000  3.2045104370945303E+000
       H -1.0999410748665994E+000  5.7930190139388547E+000  1.0707082119731044E+001
       H  7.6666768864928000E-002  8.4119678755188385E+000  1.3322403819733038E+001
       H  4.7362461972773744E+000  1.1413422544490945E+001  5.8199579818521734E+000
       H  1.6289938768895689E+000  1.1279903719464619E+001  3.2047974523885610E+000
       H  3.1822526822457218E+000  8.5456772177894074E+000  1.0703958952938519E+001
       H  2.0070787656641991E+000  5.9264682354527478E+000  1.3322109639449637E+001
       H  4.5359656533723863E-001  8.6605455033966958E+000  5.8230827312587641E+000
       H  2.5058738769549480E+000  8.7099357719276469E+000  4.6306183646596946E+000
       H  1.0074104112466071E+000  1.1552483278325978E+001  1.2019039277249339E+001
       H  1.1300911254345534E+000  8.4962784816813652E+000  1.1896431360539825E+001
       H  2.6288164666838481E+000  5.6539958410070845E+000  4.5080374092327409E+000
       H -4.2540915527893036E-001  5.6279387741043490E+000  4.6288495926124451E+000
       H  4.1813483456602016E+000  8.5213696539849231E+000  1.2019012913587970E+001
       H  4.0615909577684883E+000  1.1578508791590778E+001  1.1898172094947006E+001
       H -5.4542468119469389E-001  8.6848118947891493E+000  4.5080634210484272E+000
       Ca  6.7216178441942436E+000  7.1695229785021954E+000  2.5714686376899945E+000
       Ca -2.4498523176274889E-001  1.0036535055841792E+001  9.5207958427220412E+000
       Ca -3.0856090568210295E+000  1.0036744708039292E+001  1.3954396769541571E+001
       Ca -1.7975368103702940E+000  7.1693918297844785E+000  7.0073311051381282E+000
       S -2.5008253487124610E-001  1.0040137747273407E+001  1.9096855617455692E+000
       S  6.7204583382296290E+000  7.1686735101086807E+000  9.4632896922622649E+000
       S -1.8036748132925557E+000  7.1719199637830835E+000  1.4616443847481994E+001
       S -3.0843801161041546E+000  1.0037663143997140E+001  7.0638657388904287E+000
       O  4.9788405922775523E+000  8.9849967703154476E+000  3.0948426364698722E+000
       O  6.2643017670432206E+000  5.9939123311716314E+000  1.0313835015429497E+001
       O -1.3427993815116503E+000  8.2213434417394122E+000  1.3432198544735678E+001
       O -2.6281795982781975E+000  1.1212362665510842E+001  6.2132931708749775E+000
       O  2.0788916260423274E-001  1.1086794839813511E+001  3.1000341667900306E+000
       O  7.1776863071167663E+000  8.3448392066481691E+000  1.0310474677065882E+001
       O  3.4283821582946969E+000  6.1196672956200358E+000  1.3426867292543712E+001
       O -3.5416430116380133E+000  8.8615404844496446E+000  6.2166778188315046E+000
       O  6.4736136396949160E+000  9.4144915425353926E+000  9.0910023995322098E-001
       O  7.8566079022029580E+000  6.6581724126594457E+000  8.6053565947312194E+000
       O -2.8373110771635721E+000  7.7917949833513021E+000  1.5618399042843579E+001
       O -4.2205177625148531E+000  1.0548035756990881E+001  7.9219835375308270E+000
       O -1.2833711714077718E+000  1.0662447629158128E+001  9.0865758577826283E-001
       O  5.5848529247019032E+000  7.6803042222874849E+000  8.6052162433487318E+000
       O  4.9191793104459896E+000  6.5439009691001733E+000  1.5618926587751602E+001
       O -1.9487947377300556E+000  9.5261486383496390E+000  7.9221269127167746E+000
       O -3.0466970501783912E+000  8.6407085155639720E+000  3.6280306742560540E+000
       O -4.5639510920670903E+000  1.1209073178118125E+001  1.1044261304451112E+001
       O  6.6828487233733300E+000  8.5655815475848751E+000  1.2899004409886825E+001
       O  8.2000929758611818E+000  5.9978670780855499E+000  5.4827198083973494E+000
       O  5.1313759889147361E+000  5.6985105857893430E+000  3.6264653840740397E+000
       O -1.6056447388161901E+000  8.8654208972017798E+000  1.1044308868801020E+001
       O -1.4953606370156645E+000  1.1507874749281807E+001  1.2900551861992012E+001
       O  5.2416493992744835E+000  8.3403082238387736E+000  5.4826695210529008E+000
       H -2.1226711841880159E+000  8.7938674520997537E+000  3.2050333571355663E+000
       H  4.5791315878034586E+000  5.7930802885859647E+000  1.0706942019536312E+001
       H  5.7587692659192395E+000  8.4124381248093147E+000  1.3321886648715267E+001
       H -9.4282668734370112E-001  1.1413359888950177E+001  5.8201014991767828E+000
       H -4.0469576358597141E+000  1.1280343239871868E+001  3.2053160846039921E+000
       H -2.4968020989293378E+000  8.5456203639422590E+000  1.0703825383614502E+001
       H  7.6830283246618176E+000  5.9260251531055053E+000  1.3321594852743354E+001
       H  6.1326466827222053E+000  8.6605978049666064E+000  5.8232230417505866E+000
       H -3.1730374489247208E+000  8.7099125390117855E+000  4.6318557955250617E+000
       H -4.6721700738833789E+000  1.1552656921843397E+001  1.2019170069142575E+001
       H  6.8090090176702480E+000  8.4963076897040981E+000  1.1895199668282016E+001
       H  8.3083952198669806E+000  5.6538192770032918E+000  4.5079101833524176E+000
       H  5.2534218574828584E+000  5.6279647022665067E+000  4.6299238924842676E+000
       H -1.4970673652767541E+000  8.5211876853515225E+000  1.2019130909491137E+001
       H -1.6172437950139700E+000  1.1578476345108825E+001  1.1897109452851350E+001
       H  5.1329909764618113E+000  8.6849975140333129E+000  4.5079445507325611E+000
     &END COORD
     &KIND "Ca"
       BASIS_SET "ORB" "DZVP-MOLOPT-PBE-GTH-q10"
       POTENTIAL "GTH-PBE-q10"
       &POTENTIAL
         4 6 0 0
           3.6524646201469002E-001 2 -4.1804006669854701E+000 -1.6887849202464000E+000
         3
           2.8988798370645003E-001 2  2.0501148195450281E+001 -7.1297848893034903E+000
                                                               9.1432814216561002E+000
           3.2689189928945001E-001 2  5.8028930581248899E+000 -4.2875330696042002E-001
                                                               4.8639233785097002E-001
           6.7993690959315001E-001 1  5.8464597670689997E-002
         # Potential name: GTH-PBE-Q10 for element symbol: CA
         # Potential read from the potential filename: POTENTIAL_UZH
       &END POTENTIAL
     &END KIND
     &KIND "O"
       BASIS_SET "ORB" "DZVP-MOLOPT-PBE-GTH-q6"
       POTENTIAL "GTH-PBE-q6"
       &POTENTIAL
         2 4 0 0
           2.4446328480160001E-001 2 -1.6675482223638369E+001  2.4890859824178002E+000
         1
           2.2097110943470999E-001 1  1.8334468664062850E+001
         # Potential name: GTH-PBE-Q6 for element symbol: O
         # Potential read from the potential filename: POTENTIAL_UZH
       &END POTENTIAL
     &END KIND
     &KIND "S"
       BASIS_SET "ORB" "DZVP-MOLOPT-PBE-GTH-q6"
       POTENTIAL "GTH-PBE-q6"
       &POTENTIAL
         2 4 0 0
           4.2011499303897998E-001 1 -5.9747803862195896E+000
         2
           3.6482480920276000E-001 2  1.3144660447404330E+001 -4.2418299542725197E+000
                                                               5.4761779684641398E+000
           4.0947908948436001E-001 1  3.7008698706060401E+000
         # Potential name: GTH-PBE-Q6 for element symbol: S
         # Potential read from the potential filename: POTENTIAL_UZH
       &END POTENTIAL
     &END KIND
     &KIND "H"
       BASIS_SET "ORB" "TZV2P-MOLOPT-PBE-GTH-q1"
       POTENTIAL "GTH-PBE-q1"
       &POTENTIAL
         1 0 0 0
           2.0059317301776000E-001 2 -4.1780683247725996E+000  7.2440924243367999E-001
         0
         # Potential name: GTH-PBE-Q1 for element symbol: H
         # Potential read from the potential filename: POTENTIAL_UZH
       &END POTENTIAL
     &END KIND
     &TOPOLOGY
       COORD_FILE_NAME conventional_cell_slab_020_L1_2x2.xyz
       COORD_FILE_FORMAT XYZ
       NUMBER_OF_ATOMS 192
       MULTIPLE_UNIT_CELL 1 1 1
     &END TOPOLOGY
   &END SUBSYS
 &END FORCE_EVAL
