 # Version information for this restart file 
 # current date 2026-01-23 20:34:24.748
 # current working dir /mnt/cp2k
 # Program compiled at                                       2026-01-16 05:48:39
 # Program compiled on                                                          
 # Program compiled for                                                   x86_64
 # Source code revision number                                        4e96ea1a00
 &GLOBAL
   EXTENDED_FFT_LENGTHS T
   PRINT_LEVEL LOW
   PROJECT_NAME "gypsum_slab_nh4_geoopt"
   RUN_TYPE GEO_OPT
 &END GLOBAL
 &MOTION
   &GEO_OPT
     TYPE MINIMIZATION
     OPTIMIZER BFGS
     MAX_ITER 200
     MAX_DR  3.0000000000000001E-003
     MAX_FORCE  4.4999999999999999E-004
     RMS_DR  1.5000000000000000E-003
     RMS_FORCE  2.9999999999999997E-004
     STEP_START_VAL 15
     &BFGS
       TRUST_RADIUS  2.5000000000000000E-001
     &END BFGS
   &END GEO_OPT
   &PRINT
     &TRAJECTORY SILENT
       FORMAT XMOL
       &EACH
         GEO_OPT 1
       &END EACH
     &END TRAJECTORY
     &RESTART SILENT
       BACKUP_COPIES 1
       &EACH
         GEO_OPT 5
       &END EACH
     &END RESTART
     &RESTART_HISTORY OFF
     &END RESTART_HISTORY
   &END PRINT
 &END MOTION
 &FORCE_EVAL
   METHOD QS
   &DFT
     BASIS_SET_FILE_NAME BASIS_MOLOPT_UZH
     POTENTIAL_FILE_NAME POTENTIAL_UZH
     UKS T
     MULTIPLICITY 1
     CHARGE 0
     &SCF
       MAX_SCF 150
       EPS_SCF  9.9999999999999995E-007
       SCF_GUESS ATOMIC
       &OT T
         MINIMIZER DIIS
         STEPSIZE  1.0000000000000001E-001
         PRECONDITIONER FULL_SINGLE_INVERSE
         PRECOND_SOLVER INVERSE_UPDATE
         ENERGY_GAP  1.0000000000000001E-001
       &END OT
       &OUTER_SCF T
         EPS_SCF  9.9999999999999995E-007
         MAX_SCF 30
       &END OUTER_SCF
       &PRINT
         &RESTART SILENT
           BACKUP_COPIES 1
           &EACH
             GEO_OPT 1
           &END EACH
         &END RESTART
       &END PRINT
     &END SCF
     &QS
       EPS_DEFAULT  9.9999999999999998E-013
       EPS_PGF_ORB  1.0000000000000000E-014
       EXTRAPOLATION ASPC
       EXTRAPOLATION_ORDER 5
       METHOD GPW
     &END QS
     &MGRID
       NGRIDS 5
       CUTOFF  4.2000000000000000E+002
       REL_CUTOFF  6.0000000000000000E+001
     &END MGRID
     &XC
       DENSITY_CUTOFF  1.0000000000000000E-010
       GRADIENT_CUTOFF  1.0000000000000000E-010
       TAU_CUTOFF  1.0000000000000000E-010
       &XC_GRID
         XC_SMOOTH_RHO SPLINE3
         XC_DERIV SPLINE3_SMOOTH
       &END XC_GRID
       &XC_FUNCTIONAL NO_SHORTCUT
         &PBE T
           PARAMETRIZATION REVPBE
           SCALE_X  1.0000000000000000E+000
           SCALE_C  1.0000000000000000E+000
         &END PBE
       &END XC_FUNCTIONAL
       &VDW_POTENTIAL
         POTENTIAL_TYPE PAIR_POTENTIAL
         &PAIR_POTENTIAL
           R_CUTOFF  1.5000000000000002E+001
           D4_CUTOFF  3.0000000000000004E+001
           TYPE DFTD4
           REFERENCE_FUNCTIONAL "revPBE"
         &END PAIR_POTENTIAL
       &END VDW_POTENTIAL
     &END XC
     &POISSON
       POISSON_SOLVER MT
       PERIODIC XY
     &END POISSON
     &PRINT
       &E_DENSITY_CUBE OFF
       &END E_DENSITY_CUBE
     &END PRINT
   &END DFT
   &SUBSYS
     &CELL
       A  1.1358000000000001E+001  0.0000000000000000E+000  0.0000000000000000E+000
       B -5.1479508240459984E+000  1.1470885982880008E+001  0.0000000000000000E+000
       C  0.0000000000000000E+000  0.0000000000000000E+000  6.0005230774965341E+001
       PERIODIC XY
       MULTIPLE_UNIT_CELL 1 1 1
     &END CELL
     &COORD
       Ca  9.2947185163054762E+000  1.4334122058703203E+000  3.3288042881504092E+000
       Ca  2.3300749643955276E+000  4.3016891469122083E+000  1.1228729839314909E+001
       Ca -5.0274849276968780E-001  4.2905574584038053E+000  1.5434657610439011E+001
       Ca  7.7957190795348907E-001  1.4345373727418147E+000  8.1314537179136170E+000
       S  2.3281269984661410E+000  4.3014696376992472E+000  2.6912429873255239E+000
       S  9.2956518072086478E+000  1.4341679014716193E+000  1.0922063920168371E+001
       S  7.7650599724797309E-001  1.4326066564825555E+000  1.5884970432714491E+001
       S -5.1076511328111651E-001  4.3016328265045853E+000  7.8902890671189230E+000
       O  7.3943426732258892E+000  2.9201290664703938E+000  3.1182767498173694E+000
       O  8.4399035906445388E+000  3.2282028327160511E-002  1.1183593316404252E+001
       O  1.3194538373911773E+000  2.5865277474828932E+000  1.5028826986761302E+001
       O -9.1312107200479997E-002  5.3890710792772403E+000  6.8229117597499434E+000
       O  2.9421273697866761E+000  5.6831780540253485E+000  3.1182227293097537E+000
       O  1.0154921139629520E+001  2.8357859295609629E+000  1.1183159371637048E+001
       O  5.9147380979100390E+000  2.7779076713956580E-001  1.5026537332940151E+001
       O -9.3060400417997158E-001  3.2142838927404798E+000  6.8226765306744532E+000
       O  9.2279895463628101E+000  3.7318353189178488E+000  1.9776646938636577E+000
       O  1.0260575668884618E+001  8.5097758331646367E-001  9.7262194951986061E+000
       O -3.6445010888330531E-001  2.0341806421672946E+000  1.6656181983968111E+001
       O -2.0033123042515126E+000  4.8023364381530547E+000  8.1226853450679410E+000
       O  1.1085027036167410E+000  4.8714321625958759E+000  1.9775610326756530E+000
       O  8.3301223487742089E+000  2.0174094180232260E+000  9.7269401957577504E+000
       O  7.5952941068125597E+000  8.2781642545697920E-001  1.6658397172673059E+001
       O  9.8166924570564185E-001  3.8008924710002296E+000  8.1225243936059837E+000
       O -7.2808998787525081E-001  2.6641399030895063E+000  4.4303615394262970E+000
       O -1.7160914246899623E+000  5.4857118668935447E+000  1.2584943050629903E+001
       O  9.5069379274765033E+000  3.0014182962093048E+000  1.4166076705330704E+001
       O  1.0707785770454866E+001  2.1348427127820838E-001  6.6746301540275663E+000
       O  7.9597027881464646E+000  2.0454571936258201E-001  4.4303176618143292E+000
       O  6.9517752649798781E-001  3.1200060647710912E+000  1.2584481741489615E+001
       O  8.2880076279744619E-001  5.6054116410638724E+000  1.4168640834622986E+001
       O  7.8816822674645675E+000  2.6545224408686479E+000  6.6735372942965814E+000
       H  2.1401795534236817E-001  2.9570513791826905E+000  4.3252951235664936E+000
       H  7.0334371031742355E+000  1.5993018525498209E-002  1.1025417781030983E+001
       H  8.5617627763706459E+000  2.7701632020106706E+000  1.4396029139886652E+001
       H  1.5332904409675736E+000  5.7075142360388789E+000  6.9111574219361191E+000
       H -1.2364644794780846E+000  5.6462652175489119E+000  4.3254676706721034E+000
       H  1.8791572551145197E-001  2.8518996262586862E+000  1.1015033068865959E+001
       H  1.0026005538730914E+001  9.7576849597903081E-002  1.4393928155753979E+001
       H  8.8035003677836716E+000  2.8957185016197426E+000  6.9114490407520597E+000
       H -7.8614211137419976E-001  2.8035169917355236E+000  5.4728896800952995E+000
       H -1.7891207580565329E+000  6.0095668911081050E+000  1.3460929719839813E+001
       H  9.6126672891993881E+000  3.0042397789222806E+000  1.3155534760838618E+001
       H  1.0959597337023045E+001  1.1242600220663948E-001  5.6751098733177558E+000
       H  8.0170475853760514E+000  6.2672797484407919E-002  5.4729377374044272E+000
       H  7.6877962643096776E-001  2.5915513327955835E+000  1.3459522541845670E+001
       H  7.2175748933743133E-001  5.5998759003082137E+000  1.3156343277790363E+001
       H  7.6301546043639901E+000  2.7559651015724835E+000  5.6727325104802810E+000
       Ca  3.6156879131914277E+000  1.4334009969804873E+000  3.3287757328551253E+000
       Ca  8.0072517535345078E+000  4.3027960139133050E+000  1.1229822797811293E+001
       Ca  5.1598778257664311E+000  4.3049258977516009E+000  1.5449229549350664E+001
       Ca  6.4504482671138677E+000  1.4327578220413364E+000  8.1314629597731489E+000
       S  8.0083134823895197E+000  4.3018079444544357E+000  2.6912386436897373E+000
       S  3.6164190439994424E+000  1.4343377439866747E+000  1.0919814327591270E+001
       S  6.4558513017687531E+000  1.4317689608241631E+000  1.5884520909049366E+001
       S  5.1686522399997017E+000  4.3012833318083201E+000  7.8903010596066778E+000
       O  1.7137525596020637E+000  2.9197809866158497E+000  3.1182305469383693E+000
       O  2.7588951570916165E+000  3.2469226599856280E-002  1.1182107265869993E+001
       O  6.9979422821700821E+000  2.5873570511723036E+000  1.5029862486396411E+001
       O  5.5880721787087948E+000  5.3887947890546952E+000  6.8228045864251410E+000
       O  8.6226855668987312E+000  5.6835743202804041E+000  3.1181284535565692E+000
       O  4.4757580559964820E+000  2.8358694148462242E+000  1.1181732813549921E+001
       O  2.3480448295573958E-001  2.7907751363675753E-001  1.5026422740693814E+001
       O  4.7487854933961149E+000  3.2140231370299279E+000  6.8227488633616842E+000
       O  3.5479796229424845E+000  3.7316415324330068E+000  1.9777395632642014E+000
       O  4.5815182592508856E+000  8.4841384477817661E-001  9.7229814878656491E+000
       O  5.3146668603516325E+000  2.0322287942385850E+000  1.6657924693940526E+001
       O  3.6763219451383256E+000  4.8021528140617802E+000  8.1224369009185899E+000
       O  6.7884936074139866E+000  4.8715842349419498E+000  1.9776293578818636E+000
       O  2.6506619432809715E+000  2.0193224625578559E+000  9.7230456711794560E+000
       O  1.9171447039246148E+000  8.2726478830116301E-001  1.6656549763839351E+001
       O  6.6612052553047354E+000  3.8003511171274313E+000  8.1226716562542283E+000
       O  4.9497155823669150E+000  2.6643305230950065E+000  4.4300542325828767E+000
       O  3.9605771622580552E+000  5.4843845641541034E+000  1.2582514022845336E+001
       O  3.8316598508820885E+000  3.0006736679110473E+000  1.4166927502327860E+001
       O  5.0285379620181452E+000  2.1293810813925160E-001  6.6744315040131452E+000
       O  2.2818794050567059E+000  2.0435532138748924E-001  4.4299988590850550E+000
       O  6.3761357008042463E+000  3.1175836668872736E+000  1.2583822589955215E+001
       O  6.5057875882495022E+000  5.6001399689937319E+000  1.4166138416549700E+001
       O  2.2028987831744984E+000  2.6550472160699110E+000  6.6732765472100137E+000
       H  5.8915070710374753E+000  2.9570363597587872E+000  4.3255655480312303E+000
       H  1.3577395926372990E+000  1.5261580368126641E-002  1.1022455400018677E+001
       H  2.8865509660135409E+000  2.7714443376261575E+000  1.4394729828500260E+001
       H  7.2126324038743643E+000  5.7074511284310470E+000  6.9111008756577785E+000
       H  4.4440228307101535E+000  5.6462600066915529E+000  4.3257106181870189E+000
       H  5.8671692979776919E+000  2.8516009238280318E+000  1.1016068886304826E+001
       H  4.3485328085647046E+000  9.8603369616754782E-002  1.4393828787170236E+001
       H  3.1247022186992157E+000  2.8955493692018059E+000  6.9117014312703215E+000
       H  4.8920789739234998E+000  2.8032366992703790E+000  5.4727528570752586E+000
       H  3.8897833419888115E+000  6.0092765291505108E+000  1.3459299986552498E+001
       H  3.9354556240078828E+000  3.0052061690847283E+000  1.3155949183947696E+001
       H  5.2807031885260827E+000  1.1231134357906429E-001  5.6749459529370103E+000
       H  2.3387834346077274E+000  6.2950261151665313E-002  5.4728032717975950E+000
       H  6.4454289047214379E+000  2.5936288816123318E+000  1.3461008977737745E+001
       H  6.3984980118596475E+000  5.5984197534670788E+000  1.3154525366278859E+001
       H  1.9510915775132469E+000  2.7560958951419336E+000  5.6725243558582381E+000
       Ca  1.0419141218077144E+000  7.1693731245284029E+000  3.3296305226300680E+000
       Ca  5.4327680854283731E+000  1.0036495545840767E+001  1.1231161788854344E+001
       Ca  2.6007578814275676E+000  1.0032093889031623E+001  1.5435648836957087E+001
       Ca  3.8767293500955602E+000  7.1680286814033956E+000  8.1292881770659182E+000
       S  5.4330224510267087E+000  1.0036594698733936E+001  2.6911528800980618E+000
       S  1.0409431544619245E+000  7.1683797389562285E+000  1.0919935090484687E+001
       S  3.8816459974370425E+000  7.1729719294721050E+000  1.5881601109907789E+001
       S  2.5937960930374482E+000  1.0036077274414906E+001  7.8903045419331805E+000
       O -8.5908426894706968E-001  8.6551391681507628E+000  3.1180037113019559E+000
       O  1.7915005182825211E-001  5.7665884225679740E+000  1.1180768494696297E+001
       O  4.4245781504136090E+000  8.3274248896416339E+000  1.5023308737572004E+001
       O  3.0151748512467407E+000  1.1124829740753265E+001  6.8249271208271081E+000
       O  6.0482706760544254E+000  1.1418678953484596E+001  3.1158925419079315E+000
       O  1.9003981634448484E+000  8.5700498800342455E+000  1.1181224959082510E+001
       O -2.3363959992791345E+000  6.0195063356871499E+000  1.5041353991159836E+001
       O  2.1739037519563316E+000  8.9488298067755530E+000  6.8228193981296927E+000
       O  9.7530972738073884E-001  9.4670202252277456E+000  1.9783220174208096E+000
       O  2.0074429785280041E+000  6.5831494858444151E+000  9.7248120548344463E+000
       O  2.7385718124460214E+000  7.7753002830377946E+000  1.6648759454682711E+001
       O  1.1016938987133491E+000  1.0538308762502663E+001  8.1221219707960426E+000
       O  4.2130356751954032E+000  1.0606944893501671E+001  1.9783575477261450E+000
       O  7.6216063569460701E-002  7.7572471851438252E+000  9.7244254980684737E+000
       O -6.6008791130734690E-001  6.5732187285863386E+000  1.6677568142200613E+001
       O  4.0870091128985546E+000  9.5362204553501311E+000  8.1224260244099753E+000
       O  2.3769854301492366E+000  8.3996618761966868E+000  4.4303668085073831E+000
       O  1.3796905998122055E+000  1.1218126543230287E+001  1.2582136296497033E+001
       O  1.2555389740839766E+000  8.7379077529186802E+000  1.4164512293866027E+001
       O  2.4548510596946258E+000  5.9488161822418766E+000  6.6731078686186223E+000
       O -2.9250972989025503E-001  5.9387071877587854E+000  4.4288864778249835E+000
       O  3.8027649990942947E+000  8.8569953647224366E+000  1.2583075141425725E+001
       O  3.9325306235071249E+000  1.1338669317542220E+001  1.4165777635001122E+001
       O -3.7101854632490067E-001  8.3902612736192985E+000  6.6730270345211151E+000
       H  3.3190795910451096E+000  8.6924359620349172E+000  4.3251822558412547E+000
       H -1.2070053182131952E+000  5.7517399781098728E+000  1.1012721261018083E+001
       H  3.1160072136718620E-001  8.5062067258746392E+000  1.4393185759492528E+001
       H  4.6379417625429156E+000  1.1443138182638579E+001  6.9113188685199605E+000
       H  1.8699607775944187E+000  1.1381584827713178E+001  4.3255137684174665E+000
       H  3.2952562366686804E+000  8.5865263644251879E+000  1.1017481897785592E+001
       H  1.7758552810129304E+000  5.8316726590822139E+000  1.4399379319340785E+001
       H  5.5048860275197387E-001  8.6310622058752067E+000  6.9119858450165230E+000
       H  2.3188770273705201E+000  8.5390551876236387E+000  5.4729810899957601E+000
       H  1.3233250170818633E+000  1.1747120692609681E+001  1.3458030584474448E+001
       H  1.3603963168632491E+000  8.7389542593257001E+000  1.3154158865942225E+001
       H  2.7063871487215274E+000  5.8469118691408575E+000  5.6722463659498477E+000
       H -2.3537039732883352E-001  5.7998407880265459E+000  5.4716300500470521E+000
       H  3.8729303122195460E+000  8.3274221015051086E+000  1.3458718083340321E+001
       H  3.8296794211192373E+000  1.1334454424177464E+001  1.3155104836188203E+001
       H -6.2300581267970390E-001  8.4915386349589337E+000  5.6723532053403423E+000
       Ca  6.7209877300437304E+000  7.1693773055754191E+000  3.3297475256550362E+000
       Ca -2.4571835849610515E-001  1.0037174864361255E+001  1.1230274013767481E+001
       Ca -3.0951242639076328E+000  1.0047436354516551E+001  1.5418408097273371E+001
       Ca -1.7953996584957441E+000  7.1696577830317292E+000  8.1295094619763777E+000
       S -2.4483149589872019E-001  1.0036914780741983E+001  2.6911648419242091E+000
       S  6.7211061612851850E+000  7.1681293946992124E+000  1.0922797744382727E+001
       S -1.7961207217322870E+000  7.1743090559472646E+000  1.5894127452654496E+001
       S -3.0855946474719613E+000  1.0036417451928433E+001  7.8903398536819376E+000
       O  4.8183870794709582E+000  8.6547711635523417E+000  3.1179218832185289E+000
       O  5.8608783064324763E+000  5.7657285314685867E+000  1.1182200009345314E+001
       O -1.2580094962504453E+000  8.3263652586409691E+000  1.5035553238556266E+001
       O -2.6643126087061666E+000  1.1125118781894916E+001  6.8249976673172181E+000
       O  3.7079363727177539E-001  1.1419020502152158E+001  3.1158631788486750E+000
       O  7.5821783085790067E+000  8.5704763576555134E+000  1.1182128105148749E+001
       O  3.3375298992158475E+000  6.0152713233368091E+000  1.5028917979956260E+001
       O -3.5054596477509827E+000  8.9491792100028711E+000  6.8226556734708224E+000
       O  6.6533276696904320E+000  9.4668474410791550E+000  1.9783660066100297E+000
       O  7.6869858411615928E+000  6.5852236518603284E+000  9.7279269070277401E+000
       O -2.9328329194461320E+000  7.7775599637897850E+000  1.6677452163676151E+001
       O -4.5778929224081741E+000  1.0538536996182298E+001  8.1223148676882069E+000
       O -1.4649672081442908E+000  1.0607143303465943E+001  1.9784174368759999E+000
       O  5.7561367433156914E+000  7.7557524871728400E+000  9.7294406434442049E+000
       O  5.0242084734426768E+000  6.5706335266437232E+000  1.6649703943288568E+001
       O -1.5925017832346129E+000  9.5366974186504301E+000  8.1222563317947412E+000
       O -3.3031678173632666E+000  8.3999052501346831E+000  4.4301282453908710E+000
       O -4.2956363505788930E+000  1.1217370346754057E+001  1.2583284443299636E+001
       O  6.9333795890584247E+000  8.7309932755404951E+000  1.4165325172391848E+001
       O  8.1341105531519400E+000  5.9493154430277881E+000  6.6732530478990775E+000
       O  5.3876233890892511E+000  5.9385087385795980E+000  4.4287002529925337E+000
       O -1.8783440811812617E+000  8.8570138218272643E+000  1.2585402857709587E+001
       O -1.7442860225553745E+000  1.1339444642593490E+001  1.4163074799432843E+001
       O  5.3077909822530760E+000  8.3897098181802097E+000  6.6733410247366010E+000
       H -2.3613851402286090E+000  8.6924211954041706E+000  4.3254572001363618E+000
       H  4.4692168871242552E+000  5.7516050797705178E+000  1.1015887370405480E+001
       H  5.9868561246056062E+000  8.5052187779613675E+000  1.4395310266592274E+001
       H -1.0413239274775425E+000  1.1443232562851545E+001  6.9115592983807188E+000
       H -3.8075743318937416E+000  1.1381628184940766E+001  4.3258150794781454E+000
       H -2.3850863419313693E+000  8.5870614024856824E+000  1.1014896635156422E+001
       H  7.4493382297563553E+000  5.8305309639877612E+000  1.4396976494106980E+001
       H  6.2293635082330105E+000  8.6311319470807675E+000  6.9117453799115589E+000
       H -3.3608876002901806E+000  8.5387178033591749E+000  5.4729067698663076E+000
       H -4.3588378869897628E+000  1.1749546147214646E+001  1.3457364307194108E+001
       H  7.0388698781634123E+000  8.7378654224028782E+000  1.3154107072924383E+001
       H  8.3854286775540423E+000  5.8468684275929999E+000  5.6724188877009123E+000
       H  5.4444383118877404E+000  5.8001364999566194E+000  5.4715733389256824E+000
       H -1.8059463689810353E+000  8.3269943638719699E+000  1.3459559225272823E+001
       H -1.8482950365766051E+000  1.1335878215033411E+001  1.3152184749406343E+001
       H  5.0558957988735171E+000  8.4914563016431988E+000  5.6726592309787032E+000
       O  9.6302547079776879E+000  2.4421117276584337E+000  3.6677899508299340E+001
       H  8.6820313216360887E+000  2.1713271679435011E+000  3.6631411169650960E+001
       H  9.6630854420279348E+000  3.4087747719434107E+000  3.6764022385752448E+001
       O  7.3784526214249588E+000  1.0766901888733695E+000  3.3238495138237504E+001
       H  8.5458854793243244E+000  1.1311532957796588E+000  3.3047290063339489E+001
       H  6.3876595346763301E+000  1.6830429211302032E+000  3.3312951587903918E+001
       O  1.7871845257200667E+000  5.1384025859306233E+000  2.6323161794795180E+001
       H  2.4500867918082099E+000  5.0628761475078035E+000  2.7048674307122916E+001
       H  9.9052485932390189E-001  5.5296438564762527E+000  2.6778451965605125E+001
       O  7.0141511648247414E+000  7.8512317237325062E+000  3.0166360610207732E+001
       H  7.9703286577311117E+000  7.7220957407277782E+000  3.0375104339841403E+001
       H  6.3414758241025782E+000  8.2602714977457268E+000  3.0689025758367666E+001
       O  6.8061052051667499E+000  1.5412498743102867E+000  4.1060695858304264E+001
       H  5.8487927060059839E+000  2.1803631501461651E+000  4.1061430213871240E+001
       H  7.7858526521696447E+000  2.2339751275003228E+000  4.1097299600485179E+001
       O  7.7602831772323553E+000  4.1373986937376488E+000  2.1867665337400918E+001
       H  7.4438373506206252E+000  3.2139848419029224E+000  2.1964315292614831E+001
       H  6.9350772906746982E+000  4.6296029672392800E+000  2.1688649845019160E+001
       O  7.4247756428548317E-001  9.7933234236228319E+000  4.1235676046961366E+001
       H  2.0259972316170352E+000  9.9476648195818669E+000  4.1194796621767779E+001
       H  1.5027576385509669E-001  1.0824068044750717E+001  4.1166182281012176E+001
       O  5.5798876529357111E+000  5.7020681371878172E+000  2.8987092875006290E+001
       H  5.2942956877048024E+000  6.1638530020431075E+000  2.8155884147140732E+001
       H  5.0081840179097057E+000  4.8790028147965483E+000  2.8989758199665303E+001
       O  3.8564843452435809E+000  6.1009356593143389E+000  2.0960047689941380E+001
       H  4.6772808837987521E+000  6.4623422892078626E+000  2.1352740313318773E+001
       H  3.1571364850479724E+000  6.3441036172080532E+000  2.1610749229613237E+001
       O  3.7008574929404352E+000  7.6189117290303363E+000  3.2074244421041008E+001
       H  4.5011229654392872E+000  7.5482908796792731E+000  3.2774701051221129E+001
       H  2.9474444111406211E+000  7.6667952001672353E+000  3.2877079302209680E+001
       O  4.0156996215513212E+000  7.3767584214835189E+000  3.8070965368837051E+001
       H  3.8235694919320569E+000  6.2343141275956411E+000  3.8166961308369167E+001
       H  2.8795020213478408E+000  7.7033514506909970E+000  3.8101700188762486E+001
       O  2.3907555809672898E+000  8.6940030305691511E+000  2.0982486622027942E+001
       H  1.8386158171518372E+000  9.0595263612570438E+000  2.1711381136708649E+001
       H  2.9560200836876978E+000  9.4640672810163373E+000  2.0743984761616137E+001
       O -2.2789723065612355E+000  6.7180456908439838E+000  3.8082162875736820E+001
       H -1.8868695400889708E+000  7.0569711236494035E+000  3.9701186958200964E+001
       H -1.2926926532070966E+000  7.2876243556151303E+000  3.8115952568939520E+001
       O -2.6377198795586843E+000  1.0827300945687377E+001  2.3610816391046352E+001
       H -1.8027079007002005E+000  1.1259196987541543E+001  2.3928136351880106E+001
       H -2.8138640874968179E+000  1.0152225802826987E+001  2.4305658363106517E+001
       O  5.5831808380426118E+000  4.3606434540026978E-001  3.5908502474340501E+001
       H  5.0739693864989839E+000  6.7951492628426924E-001  3.6658291903473838E+001
       H  5.8258703544204264E+000  2.8831789036514260E-001  3.8185518304018792E+001
       O -2.6870657367282558E+000  8.0666806568183844E+000  3.4502029837985134E+001
       H -3.5690825157623092E+000  8.6281035659665974E+000  3.4431708700116829E+001
       H -2.3738961565426933E+000  8.1976802695153221E+000  3.3242315616746033E+001
       O  3.8560448120176742E+000  3.5838372332677650E+000  3.5677881301440372E+001
       H  4.2327797161090066E+000  3.3472681577515231E+000  3.6572903248078340E+001
       H  3.2683268231885574E+000  2.8717900539854062E+000  3.5772240688735998E+001
       O -1.1360239264358636E+000  5.7063473656218395E+000  3.1851790871962621E+001
       H -7.4055802284888594E-001  4.8391479085971065E+000  3.2070004793865458E+001
       H -2.0943828423851181E+000  5.4422692243998512E+000  3.1909732307746037E+001
       O  3.1133816446599090E+000  1.9383341446386624E+000  2.2242572888891825E+001
       H  2.3302558094276158E+000  2.5260887228002162E+000  2.2242021333755922E+001
       H  3.4161993958605170E+000  1.9931732331690761E+000  2.1312769359024252E+001
       O  4.4204257292532132E+000  1.0858428548475096E+001  2.5548521413247684E+001
       H  5.3016155384841595E+000  1.0578435552029672E+001  2.5867074730647541E+001
       H  3.8497728829024460E+000  1.0752328539596339E+001  2.6333722283172413E+001
       N  9.9887217931327879E+000  2.6915104161960732E+000  2.5558603722006715E+001
       H -3.9185398219237583E-001  2.6578864474355623E+000  2.5240399597782737E+001
       H  9.6440782064950916E+000  3.6177668888344172E+000  2.5270796479988753E+001
       H  9.4954530307930760E+000  2.0087521649772917E+000  2.4967094415507059E+001
       N  5.6509969307204182E+000  1.1978017637694423E+000  2.6652445428796923E+001
       H  6.4658014748616690E+000  5.7604727017342672E-001  2.6589929237466425E+001
       H  6.0183723767687782E+000  2.1434137143813650E+000  2.6466400805371293E+001
       H  5.0888729514094102E+000  9.6235645627570476E-001  2.5820971073224204E+001
       N  1.2253224491877521E+000  3.8102983909728736E+000  3.9614901661322740E+001
       H  8.1308869146265839E-001  4.7450902865690363E+000  3.9703493882305430E+001
       H  3.8177846183131209E-001  3.2325615217485733E+000  3.9718589616407122E+001
       H  1.1778091375371909E+000  3.9954929158266377E+000  3.8193920363125343E+001
       N -4.8322278963288277E+000  1.0495227715374963E+001  4.1099271178069870E+001
       H -4.6276011807305668E+000  1.0678714943260374E+001  4.2580791839853930E+001
       H  6.7710029197743360E+000  9.3582964438177143E+000  4.1124521681306327E+001
       H -3.6498091613634838E+000  1.1441485319291708E+001  4.1061173681677793E+001
       H  5.4877731734643174E+000  1.1136029225518909E+001  4.1146133082827085E+001
       N  1.1625373289516217E+000  3.0889267335222601E+000  2.9486416304558070E+001
       H  9.3912506596111167E-002  3.2959571859000119E+000  2.9922601390376872E+001
       H  1.5487018294813915E+000  2.0744138878080376E+000  2.9721124977673231E+001
       H  1.9955065910116716E+000  3.8458640183916004E+000  2.9671083099850105E+001
       H  1.0322638371423329E+000  3.0852312114786966E+000  2.8426596963464931E+001
       N -1.3438094405125831E+000  7.9329258630395723E+000  2.1463516815202990E+001
       H -4.5264141562759524E-001  8.1709940770547966E+000  2.1936795081316287E+001
       H -1.4791234434951992E+000  6.9046185665558459E+000  2.1490884598380973E+001
       H -1.3140916684738182E+000  8.2373218882522306E+000  2.0471033411588557E+001
       H -2.1101649264581948E+000  8.4216698812527166E+000  2.1970695281488176E+001
       N  8.9882416209524578E+000  5.3275773311938268E+000  2.8579120935682113E+001
       H -1.6841654588612278E+000  5.8715362936351951E+000  2.9140701795078289E+001
       H -1.8553241941791021E+000  4.8357784333304012E+000  2.7821673014649441E+001
       H  8.3592405753316790E+000  6.0072734318144176E+000  2.8098942750200145E+001
       H  8.5038665563217215E+000  4.6551440425423998E+000  2.9222069190049115E+001
       P -1.4725486757087973E+000  8.1504234818950234E+000  2.6723224144483986E+001
       O -8.6745633322256155E-001  9.0020174937283493E+000  2.5594446987531452E+001
       O -9.1595523499392062E-001  8.4669762682424476E+000  2.8126195831757055E+001
       O -1.3533054367974577E+000  6.6302928979710964E+000  2.6442992284849190E+001
       O -3.1433914018721310E+000  8.4071125895857559E+000  2.6701715320578934E+001
       H  7.3517036843590411E+000  8.8565087144404000E+000  2.6786373921298086E+001
       P  6.9863540727200872E+000  5.0445977994287743E+000  4.1244827282167137E+001
       O  5.1942302270849208E+000  5.4758212770746857E+000  4.1264587874324036E+001
       O  7.7073921575400268E+000  4.5560195971846982E+000  4.2511368526306676E+001
       O  6.6256701978769454E+000  6.7920918503468277E+000  4.1155205929297360E+001
       O  7.4289597311090585E+000  4.5633143580125681E+000  3.9684535019048532E+001
       H  7.1184911986148389E+000  5.0604233088143227E+000  3.8058954188134400E+001
     &END COORD
     &KIND "Ca"
       BASIS_SET "ORB" "DZVP-MOLOPT-PBE-GTH-q10"
       POTENTIAL "GTH-PBE-q10"
       &POTENTIAL
         4 6 0 0
           3.6524646201469002E-001 2 -4.1804006669854701E+000 -1.6887849202464000E+000
         3
           2.8988798370645003E-001 2  2.0501148195450281E+001 -7.1297848893034903E+000
                                                               9.1432814216561002E+000
           3.2689189928945001E-001 2  5.8028930581248899E+000 -4.2875330696042002E-001
                                                               4.8639233785097002E-001
           6.7993690959315001E-001 1  5.8464597670689997E-002
         # Potential name: GTH-PBE-Q10 for element symbol: CA
         # Potential read from the potential filename: POTENTIAL_UZH
       &END POTENTIAL
     &END KIND
     &KIND "O"
       BASIS_SET "ORB" "DZVP-MOLOPT-PBE-GTH-q6"
       POTENTIAL "GTH-PBE-q6"
       &POTENTIAL
         2 4 0 0
           2.4446328480160001E-001 2 -1.6675482223638369E+001  2.4890859824178002E+000
         1
           2.2097110943470999E-001 1  1.8334468664062850E+001
         # Potential name: GTH-PBE-Q6 for element symbol: O
         # Potential read from the potential filename: POTENTIAL_UZH
       &END POTENTIAL
     &END KIND
     &KIND "S"
       BASIS_SET "ORB" "DZVP-MOLOPT-PBE-GTH-q6"
       POTENTIAL "GTH-PBE-q6"
       &POTENTIAL
         2 4 0 0
           4.2011499303897998E-001 1 -5.9747803862195896E+000
         2