 # Version information for this restart file 
 # current date 2026-01-22 13:46:27.727
 # current working dir /mnt/cp2k
 # Program compiled at                                       2026-01-16 05:48:39
 # Program compiled on                                                          
 # Program compiled for                                                   x86_64
 # Source code revision number                                        4e96ea1a00
 &GLOBAL
   EXTENDED_FFT_LENGTHS T
   PRINT_LEVEL LOW
   PROJECT_NAME "gypsum_slab_nh4_geoopt"
   RUN_TYPE GEO_OPT
 &END GLOBAL
 &MOTION
   &GEO_OPT
     TYPE MINIMIZATION
     OPTIMIZER BFGS
     MAX_ITER 200
     MAX_DR  3.0000000000000001E-003
     MAX_FORCE  4.4999999999999999E-004
     RMS_DR  1.5000000000000000E-003
     RMS_FORCE  2.9999999999999997E-004
     STEP_START_VAL 5
     &BFGS
       TRUST_RADIUS  2.5000000000000000E-001
     &END BFGS
   &END GEO_OPT
   &PRINT
     &TRAJECTORY SILENT
       FORMAT XMOL
       &EACH
         GEO_OPT 1
       &END EACH
     &END TRAJECTORY
     &RESTART SILENT
       BACKUP_COPIES 1
       &EACH
         GEO_OPT 5
       &END EACH
     &END RESTART
     &RESTART_HISTORY OFF
     &END RESTART_HISTORY
   &END PRINT
 &END MOTION
 &FORCE_EVAL
   METHOD QS
   &DFT
     BASIS_SET_FILE_NAME BASIS_MOLOPT_UZH
     POTENTIAL_FILE_NAME POTENTIAL_UZH
     UKS T
     MULTIPLICITY 1
     CHARGE 0
     &SCF
       MAX_SCF 150
       EPS_SCF  9.9999999999999995E-007
       SCF_GUESS ATOMIC
       &OT T
         MINIMIZER DIIS
         STEPSIZE  1.0000000000000001E-001
         PRECONDITIONER FULL_SINGLE_INVERSE
         PRECOND_SOLVER INVERSE_UPDATE
         ENERGY_GAP  1.0000000000000001E-001
       &END OT
       &OUTER_SCF T
         EPS_SCF  9.9999999999999995E-007
         MAX_SCF 30
       &END OUTER_SCF
       &PRINT
         &RESTART SILENT
           BACKUP_COPIES 1
           &EACH
             GEO_OPT 1
           &END EACH
         &END RESTART
       &END PRINT
     &END SCF
     &QS
       EPS_DEFAULT  9.9999999999999998E-013
       EPS_PGF_ORB  1.0000000000000000E-014
       EXTRAPOLATION ASPC
       EXTRAPOLATION_ORDER 5
       METHOD GPW
     &END QS
     &MGRID
       NGRIDS 5
       CUTOFF  4.2000000000000000E+002
       REL_CUTOFF  6.0000000000000000E+001
     &END MGRID
     &XC
       DENSITY_CUTOFF  1.0000000000000000E-010
       GRADIENT_CUTOFF  1.0000000000000000E-010
       TAU_CUTOFF  1.0000000000000000E-010
       &XC_GRID
         XC_SMOOTH_RHO SPLINE3
         XC_DERIV SPLINE3_SMOOTH
       &END XC_GRID
       &XC_FUNCTIONAL NO_SHORTCUT
         &PBE T
           PARAMETRIZATION REVPBE
           SCALE_X  1.0000000000000000E+000
           SCALE_C  1.0000000000000000E+000
         &END PBE
       &END XC_FUNCTIONAL
       &VDW_POTENTIAL
         POTENTIAL_TYPE PAIR_POTENTIAL
         &PAIR_POTENTIAL
           R_CUTOFF  1.5000000000000002E+001
           D4_CUTOFF  3.0000000000000004E+001
           TYPE DFTD4
           REFERENCE_FUNCTIONAL "revPBE"
         &END PAIR_POTENTIAL
       &END VDW_POTENTIAL
     &END XC
     &POISSON
       POISSON_SOLVER MT
       PERIODIC XY
     &END POISSON
     &PRINT
       &E_DENSITY_CUBE OFF
       &END E_DENSITY_CUBE
     &END PRINT
   &END DFT
   &SUBSYS
     &CELL
       A  1.1358000000000001E+001  0.0000000000000000E+000  0.0000000000000000E+000
       B -5.1479508240459984E+000  1.1470885982880008E+001  0.0000000000000000E+000
       C  0.0000000000000000E+000  0.0000000000000000E+000  6.0005230774965341E+001
       PERIODIC XY
       MULTIPLE_UNIT_CELL 1 1 1
     &END CELL
     &COORD
       Ca  9.2949446743537685E+000  1.4340207951117714E+000  2.9535952104126530E+000
       Ca  2.3282961862866767E+000  4.3016064507313638E+000  1.1072848222246611E+001
       Ca -5.0752446514215455E-001  4.2978040332675000E+000  1.5619177508481606E+001
       Ca  7.7576674391132006E-001  1.4337740433522124E+000  8.3932590069035538E+000
       S  2.3286184065892130E+000  4.3014993066196361E+000  2.8385565625326317E+000
       S  9.2947878103969401E+000  1.4338816340486404E+000  1.0549602989463294E+001
       S  7.7629980370360019E-001  1.4335852574708203E+000  1.5713172401422913E+001
       S -5.1065809352521152E-001  4.3016386299166252E+000  8.0605774151967964E+000
       O  7.5657831230987540E+000  3.1176691490338406E+000  3.6153361542998677E+000
       O  8.7609257546412049E+000  2.5843473618152250E-002  1.0928833454117846E+001
       O  1.2026167396549836E+000  2.5830640791365456E+000  1.4868771477249382E+001
       O -8.6383761702292644E-002  5.4197219691079237E+000  7.1711187706028996E+000
       O  2.7707325472732571E+000  5.4855613367487557E+000  3.6153576803063325E+000
       O  9.8288689126285202E+000  2.8418935406872259E+000  1.0928791251378424E+001
       O  6.0290241936406330E+000  2.8391828493566640E-001  1.4869084342184905E+001
       O -9.3475449457016635E-001  3.1833805546287595E+000  7.1712855153807631E+000
       O  9.1847190151519360E+000  3.7913171457084101E+000  2.0953286499319286E+000
       O  1.0369100652673600E+001  9.7278512872123502E-001  9.6361835451586249E+000
       O -3.5006744088168684E-001  1.9359821846265239E+000  1.6531845189322468E+001
       O -1.7188290936472090E+000  4.7967487095974475E+000  8.7669550833533378E+000
       O  1.1518159717350309E+000  4.8118938554817294E+000  2.0953021371129679E+000
       O  8.2204400775774911E+000  1.8950889130782553E+000  9.6362793968775460E+000
       O  7.5812417866284987E+000  9.3103022604757213E-001  1.6532376630402641E+001
       O  6.9743400895858387E-001  3.8064409669376604E+000  8.7669595444771407E+000
       O -7.3186785060787052E-001  2.6423446242854487E+000  4.5059687796138315E+000
       O -1.9558500765127291E+000  5.5090734095309033E+000  1.2236412892218549E+001
       O  9.5078533245707320E+000  3.0994203574835080E+000  1.4099874580233269E+001
       O  1.0823827928127001E+001  2.3019435972718200E-001  6.6043868610730714E+000
       O  7.9630991032275507E+000  2.2513605482784713E-001  4.5061726612505337E+000
       O  9.3460902534494006E-001  3.0944516406452132E+000  1.2236323705832906E+001
       O  8.2728731109845521E-001  5.5038075108119209E+000  1.4102947416530284E+001
       O  7.7659880551061775E+000  2.6377830362358070E+000  6.6043303603124572E+000
       H  1.3937844462928359E-001  2.8983588730393275E+000  4.1526974368396212E+000
       H  7.0809528156992272E+000  2.0996256273701060E-002  1.1618465153199866E+001
       H  8.6268531684062637E+000  2.8332888899673376E+000  1.4416613657567257E+001
       H  1.6270739197785600E+000  5.7017013814801736E+000  6.7253969431518925E+000
       H -1.1603316530106496E+000  5.7048540851931069E+000  4.1532484053694274E+000
       H  1.4965715444943684E-001  2.8466444726291762E+000  1.1617512296105129E+001
       H  9.9622743751753955E+000  3.4059161106194363E-002  1.4416456922815113E+001
       H  8.7094838081231725E+000  2.9014918213614793E+000  6.7254997743112561E+000
       H -7.6256242959809084E-001  2.8125162259280461E+000  5.4624630627691637E+000
       H -2.0358836029286680E+000  5.7374276790642256E+000  1.3144036542749296E+001
       H  9.5692745393310208E+000  2.9129912503434086E+000  1.3151811703462439E+001
       H  1.0852374171786336E+001  5.0351284685409226E-002  5.6552829457665750E+000
       H  7.9944564859604208E+000  5.5134457188346003E-002  5.4634731712101363E+000
       H  1.0143102148856464E+000  2.8656044577166329E+000  1.3143237288520139E+001
       H  7.6880814365873940E-001  5.6900612471228511E+000  1.3156005150237938E+001
       H  7.7367843651017880E+000  2.8173654101381520E+000  5.6546278348577985E+000
       Ca  3.6159436125785507E+000  1.4340140764868494E+000  2.9537029441520630E+000
       Ca  8.0068945435797776E+000  4.3013766573584027E+000  1.1072881520028336E+001
       Ca  5.1658780830145092E+000  4.3040216503870381E+000  1.5623444387012377E+001
       Ca  6.4547712766891774E+000  1.4337469406970949E+000  8.3932855937396589E+000
       S  8.0079139789065330E+000  4.3017168248891196E+000  2.8385502402699676E+000
       S  3.6158205441125242E+000  1.4338744548381459E+000  1.0549594357533692E+001
       S  6.4553253196585123E+000  1.4337951360667491E+000  1.5713075498451857E+001
       S  5.1683481337740300E+000  4.3016392102192880E+000  8.0605603106260411E+000
       O  1.8858407188552508E+000  3.1176552557737809E+000  3.6153477549371584E+000
       O  3.0819797145839440E+000  2.5796727642703899E-002  1.0928856401987694E+001
       O  6.8821637323782854E+000  2.5833912434617026E+000  1.4868971853508832E+001
       O  5.5926153685070927E+000  5.4197091947024090E+000  7.1710768867729939E+000
       O  8.4506581291088736E+000  5.4855623429551645E+000  3.6153788378581044E+000
       O  4.1499031644605324E+000  2.8418363165324907E+000  1.0928781692503943E+001
       O  3.4961048194445349E-001  2.8408235611247767E-001  1.4868794309502729E+001
       O  4.7442906048360918E+000  3.1833765302814743E+000  7.1712509401695135E+000
       O  3.5056141108226369E+000  3.7912390577759236E+000  2.0954652773962565E+000
       O  4.6900745948058864E+000  9.7266293639769097E-001  9.6361658783678781E+000
       O  5.3289790662117582E+000  1.9353588443976000E+000  1.6532525619393496E+001
       O  3.9602022334698139E+000  4.7967672138252073E+000  8.7669311103233465E+000
       O  6.8309116809949764E+000  4.8119724568307882E+000  2.0954435921450179E+000
       O  2.5414231014710884E+000  1.8949725490142200E+000  9.6362768505482066E+000
       O  1.9027268639530488E+000  9.3091478761769941E-001  1.6532139858922573E+001
       O  6.3764201869518926E+000  3.8064333011149749E+000  8.7669641930507449E+000
       O  4.9465035189720403E+000  2.6421081435278650E+000  4.5060140917052536E+000
       O  3.7230484605685623E+000  5.5089038701812036E+000  1.2236719458840934E+001
       O  3.8296522465019773E+000  3.0987686074358685E+000  1.4099905041034624E+001
       O  5.1448285244232856E+000  2.3020216303973423E-001  6.6043906512753932E+000
       O  2.2847123957885613E+000  2.2537714656772848E-001  4.5062117345999688E+000
       O  6.6137190212532326E+000  3.0943519309130663E+000  1.2236315689324892E+001
       O  6.5061063437784004E+000  5.5027634895947131E+000  1.4102208751583790E+001
       O  2.0869819481198730E+000  2.6377646590731083E+000  6.6043393671597652E+000
       H  5.8176426792441536E+000  2.8983383670605805E+000  4.1529490769901170E+000
       H  1.4019689616506175E+000  2.1095848706580326E-002  1.1618419222078243E+001
       H  2.9484860566401090E+000  2.8337474866058385E+000  1.4416321968264212E+001
       H  7.3060709681821816E+000  5.7016983889832744E+000  6.7253890747420053E+000
       H  4.5193892438455521E+000  5.7048776188681600E+000  4.1534734537080027E+000
       H  5.8286786011061613E+000  2.8467373125994393E+000  1.1617569713095293E+001
       H  4.2828009766980086E+000  3.4353559634553422E-002  1.4416209976902808E+001
       H  3.0304717832969956E+000  2.9014944829871219E+000  6.7254857835239905E+000
       H  4.9165605653451223E+000  2.8125460446968988E+000  5.4624399992519663E+000
       H  3.6430633571552389E+000  5.7376542073159289E+000  1.3144465944010982E+001
       H  3.8899420094645625E+000  2.9129959823900813E+000  1.3151752479127431E+001
       H  5.1733768901467965E+000  5.0347797743825265E-002  5.6552908318727031E+000
       H  2.3153330135750378E+000  5.5102265400950888E-002  5.4634377469573066E+000
       H  6.6931611992752993E+000  2.8656447357381163E+000  1.3143258810779667E+001
       H  6.4477817777258801E+000  5.6903576328919794E+000  1.3155600612982166E+001
       H  2.0577913743082146E+000  2.8173706965773997E+000  5.6546459006018681E+000
       Ca  1.0416106531735254E+000  7.1692777072141745E+000  2.9541506823549315E+000
       Ca  5.4345897099629692E+000  1.0037466273058234E+001  1.1072071987786881E+001
       Ca  2.5968581543055227E+000  1.0034905424779131E+001  1.5621276810925542E+001
       Ca  3.8820338664977552E+000  7.1696921800304052E+000  8.3947671710957419E+000
       S  5.4334313262012648E+000  1.0036474416557262E+001  2.8385199318467187E+000
       S  1.0419411803461285E+000  7.1695925636408919E+000  1.0550651094852016E+001
       S  3.8808691540318163E+000  7.1688766937930586E+000  1.5713197471979907E+001
       S  2.5944379946836862E+000  1.0037413532938338E+001  8.0602189182741206E+000
       O -6.8741418080108030E-001  8.8524952775235874E+000  3.6151470875491847E+000
       O  5.0683003313930497E-001  5.7621849577882092E+000  1.0929814424497909E+001
       O  4.3075649331637766E+000  8.3181556075494623E+000  1.4868148846278983E+001
       O  3.0178297305727981E+000  1.1155122221391967E+001  7.1691881414780836E+000
       O  5.8761193353157655E+000  1.1220998328281929E+001  3.6139646647517840E+000
       O  1.5757102396314504E+000  8.5784696506150873E+000  1.0928832637275491E+001
       O -2.2232224585200608E+000  6.0196724770134988E+000  1.4869104061370891E+001
       O  2.1698535947908142E+000  8.9194692487353926E+000  7.1707432001936926E+000
       O  9.3206973966759199E-001  9.5271069045907026E+000  2.0956377811043878E+000
       O  2.1156795947187961E+000  6.7073789136614561E+000  9.6370269130109456E+000
       O  2.7543549012560957E+000  7.6732679553134338E+000  1.6530444745859985E+001
       O  1.3863021772818382E+000  1.0531780528864024E+001  8.7670839092481039E+000
       O  4.2567913327732558E+000  1.0547678544714708E+001  2.0955940668282076E+000
       O -3.2830168184559416E-002  7.6290226046266856E+000  9.6369354861165970E+000
       O -6.7316432088469280E-001  6.6696213830965441E+000  1.6537065541392135E+001
       O  3.8018539945364616E+000  9.5411133562075197E+000  8.7670566975225626E+000
       O  2.3731455827847352E+000  8.3777323514438375E+000  4.5059671820270095E+000
       O  1.1482564001345199E+000  1.1243657172062736E+001  1.2235312935964956E+001
       O  1.2550171182074847E+000  8.8346934132524666E+000  1.4099582243952964E+001
       O  2.5701524900409538E+000  5.9650889771224378E+000  6.6042631986174829E+000
       O -2.8956774858135370E-001  5.9610041935171401E+000  4.5057743892685185E+000
       O  4.0401051136669492E+000  8.8300875493122213E+000  1.2236290576306583E+001
       O  3.9336242841074784E+000  1.1239907965910010E+001  1.4100053223279955E+001
       O -4.8685822129956596E-001  8.3732987640640726E+000  6.6043390781116837E+000
       H  3.2443779812755102E+000  8.6338304640408179E+000  4.1527489707194523E+000
       H -1.1707318701373890E+000  5.7564526100728983E+000  1.1617094468495043E+001
       H  3.7420127415292725E-001  8.5688219905251017E+000  1.4416192457075992E+001
       H  4.7324016446480774E+000  1.1437146660328107E+001  6.7250608628869779E+000
       H  1.9439112922825577E+000  1.1440232677462731E+001  4.1522889335634234E+000
       H  3.2550452467017696E+000  8.5821227286109742E+000  1.1617966706906536E+001
       H  1.7095835119141152E+000  5.7695301992839187E+000  1.4415856374420411E+001
       H  4.5664053112385283E-001  8.6369180985510674E+000  6.7255942400960764E+000
       H  2.3424776396228442E+000  8.5479722658077240E+000  5.4624495705149849E+000
       H  1.0703490227983934E+000  1.1473170378733313E+001  1.3142391202755421E+001
       H  1.3162839039966707E+000  8.6483794779973451E+000  1.3151519100219463E+001
       H  2.5996924566262565E+000  5.7857797271772107E+000  5.6546703608065494E+000
       H -2.5924397983990510E-001  5.7905783322346522E+000  5.4622204644568981E+000
       H  4.1190250754712237E+000  8.6009709291671896E+000  1.3143263350418316E+001
       H  3.8724331237237521E+000  1.1425552795100939E+001  1.3151851528565468E+001
       H -5.1626791595558175E-001  8.5527918602383330E+000  5.6546160358244686E+000
       Ca  6.7206182219877801E+000  7.1692935554685997E+000  2.9542162230548015E+000
       Ca -2.4391944061053450E-001  1.0037647747518621E+001  1.1072115746774289E+001
       Ca -3.0878332858909805E+000  1.0041585535123833E+001  1.5615156116028130E+001
       Ca -1.7969581926865135E+000  7.1696700753703260E+000  8.3946712315511469E+000
       S -2.4528563351993643E-001  1.0036701766807953E+001  2.8385218040550870E+000
       S  6.7210283204603485E+000  7.1695668395645047E+000  1.0550644456792440E+001
       S -1.7979363898286076E+000  7.1692532781314595E+000  1.5713756216807420E+001
       S -3.0845537115594426E+000  1.0037412675302710E+001  8.0602191430748196E+000
       O  4.9906512451527005E+000  8.8524958595429180E+000  3.6151791374352586E+000
       O  6.1861042404965563E+000  5.7621413721932973E+000  1.0929820428406133E+001
       O -1.3718093626980192E+000  8.3191025203803886E+000  1.4870346280229569E+001
       O -2.6611567927151345E+000  1.1155091251028145E+001  7.1691519566134261E+000
       O  1.9804026380192510E-001  1.1221010048268191E+001  3.6139939170266699E+000
       O  7.2549671181009554E+000  8.5784168794455038E+000  1.0928840987782680E+001
       O  3.4545402651317083E+000  6.0201325933208771E+000  1.4866584553998695E+001
       O -3.5091199390864252E+000  8.9194837957931217E+000  7.1707137744313796E+000
       O  6.6109871821045427E+000  9.5270304828410843E+000  2.0957755154392537E+000
       O  7.7947938655244871E+000  6.7074041279446295E+000  9.6370041876548260E+000
       O -2.9213734725857967E+000  7.6724942493412973E+000  1.6537320156220449E+001
       O -4.2926790699952626E+000  1.0531775774218815E+001  8.7671014994563983E+000
       O -1.4221272050774925E+000  1.0547751695197711E+001  2.0957313527645880E+000
       O  5.6462949428007132E+000  7.6290520318847799E+000  9.6369373469587121E+000
       O  5.0090022431675614E+000  6.6682644924812964E+000  1.6530629628473342E+001
       O -1.8771456713425134E+000  9.5411264725312925E+000  8.7671059783953034E+000
       O -3.3064758837794699E+000  8.3774957426117407E+000  4.5060099077113183E+000
       O -4.5306276936490564E+000  1.1243514263137595E+001  1.2235320815037827E+001
       O  6.9346915385224026E+000  8.8338263933054044E+000  1.4100351232617264E+001
       O  8.2491516462565109E+000  5.9650981198659894E+000  6.6042711038764370E+000
       O  5.3900441086771043E+000  5.9612269479717037E+000  4.5058398348277215E+000
       O -1.6390051277529734E+000  8.8299588014284662E+000  1.2235981769078373E+001
       O -1.7453998989387780E+000  1.1239048475573176E+001  1.4100043957984585E+001
       O  5.1921322555317175E+000  8.3732773066108841E+000  6.6043473358635021E+000
       H -2.4353521273386800E+000  8.6338097335465669E+000  4.1530012692528304E+000
       H  4.5079828774113286E+000  5.7564703166742222E+000  1.1617266213485372E+001
       H  6.0531005211189459E+000  8.5691183047874890E+000  1.4416407328356190E+001
       H -9.4659716049296294E-001  1.1437147485239199E+001  6.7250541517745930E+000
       H -3.7343698977931767E+000  1.1440255757574194E+001  4.1525473294539461E+000
       H -2.4242364800254488E+000  8.5821372415789714E+000  1.1617797391124778E+001
       H  7.3873635224418619E+000  5.7696587634989802E+000  1.4415104981529845E+001
       H  6.1356226494534116E+000  8.6369193098926456E+000  6.7255772101152314E+000
       H -3.3363976476526744E+000  8.5480054157959255E+000  5.4624200255715474E+000
       H -4.6088084540588712E+000  1.1473238284773243E+001  1.3142354092108205E+001
       H  6.9951340019165622E+000  8.6486407947979274E+000  1.3152051168593426E+001
       H  8.2786946280700437E+000  5.7857747074302779E+000  5.6546818663652827E+000
       H  5.4196544906900321E+000  5.7905486603769498E+000  5.4622213075360149E+000
       H -1.5600165607255589E+000  8.6011773139896643E+000  1.3142826493186853E+001
       H -1.8067874125008920E+000  1.1425578001158135E+001  1.3152048633571201E+001
       H  5.1627407525036020E+000  8.5527959898895123E+000  5.6546322577137307E+000
       O  9.6315603258118294E+000  2.4289279506329553E+000  3.6561745145669221E+001
       H  8.6940242986810219E+000  2.1840138358954952E+000  3.6472791058307919E+001
       H  9.6519315711278129E+000  3.4018084128484691E+000  3.6497501121936402E+001
       O  7.4601305677822243E+000  1.2784935074019759E+000  3.2709333302409256E+001
       H  8.1170074453276690E+000  1.1290900024612425E+000  3.3582226505706664E+001
       H  6.7685526199267194E+000  1.5024779480244324E+000  3.3398364535025763E+001
       O  1.7886857261471640E+000  5.2029960370352510E+000  2.6335896802915478E+001
       H  2.4949368327088779E+000  5.0624783211124234E+000  2.6981387043237287E+001
       H  9.9683546275443047E-001  5.4250720826736760E+000  2.6852824535226247E+001
       O  6.9869781814129741E+000  7.7942223235998638E+000  3.0446243939766898E+001
       H  7.8274162026890268E+000  7.7342372477371937E+000  3.0938349436895173E+001
       H  6.4777112890236959E+000  8.2269487505301271E+000  3.1176567992767506E+001
       O  6.8446537751742085E+000  1.6851080241510177E+000  4.1042807836284048E+001
       H  6.0301585230862544E+000  2.1348932728366847E+000  4.0731655859060780E+001
       H  7.5928051746146119E+000  2.2056269135224760E+000  4.0672947055481188E+001
       O  7.7581355218520844E+000  4.1049780338365496E+000  2.1879804468311132E+001
       H  7.4079112446508244E+000  3.2076331508717257E+000  2.1962358708636746E+001
       H  6.9763403715621743E+000  4.6390817922008836E+000  2.1693257832588507E+001
       O  7.3401315937634237E-001  9.6376009095998558E+000  4.1094066352173691E+001
       H  1.6642331800853103E+000  1.0126319891018621E+001  4.0849701217944670E+001
       H  4.9213562571344421E-001  1.0769490215224577E+001  4.0863468528158599E+001
       O  5.5524354769917226E+000  5.8136048142994508E+000  2.8984276011767918E+001
       H  5.2822875338757864E+000  6.1550515260589922E+000  2.8118802058802988E+001
       H  5.1321248222223383E+000  4.9396851105199646E+000  2.9022584422493114E+001
       O  3.7971638684188416E+000  6.2457142881701904E+000  2.0930031868457181E+001
       H  4.6354484785672563E+000  6.4649069204492724E+000  2.1356890624806717E+001
       H  3.1584423534475743E+000  6.3294461701975777E+000  2.1653048552811210E+001
       O  3.7166089984179487E+000  7.6190969043358479E+000  3.1999426368635000E+001
       H  4.2998880030824544E+000  7.6017020565993327E+000  3.2900853059073178E+001
       H  3.1139671315117106E+000  7.6081807573838276E+000  3.2867276006421470E+001
       O  3.6472296984055679E+000  7.1693552515645615E+000  3.8015178602580818E+001
       H  3.9059846989844202E+000  6.4617108374841115E+000  3.8644112917762783E+001
       H  3.1652659774340690E+000  7.6933199472441212E+000  3.8762911981139517E+001
       O  2.4971304809010362E+000  8.6577837191339153E+000  2.0983588121385583E+001
       H  1.8222078673960991E+000  8.9395173332504516E+000  2.1613436517641727E+001
       H  2.9664768662635712E+000  9.4712182697104961E+000  2.0753254955660768E+001
       O -2.1279329726305063E+000  7.1038892065022035E+000  3.8731742138536774E+001
       H -1.8857548223935110E+000  6.6078182853849974E+000  3.9567280087148632E+001
       H -1.4476687156383081E+000  7.3555399343075543E+000  3.8027937291595755E+001
       O -2.5994426466139728E+000  1.0941294771587755E+001  2.3575048222479278E+001
       H -1.8010188517739258E+000  1.1276869863717964E+001  2.4005839541453831E+001
       H -2.8738562906716218E+000  1.0281195278179171E+001  2.4226949261089771E+001
       O  5.4308286779821975E+000  4.9781597642810982E-001  3.5375311016204279E+001
       H  4.9942360990385621E+000  7.0602140634701094E-001  3.6250977950318614E+001
       H  5.9504640839452874E+000  2.1831887589509505E-001  3.6699376642666650E+001
       O -2.5354185540779626E+000  8.3694370878470394E+000  3.4400573675839560E+001
       H -3.4560726937029216E+000  8.5353936069042504E+000  3.4617861512727274E+001
       H -2.6778601882929891E+000  8.0031066942552229E+000  3.3533022396135927E+001
       O  4.0593486235249809E+000  3.3551441557063639E+000  3.5504634182806065E+001
       H  4.2138302642942520E+000  3.3721389687565146E+000  3.6673770241637726E+001
       H  3.1171917284541548E+000  2.9867933002395048E+000  3.5476932920493276E+001
       O -1.1515255737554011E+000  5.6362050574041040E+000  3.1988757045073953E+001
       H -6.8456133492037030E-001  4.7985027000170977E+000  3.2156836778691421E+001
       H -2.0484521108945986E+000  5.5509891755766345E+000  3.2404465337577101E+001
       O  3.0382045823364039E+000  1.8817424193927184E+000  2.2240285966914151E+001
       H  2.3248701870089468E+000  2.5324062062418240E+000  2.2246511549379520E+001
       H  3.4309068877766640E+000  1.9535044005962343E+000  2.1362030001848563E+001
       O  4.4319254739079650E+000  1.0885389083471017E+001  2.5579666638786410E+001
       H  5.2931950589800474E+000  1.0560662289008865E+001  2.5870898763236315E+001
       H  3.8490813490161515E+000  1.0768902292400218E+001  2.6340767618466746E+001
       N  9.9896687637982904E+000  2.6555929683036097E+000  2.5523852194244157E+001
       H -3.9864712605178976E-001  2.6467352236165667E+000  2.5203730617538476E+001
       H  9.6375527804402612E+000  3.5898539709044743E+000  2.5310690963024182E+001
       H  9.4957227080484738E+000  1.9994632548018298E+000  2.4916390901692701E+001
       N  5.6483317438898553E+000  1.1759689604235843E+000  2.6614093793275089E+001
       H  6.4723780770663026E+000  5.7487542050820484E-001  2.6576821024819402E+001
       H  5.9792155848388475E+000  2.1377651897615966E+000  2.6529720508726328E+001
       H  5.1372444530352830E+000  9.6880956390383555E-001  2.5754395867286590E+001
       N  1.2126509068287226E+000  3.9235239037101342E+000  3.9659188111633085E+001
       H  7.3190962270634552E-001  4.8272472455105548E+000  3.9724694825609035E+001
       H  4.0091102107775406E-001  3.2446277129820515E+000  3.9701710645298533E+001
       H  1.2457796281428848E+000  3.7839484767947256E+000  3.8579666511260747E+001
       N -4.7485852955947907E+000  1.0665966291475117E+001  4.0983200073299457E+001
       H -4.3476223391699964E+000  1.0983858643030624E+001  4.2052074870171900E+001
       H  6.7271979308717800E+000  9.5893318809375909E+000  4.0796053860909339E+001
       H -4.1096997934072235E+000  1.0998881597217364E+001  4.0298191213840035E+001
       H  5.6059130774479673E+000  1.0950651112443825E+001  4.0907277764005947E+001
       N  1.1676535978172360E+000  3.0684408979581899E+000  2.9518477586872024E+001
       H  2.4227173218992534E-001  3.2779438431166987E+000  2.9976117941255296E+001
       H  1.5167581476506240E+000  2.1221820162398477E+000  2.9791732080487424E+001
       H  1.8853213858486793E+000  3.7967894641902511E+000  2.9754011937940966E+001
       H  1.0147527307853783E+000  3.0916144650666015E+000  2.8492816187599161E+001
       N -1.3390860574315362E+000  7.9243280920003070E+000  2.1424430960226641E+001
       H -4.5921168391192702E-001  8.1750392140898960E+000  2.1897511423961035E+001
       H -1.4539586690901551E+000  6.9024549870252523E+000  2.1456241055758692E+001
       H -1.3155822452480181E+000  8.2369013610565105E+000  2.0444127425196349E+001
       H -2.1078854857610061E+000  8.3848684171792591E+000  2.1931036747434803E+001
       N  8.9508700171048083E+000  5.2905601903732205E+000  2.8632508807554053E+001
       H -1.7201883412826937E+000  5.8256227496510320E+000  2.9181462985452693E+001
       H -1.8806989682387185E+000  4.7814363538958373E+000  2.7909875525090058E+001
       H  8.3108497765983511E+000  5.9454467350545892E+000  2.8163082159625105E+001
       H  8.4639777363457753E+000  4.6301716770076373E+000  2.9255992356369976E+001
       P -1.4532046740030515E+000  8.2020455364960689E+000  2.6668496355093861E+001
       O -8.9000774019402640E-001  9.0910782642229382E+000  2.5554122637964994E+001
       O -9.2860262943918659E-001  8.5185971387640222E+000  2.8090788002028805E+001
       O -1.3998654452251564E+000  6.6840897867948739E+000  2.6355975207321936E+001
       O -3.0088642539385906E+000  8.5374311788624748E+000  2.6719577886681208E+001
       H  7.4152124243578657E+000  8.7591243941559984E+000  2.6753944474639219E+001
       P  6.7980247085823944E+000  5.3752640381273586E+000  4.0999047768590415E+001
       O  5.2516037346575111E+000  5.0681471314616591E+000  4.0926431202908333E+001
       O  7.5740401866133515E+000  4.7784906232457462E+000  4.2230940237730977E+001
       O  6.9422759368562366E+000  6.9219037978476550E+000  4.1019648050500201E+001
       O  7.1718919490473514E+000  4.7591851359591431E+000  3.9634496517629998E+001
       H  7.3795138666488587E+000  4.4646967875931329E+000  3.8771263698945056E+001
     &END COORD
     &KIND "Ca"
       BASIS_SET "ORB" "DZVP-MOLOPT-PBE-GTH-q10"
       POTENTIAL "GTH-PBE-q10"
       &POTENTIAL
         4 6 0 0
           3.6524646201469002E-001 2 -4.1804006669854701E+000 -1.6887849202464000E+000
         3
           2.8988798370645003E-001 2  2.0501148195450281E+001 -7.1297848893034903E+000
                                                               9.1432814216561002E+000
           3.2689189928945001E-001 2  5.8028930581248899E+000 -4.2875330696042002E-001
                                                               4.8639233785097002E-001
           6.7993690959315001E-001 1  5.8464597670689997E-002
         # Potential name: GTH-PBE-Q10 for element symbol: CA
         # Potential read from the potential filename: POTENTIAL_UZH
       &END POTENTIAL
     &END KIND
     &KIND "O"
       BASIS_SET "ORB" "DZVP-MOLOPT-PBE-GTH-q6"
       POTENTIAL "GTH-PBE-q6"
       &POTENTIAL
         2 4 0 0
           2.4446328480160001E-001 2 -1.6675482223638369E+001  2.4890859824178002E+000
         1
           2.2097110943470999E-001 1  1.8334468664062850E+001
         # Potential name: GTH-PBE-Q6 for element symbol: O
         # Potential read from the potential filename: POTENTIAL_UZH
       &END POTENTIAL
     &END KIND
     &KIND "S"
       BASIS_SET "ORB" "DZVP-MOLOPT-PBE-GTH-q6"
       POTENTIAL "GTH-PBE-q6"
       &POTENTIAL
         2 4 0 0
           4.2011499303897998E-001 1 -5.9747803862195896E+000
         2