 # Version information for this restart file 
 # current date 2026-01-21 11:24:02.438
 # current working dir /mnt/cp2k
 # Program compiled at                                       2026-01-16 05:48:39
 # Program compiled on                                                          
 # Program compiled for                                                   x86_64
 # Source code revision number                                        4e96ea1a00
 &GLOBAL
   PRINT_LEVEL LOW
   PROJECT_NAME "gypsum_slab_geoopt"
   RUN_TYPE GEO_OPT
 &END GLOBAL
 &MOTION
   &GEO_OPT
     TYPE MINIMIZATION
     OPTIMIZER BFGS
     MAX_ITER 200
     MAX_DR  3.0000000000000001E-003
     MAX_FORCE  4.4999999999999999E-004
     RMS_DR  1.5000000000000000E-003
     RMS_FORCE  2.9999999999999997E-004
     STEP_START_VAL 50
     &BFGS
       TRUST_RADIUS  2.5000000000000000E-001
     &END BFGS
   &END GEO_OPT
   &PRINT
     &TRAJECTORY SILENT
       FORMAT XMOL
       &EACH
         GEO_OPT 1
       &END EACH
     &END TRAJECTORY
     &RESTART SILENT
       BACKUP_COPIES 1
       &EACH
         GEO_OPT 5
       &END EACH
     &END RESTART
     &RESTART_HISTORY OFF
     &END RESTART_HISTORY
   &END PRINT
 &END MOTION
 &FORCE_EVAL
   METHOD QS
   &DFT
     BASIS_SET_FILE_NAME BASIS_MOLOPT_UZH
     POTENTIAL_FILE_NAME POTENTIAL_UZH
     UKS T
     MULTIPLICITY 1
     CHARGE 0
     &SCF
       MAX_SCF 120
       EPS_SCF  9.9999999999999995E-007
       SCF_GUESS ATOMIC
       &OT T
         MINIMIZER DIIS
         STEPSIZE  1.0000000000000001E-001
         PRECONDITIONER FULL_SINGLE_INVERSE
         PRECOND_SOLVER INVERSE_UPDATE
         ENERGY_GAP  1.0000000000000001E-001
       &END OT
       &OUTER_SCF T
         EPS_SCF  9.9999999999999995E-007
         MAX_SCF 20
       &END OUTER_SCF
       &PRINT
         &RESTART SILENT
           BACKUP_COPIES 1
           &EACH
             GEO_OPT 1
           &END EACH
         &END RESTART
       &END PRINT
     &END SCF
     &QS
       EPS_DEFAULT  9.9999999999999998E-013
       EPS_PGF_ORB  1.0000000000000000E-014
       EXTRAPOLATION ASPC
       EXTRAPOLATION_ORDER 5
       METHOD GPW
     &END QS
     &MGRID
       NGRIDS 5
       CUTOFF  4.2000000000000000E+002
       REL_CUTOFF  6.0000000000000000E+001
     &END MGRID
     &XC
       DENSITY_CUTOFF  1.0000000000000000E-010
       GRADIENT_CUTOFF  1.0000000000000000E-010
       TAU_CUTOFF  1.0000000000000000E-010
       &XC_GRID
         XC_SMOOTH_RHO SPLINE3
         XC_DERIV SPLINE3_SMOOTH
       &END XC_GRID
       &XC_FUNCTIONAL NO_SHORTCUT
         &PBE T
           PARAMETRIZATION REVPBE
           SCALE_X  1.0000000000000000E+000
           SCALE_C  1.0000000000000000E+000
         &END PBE
       &END XC_FUNCTIONAL
       &VDW_POTENTIAL
         POTENTIAL_TYPE PAIR_POTENTIAL
         &PAIR_POTENTIAL
           R_CUTOFF  1.5000000000000002E+001
           D4_CUTOFF  3.0000000000000004E+001
           TYPE DFTD4
           REFERENCE_FUNCTIONAL "revPBE"
         &END PAIR_POTENTIAL
       &END VDW_POTENTIAL
     &END XC
     &POISSON
       POISSON_SOLVER MT
       PERIODIC XY
     &END POISSON
     &PRINT
       &E_DENSITY_CUBE OFF
       &END E_DENSITY_CUBE
     &END PRINT
   &END DFT
   &SUBSYS
     &CELL
       A  1.1358000000000001E+001  0.0000000000000000E+000  0.0000000000000000E+000
       B -5.1479508240459984E+000  1.1470885982880008E+001  0.0000000000000000E+000
       C  0.0000000000000000E+000  0.0000000000000000E+000  2.9527031199999996E+001
       PERIODIC XY
       MULTIPLE_UNIT_CELL 1 1 1
     &END CELL
     &COORD
       Ca  9.2946424992908554E+000  1.4348073430025086E+000  2.8531292755610389E+000
       Ca  2.3288979357813426E+000  4.3016122734552527E+000  9.5851656226593338E+000
       Ca -5.1050497317468446E-001  4.3011578717115526E+000  1.3677521434991426E+001
       Ca  7.7631053023056695E-001  1.4338203037172055E+000  6.9426757895945181E+000
       S  2.3288462220373312E+000  4.3011983922486241E+000  1.8840952101355584E+000
       S  9.2948339442470385E+000  1.4338468668777884E+000  9.3055198406987429E+000
       S  7.7685308219868687E-001  1.4338689504074775E+000  1.4644296603454990E+001
       S -5.1061429652573753E-001  4.3016029302722698E+000  7.2224270770931973E+000
       O  7.5687490869348943E+000  3.1667423925929601E+000  2.9452102336069981E+000
       O  8.8252791097529606E+000  2.8729465251835762E-001  1.0170394225547870E+001
       O  1.2161765142894638E+000  2.5693379892524697E+000  1.3583453101799076E+001
       O -4.1067149862499777E-002  5.4481798798511525E+000  6.3576325311407116E+000
       O  2.7674275001766788E+000  5.4369406874509982E+000  2.9451878868012247E+000
       O  9.7645852454367237E+000  2.5805123100420189E+000  1.0170131940780717E+001
       O  6.0163736670795842E+000  2.9904884842480561E-001  1.3583420092467549E+001
       O -9.8030592772638903E-001  3.1550349720808271E+000  6.3576992539948520E+000
       O  9.0175313221675779E+000  3.6804258031823851E+000  8.9457044222981552E-001
       O  1.0410215991076953E+001  8.9411704958280147E-001  8.4790868473233250E+000
       O -2.3258455307054762E-001  2.0564816952770846E+000  1.5634414374549525E+001
       O -1.6260515844430463E+000  4.8412309554397224E+000  8.0488553848297073E+000
       O  1.3187091271719034E+000  4.9231808112495647E+000  8.9456404292486169E-001
       O  8.1792151370388897E+000  1.9734790862609084E+000  8.4793073502648628E+000
       O  7.4649662982565612E+000  8.1198778502036750E-001  1.5634412293076032E+001
       O  6.0501133003928209E-001  3.7619498204673505E+000  8.0486044385348201E+000
       O -5.4284472376441395E-001  2.8374844201011196E+000  3.7385211302464425E+000
       O -1.9749602541274189E+000  5.5922537558246592E+000  1.1004690386616279E+001
       O  9.3284455928776495E+000  2.8978217156207164E+000  1.2789876439435760E+001
       O  1.0758474833031602E+001  1.4335478341107824E-001  5.5230734523286555E+000
       O  7.7753351089457841E+000  3.0289950280679937E-002  3.7382669635798229E+000
       O  9.5336648469590046E-001  3.0113560490462761E+000  1.1004829714302359E+001
       O  1.0078878908197324E+000  5.7052435138375568E+000  1.2789944247944131E+001
       O  7.8316673133447150E+000  2.7235374779378398E+000  5.5227834951592749E+000
       H  3.6879940778798204E-001  3.0617171045546296E+000  3.3674428985091422E+000
       H  7.1475439569729140E+000  1.4596212220581772E-001  1.0636655019223149E+001
       H  8.4167083680897186E+000  2.6735106997742832E+000  1.3160639946772008E+001
       H  1.6364729718649624E+000  5.5890416907011051E+000  5.8912769551772008E+000
       H -1.3903110905346292E+000  5.5418116738225311E+000  3.3674071697392023E+000
       H  8.4431847152880282E-002  2.7217806355368257E+000  1.0636591341181994E+001
       H  1.0173421160445667E+001  1.9421262783137469E-001  1.3160913361035988E+001
       H  8.7001144307302507E+000  3.0141741877080195E+000  5.8913241114138595E+000
       H -5.6254697368933937E-001  3.0976614190128524E+000  4.6859616635671006E+000
       H -2.0493149353185949E+000  5.9562061311560361E+000  1.1932550705095313E+001
       H  9.3480280277968841E+000  2.6386793916894469E+000  1.1842100726902363E+001
       H  1.0833274501686867E+001 -2.2108666700987170E-001  4.5953720358511969E+000
       H  7.7949398369446525E+000 -2.2942914758096486E-001  4.6858438619356528E+000
       H  1.0281970817767951E+000  2.6465541370156807E+000  1.1932311455330538E+001
       H  9.8830465673698598E-001  5.9642238502947489E+000  1.1842133098340545E+001
       H  7.7561561617533359E+000  3.0893935545091336E+000  4.5957056399995935E+000
       Ca  3.6162379377838887E+000  1.4332995499945345E+000  2.8531212025091355E+000
       Ca  8.0078401615224681E+000  4.3014846959489210E+000  9.5851806046535941E+000
       Ca  5.1681192458077234E+000  4.3020471550407926E+000  1.3677509090080305E+001
       Ca  6.4553138384217581E+000  1.4338185890271107E+000  6.9426018336640443E+000
       S  8.0074438645447596E+000  4.3024140500175037E+000  1.8840880249401155E+000
       S  3.6158854589075142E+000  1.4339257771021305E+000  9.3055749216811154E+000
       S  6.4555524566196452E+000  1.4345318387370625E+000  1.4644290139809666E+001
       S  5.1683828258210767E+000  4.3016292885914380E+000  7.2221356526425433E+000
       O  1.8901613620386375E+000  3.1653526971332058E+000  2.9449999014925345E+000
       O  3.1462889640398726E+000  2.8743592744082080E-001  1.0170500925931758E+001
       O  6.8948592571249208E+000  2.5700634826454860E+000  1.3583518423050954E+001
       O  5.6379054189918625E+000  5.4481633877239704E+000  6.3572719752750357E+000
       O  8.4462212335343239E+000  5.4382628653443943E+000  2.9449650593852827E+000
       O  4.0855529703443647E+000  2.5806754704891501E+000  1.0170132591665702E+001
       O  3.3752217323089273E-001  2.9837303657232717E-001  1.3583491644418757E+001
       O  4.6987342210085883E+000  3.1549814471323225E+000  6.3574857805113840E+000
       O  3.3389935445859429E+000  3.6793612762465324E+000  8.9455758412820285E-001
       O  4.7313833980614577E+000  8.9416423486283381E-001  8.4792943584378300E+000
       O  5.4460580825596239E+000  2.0570647831651319E+000  1.5634410841533294E+001
       O  4.0528706262549798E+000  4.8412707437020552E+000  8.0484831789456148E+000
       O  6.9973063529922239E+000  4.9242264782846616E+000  8.9456231582738199E-001
       O  2.5003579698947092E+000  1.9734821501381539E+000  8.4792175699145851E+000
       O  1.7862561488063609E+000  8.1138996538016039E-001  1.5634413556124702E+001
       O  6.2840132354923943E+000  3.7620760830862698E+000  8.0483609659148971E+000
       O  5.1358518813026306E+000  2.8372518638786262E+000  3.7382896969504387E+000
       O  3.7042633618597116E+000  5.5919252620776989E+000  1.1004884798110560E+001
       O  3.6497737588180645E+000  2.8978161027380738E+000  1.2789985664711288E+001
       O  5.0791526238684606E+000  1.4380267216699885E-001  5.5228650301828068E+000
       O  2.0959238304435206E+000  3.0184723940209931E-002  3.7384383483466928E+000
       O  6.6325242171766030E+000  3.0109611005234234E+000  1.1004725437151796E+001
       O  6.6870978193544541E+000  5.7055808388478226E+000  1.2790022331612317E+001
       O  2.1521782911562131E+000  2.7242404999825416E+000  5.5230806845921174E+000
       H  6.0473116856320122E+000  3.0622046692302982E+000  3.3672041070908398E+000
       H  1.4683371561628880E+000  1.4611535372090892E-001  1.0636454197499813E+001
       H  2.7381567161493083E+000  2.6731291970025710E+000  1.3160727700947247E+001
       H  7.3157125668821550E+000  5.5889737076941870E+000  5.8913767007335140E+000
       H  4.2888464168248897E+000  5.5412302440249466E+000  3.3671634467228864E+000
       H  5.7633454496827108E+000  2.7218747241471202E+000  1.0636683848732844E+001
       H  4.4943360226926572E+000  1.9450491960549990E-001  1.3160974997001038E+001
       H  3.0210028525631838E+000  3.0141558879548991E+000  5.8912683148388130E+000
       H  5.1160494078968748E+000  3.0973392780067566E+000  4.6857494194745897E+000
       H  3.6294815380178953E+000  5.9566125260167828E+000  1.1932433730798159E+001
       H  3.6693284517194082E+000  2.6389577939494013E+000  1.1842137066697441E+001
       H  5.1546020594442314E+000 -2.2177578040845258E-001  4.5956722354408006E+000
       H  2.1154703468281428E+000 -2.2976874550100534E-001  4.6859528675960096E+000
       H  6.7069423816971598E+000  2.6469371991123825E+000  1.1932585535999861E+001
       H  6.6675930133036374E+000  5.9643746674133862E+000  1.1842143252555049E+001
       H  2.0773613805387514E+000  3.0886793338323280E+000  4.5953678170181878E+000
       Ca  1.0416121580194275E+000  7.1689897614627558E+000  2.8530078448647993E+000
       Ca  5.4337809667949255E+000  1.0036954534734731E+001  9.5854201151222149E+000
       Ca  2.5942705565261561E+000  1.0037241562302675E+001  1.3677224037949344E+001
       Ca  3.8812704020955011E+000  7.1692957345655728E+000  6.9425452019075911E+000
       S  5.4334742598374310E+000  1.0037757253255787E+001  1.8840929216437017E+000
       S  1.0418063143567311E+000  7.1692727674237737E+000  9.3056163695800702E+000
       S  3.8807929258055078E+000  7.1692322923699656E+000  1.4644367356974124E+001
       S  2.5942685957022578E+000  1.0036977959005696E+001  7.2223298429424743E+000
       O -6.8448689168807964E-001  8.9011374197498156E+000  2.9451029842780487E+000
       O  5.7212203643268267E-001  6.0225224391068810E+000  1.0170159765853439E+001
       O  4.3202480539369592E+000  8.3046673356046465E+000  1.3583553163690640E+001
       O  3.0638461165819417E+000  1.1183601482973545E+001  6.3575928256294434E+000
       O  5.8727920449996756E+000  1.1173392342745425E+001  2.9449746974880857E+000
       O  1.5113493822759163E+000  8.3158001858364887E+000  1.0170541678952446E+001
       O -2.2372470140706189E+000  6.0330679334735748E+000  1.3583615807313384E+001
       O  2.1246721547205341E+000  8.8903864611121435E+000  6.3575642952679035E+000
       O  7.6465461355842546E-001  9.4143265846978430E+000  8.9457230398210275E-001
       O  2.1574103532175948E+000  6.6297562394634824E+000  8.4793241520336835E+000
       O  2.8714159581683592E+000  7.7918166047942394E+000  1.5634416120980370E+001
       O  1.4786852240173467E+000  1.0576545531422624E+001  8.0486137693731372E+000
       O  4.4236582918489056E+000  1.0660005104928690E+001  8.9456315980967382E-001
       O -7.3664921730887373E-002  7.7090134364015794E+000  8.4792883437469850E+000
       O -7.8832670479485556E-001  6.5459318922955179E+000  1.5634413720765792E+001
       O  3.7098449519109757E+000  9.4973907202040646E+000  8.0486003227018728E+000
       O  2.5613710963168592E+000  8.5728060296250916E+000  3.7383193516465729E+000
       O  1.1307083950187518E+000  1.1327160661509730E+001  1.1004930246849217E+001
       O  1.0748903478170830E+000  8.6339257316745588E+000  1.2790231025447911E+001
       O  2.5051799183771708E+000  5.8791634173128102E+000  5.5229492031010636E+000
       O -4.7872875765699002E-001  5.7661991408620787E+000  3.7385300001730895E+000
       O  4.0582071223750891E+000  8.7464465446576298E+000  1.1004751067023838E+001
       O  4.1140318113448373E+000  1.1440054606398590E+001  1.2790036802604565E+001
       O -4.2204009032295536E-001  8.4599741005164244E+000  5.5232311426275826E+000
       H  3.4728060443051847E+000  8.7978598881447780E+000  3.3672017149375102E+000
       H -1.1057689229969918E+000  5.8813150444157714E+000  1.0636642113254830E+001
       H  1.6345825138678685E-001  8.4085991754822587E+000  1.3161034443568704E+001
       H  4.7416862610115720E+000  1.1324479907184436E+001  5.8913020648395822E+000
       H  1.7159427471786932E+000  1.1276249879026283E+001  3.3671491764310040E+000
       H  3.1891509553407249E+000  8.4571090718094872E+000  1.0636597286403154E+001
       H  1.9194706001572397E+000  5.9300768003764821E+000  1.3160734035577507E+001
       H  4.4681013225656208E-001  8.7497188229884397E+000  5.8914474172377442E+000
       H  2.5416642998645154E+000  8.8326914825305671E+000  4.6858560011424206E+000
       H  1.0557691960918596E+000  1.1692297500042850E+001  1.1932259191137401E+001
       H  1.0948861868465729E+000  8.3740888334664820E+000  1.1842669195037976E+001
       H  2.5802722501831963E+000  5.5140627950715402E+000  4.5955129249610396E+000
       H -4.5891131586921474E-001  5.5058071484915017E+000  4.6858964070776858E+000
       H  4.1328060219908407E+000  8.3819207587373139E+000  1.1932353339324342E+001
       H  4.0940708682173526E+000  1.1699950327474676E+001  1.1842498028899875E+001
       H -4.9694889212999899E-001  8.8245985867153429E+000  4.5956168825208437E+000
       Ca  6.7198368285171650E+000  7.1701324965353717E+000  2.8529438412396977E+000
       Ca -2.4512973802793789E-001  1.0037041342114026E+001  9.5854720446724055E+000
       Ca -3.0842382686270908E+000  1.0036660582666986E+001  1.3677320443140806E+001
       Ca -1.7976990297383693E+000  7.1692721553737222E+000  6.9427543201255357E+000
       S -2.4509302601612648E-001  1.0036641422156000E+001  1.8841223893895493E+000
       S  6.7206662912333783E+000  7.1691259436938646E+000  9.3055333351014795E+000
       S -1.7977992798259170E+000  7.1685792099306109E+000  1.4644349615855521E+001
       S -3.0846813535871389E+000  1.0036996991633480E+001  7.2225126446684769E+000
       O  4.9942859714242811E+000  8.9022951079414732E+000  2.9452208285832491E+000
       O  6.2510124509405856E+000  6.0224312837591434E+000  1.0170185241871625E+001
       O -1.3584236104428720E+000  8.3039904839764418E+000  1.3583507116404318E+001
       O -2.6150758432595453E+000  1.1183538066738535E+001  6.3576936115300686E+000
       O  1.9426136334693325E-001  1.1172126322466386E+001  2.9451769876420038E+000
       O  7.1902977404056010E+000  8.3156643680056721E+000  1.0170388373179254E+001
       O  3.4413552505339440E+000  6.0337958907323159E+000  1.3583541910225309E+001
       O -3.5543039809963175E+000  8.8903643744872358E+000  6.3578225757027100E+000
       O  6.4432637336867788E+000  9.4152919232636645E+000  8.9455885296344295E-001
       O  7.8361726627450699E+000  6.6295154950274036E+000  8.4791728042841719E+000
       O -2.8072238179406925E+000  7.7912977474529743E+000  1.5634422456252814E+001
       O -4.2002479057498698E+000  1.0576639836096353E+001  8.0487698132303507E+000
       O -1.2548329055693346E+000  1.0659005553521007E+001  8.9456760948432457E-001
       O  5.6051708338802548E+000  7.7088539107739944E+000  8.4792350745316796E+000
       O  4.8902578649775226E+000  6.5465526863569350E+000  1.5634417955331747E+001
       O -1.9691343738569749E+000  9.4974289526588294E+000  8.0488384990790358E+000
       O -3.1175774409224739E+000  8.5726543735751637E+000  3.7386895417083763E+000
       O -4.5487737311282794E+000  1.1327869245371712E+001  1.1004499832039489E+001
       O  6.7537047765944447E+000  8.6342056304556216E+000  1.2790036114876548E+001
       O  8.1848207426810013E+000  5.8782972892836698E+000  5.5234074616813436E+000
       O  5.2003754350355997E+000  5.7660063690114072E+000  3.7381583986784253E+000
       O -1.6209869143891735E+000  8.7467818761638174E+000  1.1004897940653514E+001
       O -1.5650103006332394E+000  1.1440149565504502E+001  1.2790186914071274E+001
       O  5.2574528135019678E+000  8.4593705218355453E+000  5.5228216894135880E+000
       H -2.2060990233803510E+000  8.7972534410185794E+000  3.3674196751698129E+000
       H  4.5732928682831151E+000  5.8813198938440188E+000  1.0636689286623408E+001
       H  5.8423171699025289E+000  8.4090280798057826E+000  1.3160928623160828E+001
       H -9.3734762483008816E-001  1.1324298786416088E+001  5.8913099605478436E+000
       H -3.9636134320633150E+000  1.1276789126245900E+001  3.3672979491187816E+000
       H -2.4898765034160903E+000  8.4571105129306581E+000  1.0636578976183250E+001
       H  7.5988802963066773E+000  5.9296999423298820E+000  1.3160681286373881E+001
       H  6.1259859584063294E+000  8.7497168717992047E+000  5.8913528819194623E+000
       H -3.1371076625529124E+000  8.8326769540126779E+000  4.6861870772170953E+000
       H -4.6232182194595461E+000  1.1692093744458436E+001  1.1932228121793582E+001
       H  6.7737359219384254E+000  8.3740838299020179E+000  1.1842559223557972E+001
       H  8.2592363514502622E+000  5.5145616720016299E+000  4.5953934997705197E+000
       H  5.2202526559001967E+000  5.5058021031744104E+000  4.6855902026020617E+000
       H -1.5461250813116099E+000  8.3817368489223281E+000  1.1932284963974565E+001
       H -1.5850324250266810E+000  1.1700033536505808E+001  1.1842636669347337E+001
       H  5.1820375348106040E+000  8.8251122652790848E+000  4.5956884626520589E+000
     &END COORD
     &KIND "Ca"
       BASIS_SET "ORB" "DZVP-MOLOPT-PBE-GTH-q10"
       POTENTIAL "GTH-PBE-q10"
       &POTENTIAL
         4 6 0 0
           3.6524646201469002E-001 2 -4.1804006669854701E+000 -1.6887849202464000E+000
         3
           2.8988798370645003E-001 2  2.0501148195450281E+001 -7.1297848893034903E+000
                                                               9.1432814216561002E+000
           3.2689189928945001E-001 2  5.8028930581248899E+000 -4.2875330696042002E-001
                                                               4.8639233785097002E-001
           6.7993690959315001E-001 1  5.8464597670689997E-002
         # Potential name: GTH-PBE-Q10 for element symbol: CA
         # Potential read from the potential filename: POTENTIAL_UZH
       &END POTENTIAL
     &END KIND
     &KIND "O"
       BASIS_SET "ORB" "DZVP-MOLOPT-PBE-GTH-q6"
       POTENTIAL "GTH-PBE-q6"
       &POTENTIAL
         2 4 0 0
           2.4446328480160001E-001 2 -1.6675482223638369E+001  2.4890859824178002E+000
         1
           2.2097110943470999E-001 1  1.8334468664062850E+001
         # Potential name: GTH-PBE-Q6 for element symbol: O
         # Potential read from the potential filename: POTENTIAL_UZH
       &END POTENTIAL
     &END KIND
     &KIND "S"
       BASIS_SET "ORB" "DZVP-MOLOPT-PBE-GTH-q6"
       POTENTIAL "GTH-PBE-q6"
       &POTENTIAL
         2 4 0 0
           4.2011499303897998E-001 1 -5.9747803862195896E+000
         2
           3.6482480920276000E-001 2  1.3144660447404330E+001 -4.2418299542725197E+000
                                                               5.4761779684641398E+000
           4.0947908948436001E-001 1  3.7008698706060401E+000
         # Potential name: GTH-PBE-Q6 for element symbol: S
         # Potential read from the potential filename: POTENTIAL_UZH
       &END POTENTIAL
     &END KIND
     &KIND "H"
       BASIS_SET "ORB" "TZV2P-MOLOPT-PBE-GTH-q1"
       POTENTIAL "GTH-PBE-q1"
       &POTENTIAL
         1 0 0 0
           2.0059317301776000E-001 2 -4.1780683247725996E+000  7.2440924243367999E-001
         0
         # Potential name: GTH-PBE-Q1 for element symbol: H
         # Potential read from the potential filename: POTENTIAL_UZH
       &END POTENTIAL
     &END KIND
     &TOPOLOGY
       COORD_FILE_NAME conventional_cell_slab_020_L1_2x2.xyz
       COORD_FILE_FORMAT XYZ
       NUMBER_OF_ATOMS 192
       MULTIPLE_UNIT_CELL 1 1 1
     &END TOPOLOGY
   &END SUBSYS
 &END FORCE_EVAL
