     192
 i =        1, E =     -2323.4909529321
 Ca         9.2946432101        1.4340230095        2.3820052240
 Ca         2.3282421456        4.3011250721        9.4744349988
 Ca        -0.5105858535        4.3014111651       14.1442179262
 Ca         0.7767366666        1.4343564644        7.0523657455
  S         2.3288465583        4.3011350151        2.2006134128
  S         9.2947225176        1.4338527321        9.3651459520
  S         0.7763084768        1.4334325251       14.3260173574
  S        -0.5106832282        4.3016112570        7.1613614509
  O         7.4132790096        3.1541244940        2.9720882691
  O         8.8502148328        0.2911422417       10.2029590760
  O         1.3706085118        2.5812837076       13.5544345701
  O        -0.0661827703        5.4443807234        6.3236301850
  O         2.9232548727        5.4490435662        2.9720418101
  O         9.7390846019        2.5766768748       10.2028846046
  O         5.8608647190        0.2864126901       13.5545299216
  O        -0.9550522195        3.1587753071        6.3236612118
  O         9.0799307037        3.6328988684        1.4722743652
  O        10.3995101713        0.9247039492        8.5380778996
  O        -0.2959580376        2.1024726398       15.0543051088
  O        -1.6156031130        4.8106254528        7.9883117926
  O         1.2566186734        4.9702210754        1.4722866173
  O         8.1898724024        1.9429194280        8.5381511889
  O         7.5274771241        0.7652932172       15.0542995400
  O         0.5942469585        3.7925296904        7.9882314780
  O        -0.7612809652        2.7241781052        3.6648304880
  O        -2.0198370186        5.5310357839       10.9549319979
  O         9.5451614642        3.0112946278       12.8617199021
  O        10.8042103623        0.2037766510        5.5726001935
  O         7.9929300495        0.1436869115        3.6647317129
  O         0.9984194356        3.0717842288       10.9561684356
  O         0.7912481162        5.5916948855       12.8618225261
  O         7.7852680875        2.6642924422        5.5713586788
  H         0.1023828712        3.0524939614        3.3288355106
  H         7.1185925641        0.0564981643       10.6291151101
  H         8.6816589057        2.6829825124       13.1981830220
  H         1.6654451084        5.6788701748        5.8979285926
  H        -1.1238543344        5.5506739125        3.3288903958
  H         0.1129044340        2.8112066296       10.6289449253
  H         9.9078155611        0.1847353704       13.1981058842
  H         8.6711120314        2.9242871235        5.8981175837
  H        -0.7709620077        2.8942024156        4.6288333069
  H        -2.0872081907        5.7992128257       11.8903578566
  H         9.5549547958        2.8412360114       11.8977894670
  H         5.7233006379       11.4071262737        4.6369177708
  H         2.8543530274       11.4443063560        4.6286769881
  H         1.0661548904        2.8041406160       11.8909906236
  H         0.7817330999        5.7620377093       11.8979666331
  H         7.7178873541        2.9312554765        4.6362639999
 Ca         3.6156298343        1.4340007702        2.3825226198
 Ca         8.0072959804        4.3011178700        9.4744157247
 Ca         5.1683744847        4.3014248848       14.1436841316
 Ca         6.4557635525        1.4343120081        7.0523420425
  S         8.0077163138        4.3019847791        2.2006211282
  S         3.6156982502        1.4338607254        9.3650940746
  S         6.4552002540        1.4343170072       14.3260225723
  S         5.1683097698        4.3016135405        7.1614333577
  O         1.7326571641        3.1543428974        2.9726228040
  O         3.1712874532        0.2911941023       10.2030164512
  O         7.0512328612        2.5810596131       13.5538717294
  O         5.6127021016        5.4442899963        6.3235019348
  O         8.6039334994        5.4488410918        2.9725332103
  O         4.0600740001        2.5766026171       10.2029473710
  O         0.1801874964        0.2866484067       13.5539639331
  O         4.7240243142        3.1588181413        6.3236212834
  O         3.4014150173        3.6330843096        1.4716880738
  O         4.7204379064        0.9246629969        8.5379928399
  O         5.3825901545        2.1022950546       15.0549289064
  O         4.0634089823        4.8106848046        7.9883835048
  O         6.9351681268        4.9700345665        1.4716592430
  O         2.5109301042        1.9430315176        8.5380454167
  O         1.8489545178        0.7654898795       15.0548968499
  O         6.2731916888        3.7924792892        7.9883426439
  O         4.9171678404        2.7238478669        3.6646462199
  O         3.6591324879        5.5309489296       10.9549090084
  O         3.8666872008        3.0117416554       12.8618816397
  O         5.1252611175        0.2036811505        5.5726468401
  O         2.3144842068        0.1439840575        3.6645523288
  O         6.6774333147        3.0717896414       10.9561465376
  O         6.4697101277        5.5912806044       12.8619906634
  O         2.1062710845        2.6643124105        5.5713415204
  H         5.7803229296        3.0524901601        3.3293570473
  H         1.4395664835        0.0565406842       10.6291185718
  H         3.0037496261        2.6829858664       13.1976683199
  H         7.3444554326        5.6788742684        5.8978951800
  H         4.5562147613        5.5506817847        3.3294270634
  H         5.7919083498        2.8111952264       10.6289778152
  H         4.2278271301        0.1846855769       13.1976026948
  H         2.9921208603        2.9242454168        5.8981238374
  H         4.9083123523        2.8942230796        4.6284732708
  H         3.5918345104        5.7992719225       11.8902945133
  H         3.8757142343        2.8411212684       11.8981698098
  H         0.0442527933       11.4071765076        4.6369243582
  H        -2.8248863057       11.4443314662        4.6283153288
  H         6.7451338898        2.8041294537       11.8909528191
  H         6.4609426857        5.7621129455       11.8983349350
  H         2.0388751707        2.9312863168        4.6362649906
 Ca         1.0417247217        7.1693167900        2.3817542967
 Ca         5.4337976356       10.0370422092        9.4749807284
 Ca         2.5943106430       10.0369973667       14.1444401992
 Ca         3.8812433018        7.1693269447        7.0518597831
  S         5.4342119880       10.0366976204        2.2003091183
  S         1.0416908564        7.1693283266        9.3652193214
  S         3.8809828680        7.1687821977       14.3263545617
  S         2.5943393679       10.0369978109        7.1613210066
  O        -0.8394295558        8.8898055816        2.9718692145
  O         0.5971051826        6.0265393144       10.2028791984
  O         4.4754165020        8.3165121633       13.5546472366
  O         3.0389188705       11.1797727240        6.3236461529
  O         6.0287141783       11.1853295280        2.9713652641
  O         1.4863312991        8.3120171935       10.2029806349
  O        -2.3926049425        6.0211634798       13.5550829801
  O         2.1497760414        8.8942463788        6.3235932914
  O         0.8267524176        9.3676291093        1.4716779975
  O         2.1465767446        6.6601372503        8.5383172220
  O         2.8093397697        7.8386188924       15.0549429030
  O         1.4894013024       10.5462544893        7.9881137834
  O         4.3613904021       10.7048585106        1.4719025143
  O        -0.0631118991        7.6785284103        8.5382002071
  O        -0.7252653597        6.5014436572       15.0546836679
  O         3.6992897108        9.5278240427        7.9881332247
  O         2.3436178973        8.4595887699        3.6648765583
  O         1.0850633404       11.2667840243       10.9560126339
  O         1.2923175519        8.7468142894       12.8616546124
  O         2.5513482621        5.9389268110        5.5715049086
  O        -0.2601428010        5.8790024461        3.6647922932
  O         4.1033719807        8.8072378973       10.9561890370
  O         3.8963256939       11.3272845437       12.8617555070
  O        -0.4676775829        8.3998389741        5.5713745910
  H         3.2072846896        8.7879383336        3.3288971994
  H        -1.1339693304        5.7920940886       10.6289397913
  H         0.4288373446        8.4184078949       13.1981217603
  H         4.7700518952       11.4142137996        5.8980945917
  H         1.9812756699       11.2861316243        3.3290178018
  H         3.2178892976        8.5466100296       10.6289228468
  H         1.6547682268        5.9201888709       13.1979840934
  H         0.4182245461        8.6596840323        5.8981124098
  H         2.3341208665        8.6296815640        4.6288667849
  H         6.1655056939        0.0635998800       11.8908347625
  H         1.3019141227        8.5766179925       11.8977611909
  H         2.6185134482        5.6718807442        4.6364182451
  H        -0.2505369162        5.7089497883        4.6287934583
  H         4.1711824904        8.5395841937       11.8910099473
  H         9.0346331846        0.0265003867       11.8978369816
  H        -0.5351323929        8.6666875626        4.6362301726
 Ca         6.7207653730        7.1693111908        2.3822385269
 Ca        -0.2451774309       10.0370021898        9.4749641960
 Ca        -3.0846666689       10.0370360987       14.1439685787
 Ca        -1.7977741758        7.1692870569        7.0518728726
  S        -0.2449002162       10.0375500781        2.2002390401
  S         6.7207514484        7.1693398051        9.3651843852
  S        -1.7981107775        7.1696299309       14.3263518808
  S        -3.0846768294       10.0369839842        7.1613501503
  O         4.8379537935        8.8899731625        2.9724193910
  O         6.2761555385        6.0266175926       10.2029422657
  O        -1.2018677285        8.3162886166       13.5541525016
  O        -2.6400644135       11.1796775123        6.3235724109
  O         0.3514317950       11.1849481652        2.9719671903
  O         7.1652549362        8.3120385656       10.2030321991
  O         3.2846196190        6.0214108385       13.5545980259
  O        -3.5291385214        8.8942981722        6.3234688589
  O         6.5061318638        9.3678276213        1.4710694471
  O         7.8255360262        6.6600342284        8.5382093740
  O        -2.8701609526        7.8384553212       15.0554369856
  O        -4.1895853160       10.5462786459        7.9881539695
  O        -1.3180517752       10.7047367650        1.4712771733
  O         5.6159624838        7.6785133765        8.5381345696
  O         4.9541941382        6.5016681896       15.0552571443
  O        -1.9797565776        9.5278242461        7.9882302238
  O        -3.3359479784        8.4592325358        3.6647176166
  O        -4.5939341438       11.2667427352       10.9560211159
  O         6.9718782450        8.7472058237       12.8618222302
  O         8.2303893317        5.9388874794        5.5715386583
  O         5.4194264694        5.8793681434        3.6646341342
  O        -1.5756044517        8.8072028085       10.9561697313
  O        -1.7831752682       11.3269113616       12.8619220127
  O         5.2113086039        8.3998303975        5.5713588469
  H        -2.4727868767        8.7879346785        3.3294389431
  H         4.5450013745        5.7921071887       10.6290065621
  H         6.1089267087        8.4184114471       13.1975712062
  H        -0.9089692166       11.4142727474        5.8980735627
  H        -3.6966660940       11.2861549730        3.3295642383
  H        -2.4611193855        8.5466316140       10.6289302111
  H         7.3326747238        5.9201882980       13.1974558770
  H         6.0972016750        8.6596785514        5.8981241824
  H        -3.3446491189        8.6297062307        4.6285278507
  H         0.4865308555        0.0636026477       11.8908214025
  H         6.9806813569        8.5765297262       11.8981224941
  H         8.2975021935        5.6719201623        4.6364371583
  H         5.4281745453        5.7088950641        4.6284404131
  H        -1.5078326871        8.5395925361       11.8910051639
  H         3.3558290807        0.0266087287       11.8982033480
  H         5.1439086033        8.6666967624        4.6362379643
     192
 i =        2, E =     -2323.8810841603
 Ca         9.2947279169        1.4338997216        2.4046044821
 Ca         2.3282519512        4.3011410316        9.4856369894
 Ca        -0.5107044859        4.3014728693       14.1219854375
 Ca         0.7766192157        1.4344623527        7.0393782136
  S         2.3283269389        4.3020823550        2.3466599519
  S         9.2947332685        1.4337968059        9.3639690732
  S         0.7758420679        1.4343389689       14.1786948540
  S        -0.5107376003        4.3016099484        7.1612740185
  O         7.4047990942        3.1552909437        3.1136843472
  O         8.8472061480        0.2867679261       10.2028174159
  O         1.3784881492        2.5804791711       13.4112387487
  O        -0.0632178596        5.4487584026        6.3226076006
  O         2.9318976493        5.4479597867        3.1136694704
  O         9.7421581344        2.5809189523       10.2027200496
  O         5.8528862761        0.2871900479       13.4113089577
  O        -0.9581007680        3.1543750898        6.3226472725
  O         9.1560063774        3.6437150340        1.7188259228
  O        10.4044897821        0.9193248209        8.5351574353
  O        -0.3721624648        2.0909287503       14.8068319255
  O        -1.6207903160        4.8162319589        7.9895429595
  O         1.1805363233        4.9593161801        1.7187749936
  O         8.1850055334        1.9484984898        8.5352134666
  O         7.6037372508        0.7769215900       14.8067924355
  O         0.5993669760        3.7869192413        7.9894775157
  O        -0.7616803602        2.7338910199        3.6822068679
  O        -2.0217182093        5.5321649419       10.9398732442
  O         9.5452637031        3.0021566669       12.8431033573
  O        10.8061870274        0.2012384016        5.5874632557
  O         7.9931390650        0.1336754605        3.6825156581
  O         1.0010742602        3.0706518274       10.9400940008
  O         0.7912883089        5.6011917910       12.8427858177
  O         7.7826441879        2.6666234893        5.5870585128
  H         0.1103562897        3.0506855081        3.3411377231
  H         7.1210701826        0.0579237867       10.6292788642
  H         8.6738056152        2.6847896597       13.1853509597
  H         1.6627853151        5.6774541081        5.8979952867
  H        -1.1317204386        5.5525120111        3.3412985930
  H         0.1104221500        2.8097454860       10.6294801852
  H         9.9155683226        0.1829182196       13.1852436240
  H         8.6737798061        2.9257761489        5.8977658670
  H        -0.7607689578        2.8961890909        4.6458522222
  H        -2.0919275093        5.7921477528       11.8836922923
  H         9.5444494083        2.8388766182       11.8797863653
  H         5.7281463559       11.4142097120        4.6430980302
  H         2.8445948665       11.4424388956        4.6463489586
  H         1.0697941856        2.8110085383       11.8832315718
  H         0.7918272797        5.7642576866       11.8792740481
  H         7.7140695456        2.9244571130        4.6434597413
 Ca         3.6156958421        1.4339678706        2.4045631848
 Ca         8.0074266406        4.3009926930        9.4856604398
 Ca         5.1683332869        4.3014829948       14.1219208193
 Ca         6.4558223818        1.4343434437        7.0394250764
  S         8.0082521079        4.3011744838        2.3465869569
  S         3.6157916780        1.4337859009        9.3639696233
  S         6.4556318758        1.4333477939       14.1786427366
  S         5.1682492340        4.3015885654        7.1612364295
  O         1.7249563589        3.1556448842        3.1134225051
  O         3.1681968096        0.2868342833       10.2029074777
  O         7.0580176128        2.5802249547       13.4116636320
  O         5.6157867809        5.4487541373        6.3225882564
  O         8.6115660506        5.4474661172        3.1135521108
  O         4.0630660626        2.5808982310       10.2028262388
  O         0.1735157753        0.2875031493       13.4116437106
  O         4.7209136153        3.1543662908        6.3225616442
  O         3.4762774612        3.6429766298        1.7204947636
  O         4.7254437414        0.9193273396        8.5350191525
  O         5.3074567390        2.0916353991       14.8051719877
  O         4.0582970791        4.8161938494        7.9896338910
  O         6.8602071484        4.9601119615        1.7204305183
  O         2.5060849113        1.9484230806        8.5351539024
  O         1.9240425924        0.7761236378       14.8052206449
  O         6.2782914092        3.7869933913        7.9895672445
  O         4.9167617314        2.7338631742        3.6825050937
  O         3.6575320921        5.5320673864       10.9400102166
  O         3.8668433980        3.0020886314       12.8428222970
  O         5.1270141829        0.2013762964        5.5873634627
  O         2.3147510651        0.1337599728        3.6828041502
  O         6.6799064096        3.0708029900       10.9401780209
  O         6.4696824332        5.6012073041       12.8425031421
  O         2.1037599908        2.6664392182        5.5869925797
  H         5.7879007974        3.0506781969        3.3408857326
  H         1.4420991962        0.0579338443       10.6292071192
  H         2.9962832812        2.6847886694       13.1856265321
  H         7.3417442732        5.6774197061        5.8980664554
  H         4.5487462871        5.5524998058        3.3410451971
  H         5.7893828582        2.8097169434       10.6293599863
  H         4.2350830452        0.1829353765       13.1854153323
  H         2.9947869434        2.9258334866        5.8977871529
  H         4.9179044805        2.8959904625        4.6461193680
  H         3.5867317934        5.7922041776       11.8837374189
  H         3.8657854433        2.8391159995       11.8795110666
  H         0.0493697261       11.4140600023        4.6431073276
  H        -2.8341160716       11.4425894475        4.6466017209
  H         6.7490540082        2.8109151719       11.8832183067
  H         6.4705107369        5.7640450622       11.8790196182
  H         2.0348844630        2.9245734747        4.6435020043
 Ca         1.0417184992        7.1692813149        2.4046957162
 Ca         5.4336973774       10.0370902538        9.4861624819
 Ca         2.5943848654       10.0370502518       14.1219740709
 Ca         3.8811401940        7.1693718294        7.0387052913
  S         5.4335185379       10.0373423842        2.3463408093
  S         1.0417281411        7.1691770524        9.3640622807
  S         3.8806360961        7.1699607112       14.1788910134
  S         2.5944142906       10.0371550576        7.1611369492
  O        -0.8477871531        8.8908821071        3.1141780015
  O         0.5943297569        6.0224121773       10.2034397279
  O         4.4831345837        8.3157094318       13.4107622137
  O         3.0417310968       11.1841048916        6.3219736378
  O         6.0366581089       11.1834438455        3.1142128023
  O         1.4891620431        8.3162838739       10.2028711065
  O        -2.3997864505        6.0225187428       13.4107662131
  O         2.1468670058        8.8899284564        6.3225728383
  O         0.9029407875        9.3784584671        1.7185097819
  O         2.1514257071        6.6545030367        8.5352468892
  O         2.7328339400        7.8270969874       14.8070660883
  O         1.4843686165       10.5517703191        7.9894528032
  O         4.2855796349       10.6946430536        1.7186657000
  O        -0.0679376092        7.6840294681        8.5352899588
  O        -0.6493048747        6.5125399521       14.8069019085
  O         3.7043456100        9.5222758610        7.9894891064
  O         2.3432987693        8.4693261004        3.6822017619
  O         1.0825239233       11.2678959275       10.9401321694
  O         1.2923391145        8.7375603240       12.8431118776
  O         2.5538620876        5.9365696473        5.5870203967
  O        -0.2598203116        5.8692922361        3.6820650263
  O         4.1061521708        8.8061263621       10.9400471384
  O         3.8963465578       11.3364288383       12.8432536676
  O        -0.4703965588        8.4020056823        5.5870596615
  H         3.2152794564        8.7861999891        3.3411304976
  H        -1.1312563501        5.7932522218       10.6282470501
  H         0.4209380566        8.4201531904       13.1853954069
  H         4.7671750640       11.4129713347        5.8990212715
  H         1.9731956592       11.2880459544        3.3408570902
  H         3.2154724132        8.5451776101       10.6294709190
  H         1.6626972604        5.9182488370       13.1856446171
  H         0.4207336634        8.6612518572        5.8977539345
  H         2.3441993712        8.6316258303        4.6458562021
  H         6.1616242940        0.0566563969       11.8832276680
  H         1.2915348445        8.5743450826       11.8797638834
  H         2.6225860297        5.6787744266        4.6434535077
  H        -0.2607799155        5.7069719482        4.6456919867
  H         4.1747466593        8.5465153166       11.8831911989
  H         9.0451143942        0.0288546708       11.8799512321
  H        -0.5388212755        8.6598606444        4.6434784465
 Ca         6.7206813976        7.1692875848        2.4046457670
 Ca        -0.2450906001       10.0370047277        9.4861742998
 Ca        -3.0846069642       10.0370489179       14.1219269314
 Ca        -1.7975804091        7.1692543760        7.0387013192
  S        -0.2444727700       10.0364384786        2.3464892867
  S         6.7206331668        7.1691550249        9.3640641592
  S        -1.7975229192        7.1689825259       14.1788864889
  S        -3.0845504624       10.0371776294        7.1611106843
  O         4.8303784373        8.8914295432        3.1140146809
  O         6.2734156784        6.0224303231       10.2036020804
  O        -1.1952833291        8.3154735983       13.4112460879
  O        -2.6373773890       11.1841492805        6.3218857049
  O         0.3585616136       11.1832859030        3.1138020806
  O         7.1681679087        8.3161676787       10.2029470896
  O         3.2787431252        6.0227642171       13.4111673967
  O        -3.5321117865        8.8899432536        6.3225509731
  O         6.5812701427        9.3777069034        1.7201416163
  O         7.8303571216        6.6545884664        8.5352273117
  O        -2.9455274064        7.8277766230       14.8054369856
  O        -4.1945725164       10.5517492387        7.9894789476
  O        -1.3926625516       10.6953031486        1.7204083293
  O         5.6110922052        7.6840589727        8.5351599116
  O         5.0289714968        6.5118263018       14.8053783579
  O        -1.9747410401        9.5222517048        7.9895748474
  O        -3.3363237459        8.4692781640        3.6825418264
  O        -4.5963375696       11.2677476812       10.9402067155
  O         6.9719824669        8.7375696529       12.8427796428
  O         8.2327104683        5.9367032527        5.5869334564
  O         5.4197289690        5.8693345472        3.6823379726
  O        -1.5729984841        8.8062664047       10.9401524349
  O        -1.7832763625       11.3364169128       12.8429978159
  O         5.2087502197        8.4018643186        5.5870071349
  H        -2.4652823708        8.7862192399        3.3408923031
  H         4.5478245376        5.7932604769       10.6280180337
  H         6.1015248803        8.4201374021       13.1856600066
  H        -0.9118622216       11.4129269482        5.8991298244
  H        -3.7042878169       11.2880415033        3.3406566270
  H        -2.4635516095        8.5451447010       10.6294124550
  H         7.3402016233        5.9182579597       13.1858751334
  H         6.0997694056        8.6612906515        5.8978105200
  H        -3.3351271856        8.6314421433        4.6461563726
  H         0.4823907397        0.0567762411       11.8832052457
  H         6.9708921022        8.5745660602       11.8794676129
  H         8.3018286937        5.6786587332        4.6434643454
  H         5.4185569178        5.7071683919        4.6459365723
  H        -1.5040210598        8.5463782544       11.8831896372
  H         3.3658649794        0.0286577392       11.8797290874
  H         5.1399691506        8.6599575903        4.6435100105
     192
 i =        3, E =     -2323.9579309718
 Ca         9.2948507999        1.4338504386        2.4909238970
 Ca         2.3286520987        4.3012681241        9.4846891902
 Ca        -0.5108542802        4.3016136587       14.0331078895
 Ca         0.7763143692        1.4342159819        7.0383465068
  S         2.3282341548        4.3016001160        2.4147409443
  S         9.2948136911        1.4338564980        9.3622627319
  S         0.7758008304        1.4338225547       14.1105499239
  S        -0.5107846295        4.3015887692        7.1611737696
  O         7.4199722179        3.1362630278        3.1763232087
  O         8.8459514766        0.2844694086       10.2046439282
  O         1.3634934116        2.5991628798       13.3485527585
  O        -0.0618564014        5.4512882057        6.3192928660
  O         2.9165236036        5.4668674279        3.1762827812
  O         9.7435310293        2.5832600035       10.2046772296
  O         5.8680584467        0.2685611984       13.3485891733
  O        -0.9595664371        3.1518491117        6.3192813090
  O         9.1450897105        3.6876116641        1.7322477929
  O        10.4075188201        0.9140736832        8.5321880960
  O        -0.3613431841        2.0469532129       14.7933177673
  O        -1.6239801292        4.8213733990        7.9904534973
  O         1.1915162918        4.9155808327        1.7322423288
  O         8.1819827443        1.9536135585        8.5322342679
  O         7.5928673251        0.8208036115       14.7933049167
  O         0.6025340431        3.7818682813        7.9904288540
  O        -0.7552275884        2.7271011418        3.7078221687
  O        -2.0190200098        5.5270245893       10.9119836417
  O         9.5383414538        3.0108329441       12.8181518578
  O        10.8041244930        0.2055649005        5.6162193979
  O         7.9868773434        0.1405992942        3.7080076685
  O         0.9978295348        3.0752992347       10.9114203339
  O         0.7980030709        5.5923549472       12.8180404968
  O         7.7852712594        2.6626497016        5.6166025708
  H         0.1146579624        3.0522610547        3.3639097380
  H         7.1280519404        0.0581519592       10.6175024826
  H         8.6694801247        2.6833286912       13.1620756304
  H         1.6558221518        5.6769640764        5.9092432069
  H        -1.1361064760        5.5509414028        3.3637306570
  H         0.1033783218        2.8095360655       10.6176582609
  H         9.9199732400        0.1843558692       13.1622905145
  H         8.6807942821        2.9262422554        5.9090598247
  H        -0.7517721188        2.8953319308        4.6694717236
  H        -2.0952857405        5.7847218891       11.8616775734
  H         9.5353168310        2.8400789220       11.8568635926
  H         5.7311078951       11.4215392902        4.6656438460
  H         2.8354628855       11.4430526546        4.6699616823
  H         1.0738188991        2.8187432869       11.8609442983
  H         0.8011131116        5.7633008914       11.8564584929
  H         7.7104887696        2.9168155121        4.6663059664
 Ca         3.6158625570        1.4338477378        2.4903392802
 Ca         8.0077152760        4.3012475313        9.4846944829
 Ca         5.1681627449        4.3016387090       14.0336232159
 Ca         6.4553936748        1.4341724611        7.0383589055
  S         8.0083245241        4.3015190663        2.4147652815
  S         3.6158053125        1.4338628453        9.3622646790
  S         6.4557080057        1.4339164094       14.1105439599
  S         5.1682172570        4.3015968299        7.1611683731
  O         1.7397684492        3.1363957365        3.1765759872
  O         3.1669300011        0.2844378923       10.2045985939
  O         7.0435369266        2.5992215421       13.3483161548
  O         5.6171984847        5.4513275407        6.3193572707
  O         8.5967216005        5.4667398808        3.1765989525
  O         4.0645556029        2.5832905490       10.2046365571
  O         0.1879986347        0.2685163729       13.3483408375
  O         4.7193939748        3.1518407287        6.3193160386
  O         3.4656594794        3.6877664730        1.7330153532
  O         4.7285258793        0.9141106231        8.5322027423
  O         5.3180809520        2.0468981352       14.7928283627
  O         4.0550015707        4.8213370020        7.9904326788
  O         6.8709625203        4.9153995996        1.7330322642
  O         2.5029632226        1.9535575247        8.5322288483
  O         1.9134056916        0.8208771107       14.7928605794
  O         6.2815427653        3.7818878169        7.9904036146
  O         4.9232421609        2.7270960015        3.7084416901
  O         3.6600334208        5.5267008235       10.9120413883
  O         3.8599340352        3.0106812080       12.8175987818
  O         5.1250345022        0.2058503255        5.6161256380
  O         2.3083789942        0.1406538500        3.7086644655
  O         6.6767508998        3.0756183229       10.9115022560
  O         6.4764430816        5.5924903412       12.8174691508
  O         2.1063759119        2.6623422941        5.6165270870
  H         5.7923629135        3.0524484305        3.3635822516
  H         1.4490266831        0.0581752131       10.6175723124
  H         2.9917809410        2.6831031169       13.1624093921
  H         7.3348458996        5.6769143586        5.9091852437
  H         4.5442054859        5.5507464311        3.3633782376
  H         5.7824074507        2.8094883382       10.6177414024
  H         4.2396731681        0.1845967143       13.1626814490
  H         3.0017748143        2.9263083137        5.9090140067
  H         4.9269312935        2.8951709484        4.6701420829
  H         3.5836719804        5.7848665964       11.8615903900
  H         3.8566008948        2.8402845545       11.8562195317
  H         0.0522324678       11.4213505610        4.6657016595
  H        -2.8432162844       11.4431809548        4.6706686902
  H         6.7529071354        2.8185897789       11.8608723092
  H         6.4797902871        5.7631230950       11.8558013008
  H         2.0313447860        2.9169602054        4.6663812368
 Ca         1.0417587816        7.1690284277        2.4910228310
 Ca         5.4338453000       10.0369170355        9.4846980314
 Ca         2.5943192167       10.0373170808       14.0330712732
 Ca         3.8812017330        7.1694312581        7.0382395153
  S         5.4332367747       10.0371031685        2.4151417527
  S         1.0417141865        7.1691787692        9.3623798366
  S         3.8808270548        7.1692350148       14.1101545054
  S         2.5943750104       10.0371797758        7.1610655386
  O        -0.8327471916        8.8717543008        3.1768765070
  O         0.5932102685        6.0200071474       10.2055117581
  O         4.4683496252        8.3346403829       13.3480914099
  O         3.0429625665       11.1866944773        6.3184726306
  O         6.0212751345       11.2020795989        3.1779393429
  O         1.4904874609        8.3186425988       10.2047520150
  O        -2.3846155637        6.0042205979       13.3469899148
  O         2.1455135195        8.8874094692        6.3192072804
  O         0.8920841136        9.4232765954        1.7322872388
  O         2.1543567052        6.6494677468        8.5321069168
  O         2.7437438933        7.7822287712       14.7932546840
  O         1.4812356168       10.5567887576        7.9905849466
  O         4.2968045783       10.6511036177        1.7322929795
  O        -0.0709142018        7.6891121319        8.5321811836
  O        -0.6603395828        6.5561688112       14.7932671723
  O         3.7074681087        9.5172350711        7.9905030982
  O         2.3498154796        8.4624658496        3.7078084018
  O         1.0857025077       11.2631461323       10.9114752324
  O         1.2853786883        8.7463339155       12.8181673621
  O         2.5513017100        5.9406283281        5.6165659646
  O        -0.2664442741        5.8759678300        3.7078923602
  O         4.1029331541        8.8109951082       10.9113202509
  O         3.9034327867       11.3278292726       12.8180385468
  O        -0.4677578601        8.3977956791        5.6166603278
  H         3.2196117477        8.7878425027        3.3639683774
  H        -1.1249004098        5.7934734077       10.6173462418
  H         0.4165979661        8.4186464993       13.1620348643
  H         4.7608486443       11.4125064896        5.9094650809
  H         1.9689368641       11.2864678354        3.3640531504
  H         3.2085461145        8.5449476658       10.6175939811
  H         1.6669658030        5.9197225927       13.1619273788
  H         0.4276482635        8.6617614965        5.9091414150
  H         2.3532077978        8.6308983469        4.6694437139
  H         6.1576842478        0.0489480004       11.8609389498
  H         1.2823767736        8.5754084642       11.8568803062
  H         2.6260686744        5.6863866505        4.6663154069
  H        -0.2695268335        5.7078135897        4.6695404179
  H         4.1787579747        8.5541504037       11.8607799466
  H         9.0540028622        0.0276744622       11.8567633671
  H        -0.5423940492        8.6523031626        4.6664498459
 Ca         6.7207177582        7.1690159816        2.4904993910
 Ca        -0.2451021384       10.0368717098        9.4847217479
 Ca        -3.0846628136       10.0373403153       14.0335768358
 Ca        -1.7977256733        7.1693932848        7.0382484072
  S        -0.2446353781       10.0370237723        2.4151383463
  S         6.7207134718        7.1691683899        9.3623939438
  S        -1.7972170938        7.1693104897       14.1101734527
  S        -3.0846363496       10.0371834906        7.1610696287
  O         4.8449385400        8.8718618838        3.1771022513
  O         6.2721735124        6.0199803039       10.2054927538
  O        -1.2095876776        8.3347350154       13.3479368642
  O        -2.6360493815       11.1867269653        6.3185047782
  O         0.3435277070       11.2020520337        3.1780774876
  O         7.1695186852        8.3186503125       10.2047225870
  O         3.2933010666        6.0041556905       13.3467634033
  O        -3.5335121765        8.8873723492        6.3192691745
  O         6.5706096681        9.4234447675        1.7330710241
  O         7.8333706868        6.6495127461        8.5321241133
  O        -2.9348363780        7.7820779934       14.7927736658
  O        -4.1977925267       10.5567857125        7.9905590349
  O        -1.3817866871       10.6508967582        1.7331094577
  O         5.6080712824        7.6890743749        8.5322105532
  O         5.0181490356        6.5562389137       14.7928173189
  O        -1.9715204665        9.5172612160        7.9904633046
  O        -3.3297551549        8.4624528556        3.7084627314
  O        -4.5932157652       11.2628329512       10.9115565321
  O         6.9649899834        8.7462582318       12.8175713669
  O         8.2302191821        5.9409398979        5.6165177269
  O         5.4130706259        5.8759877430        3.7084947416
  O        -1.5761566484        8.8112966032       10.9114440330
  O        -1.7761022881       11.3279389369       12.8174545084
  O         5.2113414120        8.3974989227        5.6166027644
  H        -2.4607782349        8.7880548576        3.3636173755
  H         4.5540646632        5.7935256851       10.6174659949
  H         6.0969917689        8.4183902351       13.1623822313
  H        -0.9181225460       11.4124377861        5.9094045135
  H        -3.7087259048       11.2862449086        3.3636842839
  H        -2.4704203945        8.5448833801       10.6176842642
  H         7.3446793314        5.9199654003       13.1622927400
  H         6.1066361676        8.6618131208        5.9090893152
  H        -3.3261171750        8.6307355692        4.6701481868
  H         0.4785713956        0.0491337419       11.8608623714
  H         6.9616977863        8.5755987343       11.8562129255
  H         8.3051864643        5.6861842418        4.6664227372
  H         5.4098123179        5.7079872477        4.6701909564
  H        -1.5001358148        8.5539669462       11.8607373481
  H         3.3746877596        0.0274768531       11.8561038012
  H         5.1364788813        8.6524812176        4.6665396298
     192
 i =        4, E =     -2324.0134972301
 Ca         9.2948195753        1.4339237968        2.5770349214
 Ca         2.3290347692        4.3016305370        9.4631849944
 Ca        -0.5108256770        4.3015411651       13.9469487158
 Ca         0.7759601514        1.4338608243        7.0565199294
  S         2.3286679725        4.3019204073        2.4783489622
  S         9.2948069422        1.4337940026        9.3567967087
  S         0.7761652203        1.4341832397       14.0467798375
  S        -0.5107695713        4.3016659925        7.1635608125
  O         7.4629877327        3.1257749515        3.2685352312
  O         8.8442752529        0.2799676152       10.2017135241
  O         1.3204791081        2.6091739148       13.2557172175
  O        -0.0604192720        5.4559472838        6.3191515761
  O         2.8734283943        5.4773467522        3.2685260704
  O         9.7453129553        2.5875847890       10.2017416791
  O         5.9111878663        0.2585905040       13.2558013567
  O        -0.9611200340        3.1473812994        6.3191887674
  O         9.1377909530        3.7228750515        1.7499437185
  O        10.4094308613        0.9066973810        8.5259830520
  O        -0.3536758248        2.0127898140       14.7751028311
  O        -1.6259770623        4.8284079813        7.9934492994
  O         1.1986983058        4.8802206442        1.7498762546
  O         8.1801453242        1.9609719939        8.5259670694
  O         7.5852403089        0.8550306548       14.7751480007
  O         0.6044436719        3.7748216443        7.9934885376
  O        -0.7356780340        2.7293303004        3.7517534802
  O        -2.0069337355        5.5201121279       10.8540929374
  O         9.5184664679        3.0043255746       12.7743254485
  O        10.7911256914        0.2118416678        5.6705779256
  O         7.9672752789        0.1383997139        3.7522733938
  O         0.9855022014        3.0819236993       10.8529348988
  O         0.8180272809        5.5988022561       12.7737507783
  O         7.7985486935        2.6566446865        5.6715160421
  H         0.1343998700        3.0539863490        3.4053329155
  H         7.1444550944        0.0566501516       10.5781053477
  H         8.6481486408        2.6817032172       13.1215007950
  H         1.6394966798        5.6782410528        5.9485485081
  H        -1.1557271792        5.5491768691        3.4055825994
  H         0.0868776898        2.8110946421       10.5781753600
  H         9.9411793579        0.1860222586       13.1211872106
  H         8.6972382477        2.9248957211        5.9485315763
  H        -0.7328488105        2.8974514724        4.7174947856
  H        -2.1072448374        5.7717555275       11.8120318853
  H         9.5167648179        2.8387522035       11.8079539188
  H         5.7433533143       11.4333847253        4.7124642292
  H         2.8167343504       11.4406529490        4.7183745732
  H         1.0860201494        2.8317357508       11.8110717894
  H         0.8194060947        5.7649071451       11.8070591025
  H         7.6980084350        2.9048827702        4.7133394307
 Ca         3.6158528469        1.4338871988        2.5765159449
 Ca         8.0080763821        4.3016144463        9.4631912429
 Ca         5.1681528088        4.3015606763       13.9472465514
 Ca         6.4549976530        1.4338368532        7.0565147668
  S         8.0078300649        4.3011887444        2.4783898095
  S         3.6157862367        1.4337822848        9.3566757351
  S         6.4554225282        1.4336643451       14.0467938602
  S         5.1682416254        4.3016705675        7.1636893374
  O         1.7843288426        3.1261399827        3.2684021760
  O         3.1652834517        0.2799151789       10.2015709300
  O         6.9990761390        2.6090327044       13.2557138785
  O         5.6185809522        5.4559595193        6.3192700314
  O         8.5521100053        5.4770242364        3.2684191845
  O         4.0663165204        2.5876064773       10.2015757016
  O         0.2325590470        0.2587208861       13.2558024434
  O         4.7178844881        3.1473884220        6.3193004378
  O         3.4581066207        3.7228898941        1.7498415115
  O         4.7304975832        0.9067224954        8.5259746663
  O         5.3261038164        2.0129374979       14.7752294898
  O         4.0529555034        4.8283937554        7.9934628278
  O         6.8784066909        4.8801790660        1.7498143563
  O         2.5010780225        1.9609495074        8.5259292154
  O         1.9054775242        0.8548974654       14.7752301936
  O         6.2835106546        3.7748181583        7.9935159295
  O         4.9432209590        2.7294139794        3.7518341385
  O         3.6722656685        5.5197673340       10.8542845028
  O         3.8397153343        3.0042097335       12.7740504677
  O         5.1119571577        0.2121849923        5.6703585545
  O         2.2883729451        0.1383469721        3.7523559905
  O         6.6642985640        3.0822774765       10.8531392393
  O         6.4968080887        5.5989365033       12.7734902100
  O         2.1197477818        2.6562786216        5.6713160139
  H         5.8131331909        3.0544570104        3.4053601328
  H         1.4654509897        0.0566726904       10.5780652891
  H         2.9695914481        2.6811867260       13.1214135182
  H         7.3185017707        5.6782041051        5.9486359317
  H         4.5235455653        5.5486874549        3.4055996465
  H         5.7658807489        2.8110564126       10.5781425883
  H         4.2617347058        0.1865628220       13.1211058349
  H         3.0182278552        2.9249604603        5.9485602077
  H         4.9462358068        2.8973371823        4.7177872133
  H         3.5715915027        5.7718304009       11.8120765617
  H         3.8376508477        2.8388565975       11.8075117817
  H         0.0645206213       11.4332557834        4.7124134594
  H        -2.8623628683       11.4407332290        4.7186576670
  H         6.7651786082        2.8316501860       11.8111222766
  H         6.4985226466        5.7648535083       11.8066313484
  H         2.0188258142        2.9049956658        4.7133050737
 Ca         1.0418265298        7.1692169021        2.5769736291
 Ca         5.4338617725       10.0369573574        9.4626907729
 Ca         2.5942425969       10.0370729883       13.9470089909
 Ca         3.8812040732        7.1693917878        7.0570064747
  S         5.4337157961       10.0374770279        2.4791868018
  S         1.0417509008        7.1691443129        9.3571707443
  S         3.8811845262        7.1695960210       14.0460355385
  S         2.5943104441       10.0371835046        7.1632999561
  O        -0.7900640813        8.8611714370        3.2688886212
  O         0.5917593229        6.0156434895       10.2031940465
  O         4.4257103982        8.3447627283       13.2554353039
  O         3.0442173815       11.1912745298        6.3180139770
  O         5.9778891363       11.2120944159        3.2711245751
  O         1.4922840696        8.3231799165       10.2018209169
  O        -2.3413342818        5.9948792416       13.2532825493
  O         2.1440046544        8.8827420010        6.3190751398
  O         0.8849255242        9.4590896686        1.7502562421
  O         2.1561221664        6.6420131394        8.5259782625
  O         2.7512511171        7.7474741097       14.7748023986
  O         1.4793510158       10.5639957560        7.9935337046
  O         4.3043915940       10.6161260552        1.7502111010
  O        -0.0728249891        7.6961604224        8.5261084601
  O        -0.6683964015        6.5899605533       14.7747907891
  O         3.7094851830        9.5104363122        7.9933651912
  O         2.3693593696        8.4645461014        3.7517637617
  O         1.0979767689       11.2563022867       10.8529415731
  O         1.2655137605        8.7400463104       12.7743046557
  O         2.5381300223        5.9468849866        5.6715617552
  O        -0.2855506344        5.8740426269        3.7517012252
  O         4.0904212768        8.8177255911       10.8527940878
  O         3.9228591513       11.3339600772       12.7742867179
  O        -0.4542846202        8.3916031635        5.6716299104
  H         3.2393218785        8.7894804843        3.4053690173
  H        -1.1089166621        5.7917890852       10.5784346613
  H         0.3953233958        8.4171430882       13.1214794666
  H         4.7449410762       11.4139643260        5.9483605110
  H         1.9492235735       11.2847711733        3.4057170510
  H         3.1920189780        8.5465492634       10.5777772457
  H         1.6882775709        5.9213228849       13.1212164704
  H         0.4441216076        8.6603976860        5.9489280812
  H         2.3720374648        8.6331651413        4.7174283588
  H         6.1455447048        0.0360099706       11.8109779312
  H         1.2639134317        8.5739313110       11.8080227736
  H         2.6384029057        5.6982260360        4.7134776122
  H        -0.2887727708        5.7054332512        4.7173734469
  H         4.1912329435        8.5671533677       11.8108518139
  H         9.0729537764        0.0293162223       11.8080229358
  H        -0.5551102510        8.6403999681        4.7135705765
 Ca         6.7208049070        7.1692041541        2.5764726756
 Ca        -0.2451172268       10.0369181220        9.4627037392
 Ca        -3.0847297993       10.0370554558       13.9473138541
 Ca        -1.7977967600        7.1693622369        7.0570081256
  S        -0.2451129286       10.0367515961        2.4791157801
  S         6.7207778793        7.1691590679        9.3570718081
  S        -1.7975770040        7.1690678298       14.0460550895
  S        -3.0847070604       10.0371763525        7.1634179814
  O         4.8892194336        8.8614122733        3.2687000975
  O         6.2707379109        6.0156150584       10.2030254767
  O        -1.2537270186        8.3446646529       13.2554989166
  O        -2.6347624624       11.1912653949        6.3181278028
  O         0.2985604209       11.2117647979        3.2709232580
  O         7.1712804826        8.3232400717       10.2016899127
  O         3.3379692844        5.9950418078       13.2533200025
  O        -3.5350079552        8.8827156900        6.3191950021
  O         6.5631945521        9.4591256073        1.7502079985
  O         7.8351759228        6.6420057200        8.5259558681
  O        -2.9269837471        7.7475855269       14.7749524038
  O        -4.1997006982       10.5639871716        7.9935834984
  O        -1.3739807214       10.6160595869        1.7501247824
  O         5.6061121084        7.6961071596        8.5261154531
  O         5.0098462435        6.5898216194       14.7748880196
  O        -1.9694466123        9.5105022018        7.9933831112
  O        -3.3097433502        8.4646427964        3.7518512143
  O        -4.5808287716       11.2559486531       10.8531365848
  O         6.9447510637        8.7399617388       12.7740131577
  O         8.2169174068        5.9472519369        5.6713799963
  O         5.3935344507        5.8739518760        3.7518055979
  O        -1.5887713850        8.8180683882       10.8530446050
  O        -1.7563570975       11.3340621341       12.7740070767
  O         5.2249244981        8.3912452675        5.6714005843
  H        -2.4399939044        8.7900025676        3.4053828333
  H         4.5700811655        5.7918252206       10.5783911023
  H         6.0748165574        8.4165750260       13.1214004525
  H        -0.9340284201       11.4138962716        5.9483527625
  H        -3.7294702829       11.2842398971        3.4057509897
  H        -2.4869645101        8.5464753154       10.5777831815
  H         7.3668679766        5.9218726053       13.1211181898
  H         6.1231165469        8.6604457234        5.9489735711
  H        -3.3068776022        8.6330499537        4.7177381603
  H         0.4663764825        0.0361295827       11.8110113095
  H         6.9428314354        8.5740228358       11.8075626003
  H         8.3176112076        5.6980602451        4.7134718636
  H         5.3901578016        5.7055436485        4.7176837633
  H        -1.4876146909        8.5670424190       11.8109394454
  H         3.3940667652        0.0292409057       11.8075783670
  H         5.1236860754        8.6405589236        4.7135235336
     192
 i =        5, E =     -2324.0468074959
 Ca         9.2945564770        1.4340575747        2.6547333141
 Ca         2.3292295989        4.3017297808        9.4238990938
 Ca        -0.5105717148        4.3014459588       13.8691435536
 Ca         0.7758493573        1.4336535026        7.0953081908
  S         2.3289135895        4.3012940371        2.5200901486
  S         9.2947483117        1.4338270109        9.3459799603
  S         0.7764784487        1.4336212002       14.0038808261
  S        -0.5107021655        4.3016394486        7.1705131885
  O         7.4981784621        3.1223399289        3.3391926000
  O         8.8423711999        0.2752353309       10.1891745594
  O         1.2852701474        2.6127804176       13.1841619379
  O        -0.0582845499        5.4603760207        6.3275083339
  O         2.8381105349        5.4806451018        3.3392913691
  O         9.7472946115        2.5922848476       10.1892642357
  O         5.9464647217        0.2550923433       13.1840646266
  O        -0.9633222937        3.1429838603        6.3275105684
  O         9.1378057091        3.7460690538        1.7693171843
  O        10.4076866634        0.9026964968        8.5143705959
  O        -0.3536651983        1.9894848061       14.7545982085
  O        -1.6242609563        4.8324798799        8.0009649250
  O         1.1987244646        4.8570838970        1.7692535246
  O         8.1817972188        1.9647607258        8.5142212724
  O         7.5852720837        0.8783651992       14.7546846021
  O         0.6028354414        3.7709618441        8.0011317404
  O        -0.7090028975        2.7362167513        3.8070375043
  O        -1.9950817486        5.5014888513       10.7753444354
  O         9.4935742004        2.9974628983       12.7186445490
  O        10.7817877568        0.2316725748        5.7534335050
  O         7.9406907140        0.1318936955        3.8076404623
  O         0.9732176968        3.1004205453       10.7757275973
  O         0.8427383494        5.6051284476       12.7182489105
  O         7.8083190370        2.6369595563        5.7525865541
  H         0.1619117080        3.0543860461        3.4648075116
  H         7.1607184027        0.0515633565       10.5245681203
  H         8.6211327248        2.6812191795       13.0590969825
  H         1.6238447410        5.6828156047        5.9993704246
  H        -1.1834032108        5.5487724171        3.4645710877
  H         0.0707431906        2.8161812221       10.5248285655
  H         9.9683585682        0.1864809788       13.0593233230
  H         8.7126797256        2.9203438284        5.9989918780
  H        -0.7065180268        2.9061091862        4.7771902177
  H        -2.1076080039        5.7677353350       11.7326376864
  H         9.4883043668        2.8298632392       11.7481353938
  H         5.7414382396       11.4376767071        4.7950751061
  H         2.7903854127       11.4316139815        4.7779746106
  H         1.0869260165        2.8355923034       11.7335320846
  H         0.8479913027        5.7742334859       11.7476157084
  H         7.6993668739        2.9007420835        4.7938251936
 Ca         3.6155853264        1.4340041530        2.6547065899
 Ca         8.0081555847        4.3017588394        9.4238982010
 Ca         5.1684124366        4.3014563512       13.8689057268
 Ca         6.4547609529        1.4336956459        7.0952871622
  S         8.0075323335        4.3017161057        2.5201261467
  S         3.6157297189        1.4338216005        9.3457885825
  S         6.4551356545        1.4342092133       14.0039173930
  S         5.1683041238        4.3016447783        7.1706338378
  O         1.8196295735        3.1224441159        3.3397857701
  O         3.1633665291        0.2751678696       10.1889182453
  O         6.9637869311        2.6128012098       13.1834520279
  O         5.6207288828        5.4603936392        6.3276283661
  O         8.5167293039        5.4805749381        3.3398812369
  O         4.0683229079        2.5923313104       10.1889880981
  O         0.2678469521        0.2550555639       13.1833686727
  O         4.7156788931        3.1429674162        6.3276432830
  O         3.4589683840        3.7469079021        1.7678802234
  O         4.7287309434        0.9026886093        8.5142826957
  O         5.3254187588        1.9890216160       14.7561456178
  O         4.0547127072        4.8324848702        8.0010281516
  O         6.8775744449        4.8562208887        1.7678552713
  O         2.5027439198        1.9647586692        8.5141042620
  O         1.9062301941        0.8788624608       14.7561462597
  O         6.2818543792        3.7709472193        8.0012083740
  O         4.9701139422        2.7364231712        3.8068040623
  O         3.6837884384        5.5012381119       10.7752827265
  O         3.8145072446        2.9972180188       12.7186480674
  O         5.1029260383        0.2318291662        5.7534330152
  O         2.2615291153        0.1316764173        3.8074145750
  O         6.6523019646        3.1006991947       10.7756882912
  O         6.5218560143        5.6054272287       12.7182813813
  O         2.1292152376        2.6367485018        5.7526266966
  H         5.8413378403        3.0549077376        3.4649801363
  H         1.4816478033        0.0515652024       10.5247546059
  H         2.9418267710        2.6805813043       13.0588887171
  H         7.3029349048        5.6827949601        5.9991923467
  H         4.4951849520        5.5482231317        3.4647790974
  H         5.7498242078        2.8161659174       10.5250453955
  H         4.2896452940        0.1871398357       13.0591385706
  H         3.0335951244        2.9203803948        5.9987926338
  H         4.9726425171        2.9059681115        4.7771336087
  H         3.5715941298        5.7677841010       11.7325304622
  H         3.8091379076        2.8299735762       11.7479674192
  H         0.0623125853       11.4376134049        4.7951078141
  H        -2.8887518801       11.4317563334        4.7779172795
  H         6.7657317191        2.8355511701       11.7334349692
  H         6.5271540600        5.7741654035       11.7474707561
  H         2.0205072690        2.9008181411        4.7939138341
 Ca         1.0418968362        7.1693204508        2.6541092145
 Ca         5.4339145100       10.0371033001        9.4231300777
 Ca         2.5941606054       10.0370936708       13.8697737418
 Ca         3.8812079744        7.1692251044        7.0963504572
  S         5.4335821500       10.0363906928        2.5207020960
  S         1.0418477428        7.1692559437        9.3466325968
  S         3.8818660958        7.1694550333       14.0033552636
  S         2.5942365902       10.0371300014        7.1700643502
  O        -0.7553044080        8.8570973423        3.3390062223
  O         0.5898106620        6.0108776265       10.1906692297
  O         4.3908819548        8.3490271391       13.1844997238
  O         3.0464586313       11.1958521296        6.3265569700
  O         5.9435097036       11.2153533584        3.3395325481
  O         1.4943621876        8.3281843257       10.1892866196
  O        -2.3067895503        5.9914787317       13.1836153266
  O         2.1417294398        8.8781543526        6.3274407845
  O         0.8854094920        9.4828244507        1.7700683610
  O         2.1544574374        6.6380160246        8.5146426032
  O         2.7508654176        7.7237548119       14.7539061809
  O         1.4809811944       10.5680472826        8.0008817527
  O         4.3043741077       10.5935153838        1.7697172599
  O        -0.0712804235        7.6997773637        8.5148224200
  O        -0.6683239099        6.6127900631       14.7542572340
  O         3.7079739327        9.5066851996        8.0005996194
  O         2.3960310771        8.4712358064        3.8071605589
  O         1.1105445300       11.2379923762       10.7759473706
  O         1.2406011680        8.7334211256       12.7184662657
  O         2.5279326815        5.9663132018        5.7523476489
  O        -0.3124125121        5.8671233733        3.8073030216
  O         4.0781788063        8.8361501373       10.7755185598
  O         3.9480131353       11.3408209757       12.7181877709
  O        -0.4445295262        8.3720097942        5.7528113365
  H         3.2667631982        8.7897515073        3.4648012995
  H        -1.0927967329        5.7866806005       10.5256910073
  H         0.3683857325        8.4167892138       13.0591351054
  H         4.7294966315       11.4185170180        5.9982827201
  H         1.9218861048       11.2843531411        3.4657968160
  H         3.1758326390        8.5516603185       10.5245130665
  H         1.7151034958        5.9218686643       13.0581151952
  H         0.4596418347        8.6558181866        5.9993648666
  H         2.3982191954        8.6419715508        4.7771676733
  H         6.1444093002        0.0321472170       11.7336802032
  H         1.2356203421        8.5648689729       11.7481282583
  H         2.6374413830        5.7024005927        4.7936380527
  H        -0.3147492891        5.6967744441        4.7773928793
  H         4.1921076654        8.5709674744       11.7332567612
  H         9.1009832620        0.0382218437       11.7477911190
  H        -0.5537606632        8.6362944947        4.7941322189
 Ca         6.7208972884        7.1693168828        2.6541014267
 Ca        -0.2451542557       10.0371012141        9.4231343198
 Ca        -3.0848165631       10.0370843732       13.8695592200
 Ca        -1.7978899338        7.1692744834        7.0963597611
  S        -0.2458380424       10.0368286419        2.5206364412
  S         6.7208763039        7.1692603779        9.3464565808
  S        -1.7974857977        7.1700220686       14.0033931106
  S        -3.0847627543       10.0371256917        7.1701847461
  O         4.9241029633        8.8570775274        3.3395192923
  O         6.2687671113        6.0108326454       10.1903999034
  O        -1.2886475091        8.3490898587       13.1838404272
  O        -2.6324866400       11.1958374302        6.3266727612
  O         0.2640205502       11.2152438749        3.3401262000
  O         7.1733778410        8.3282591575       10.1890383581
  O         3.3726202778        5.9914632709       13.1829093246
  O        -3.5372996045        8.8781369371        6.3275699003
  O         6.5645749928        9.4836738984        1.7686735968
  O         7.8335066016        6.6379895506        8.5145354619
  O        -2.9281075860        7.7232115454       14.7554313104
  O        -4.1980227503       10.5680392688        8.0009789008
  O        -1.3748384406       10.5926464184        1.7682457156
  O         5.6076889612        7.6997631612        8.5147401572
  O         5.0106262241        6.6132617992       14.7556911747
  O        -1.9709866251        9.5067228369        8.0006780382
  O        -3.2828366629        8.4714621170        3.8069189178
  O        -4.5685367316       11.2377452640       10.7759032412
  O         6.9195464758        8.7331731347       12.7184865440
  O         8.2070533138        5.9665343104        5.7524357249
  O         5.3664841585        5.8669082160        3.8071057335
  O        -1.6007226491        8.8363913556       10.7755071927
  O        -1.7308987766       11.3410752738       12.7181766667
  O         5.2343395733        8.3718109166        5.7528470487
  H        -2.4118228408        8.7903422633        3.4649688290
  H         4.5861051247        5.7867023616       10.5259362448
  H         6.0471074483        8.4160977868       13.0589090843
  H        -0.9493999054       11.4184714448        5.9980379531
  H        -3.7575383347       11.2837676125        3.4659251438
  H        -2.5030787287        8.5516118212       10.5247528619
  H         7.3944659768        5.9225275793       13.0579124172
  H         6.1385513141        8.6558530678        5.9991365518
  H        -3.2806003657        8.6418193413        4.7771126694
  H         0.4655782961        0.0322021702       11.7335805124
  H         6.9144661036        8.5649740483       11.7479638760
  H         8.3162786624        5.7022747903        4.7937902900
  H         5.3640644286        5.6968959367        4.7773658366
  H        -1.4870716096        8.5709348223       11.7332042343
  H         3.4221264458        0.0381366989       11.7476040642
  H         5.1253828897        8.6364045570        4.7942268704
     192
 i =        6, E =     -2324.0667947443
 Ca         9.2946260058        1.4336083630        2.6940291194
 Ca         2.3287422286        4.3012470715        9.3991920069
 Ca        -0.5107077210        4.3017655022       13.8277791416
 Ca         0.7763659912        1.4341669653        7.1206907970
  S         2.3291258158        4.3017583073        2.5298965950
  S         9.2948041604        1.4337512168        9.3310595876
  S         0.7766193738        1.4339828580       13.9925519333
  S        -0.5107612325        4.3017058404        7.1845980428
  O         7.5182163463        3.1235226234        3.3663302497
  O         8.8396977341        0.2737924052       10.1687267042
  O         1.2667316534        2.6121094273       13.1571889402
  O        -0.0558372677        5.4608718797        6.3456001014
  O         2.8183326541        5.4795514499        3.3663796805
  O         9.7498793986        2.5936707413       10.1687824758
  O         5.9648003782        0.2557502367       13.1572332265
  O        -0.9656973738        3.1425177899        6.3456369075
  O         9.1453687080        3.7516011366        1.7859163838
  O        10.4044768793        0.9011478075        8.5026288885
  O        -0.3609644515        1.9848546827       14.7360080162
  O        -1.6203587263        4.8340955398        8.0130268002
  O         1.1910857965        4.8515352077        1.7858783179
  O         8.1852288044        1.9664376020        8.5026331819
  O         7.5926075293        0.8829102449       14.7360046806
  O         0.5987500905        3.7693065120        8.0130552268
  O        -0.6885966574        2.7405595765        3.8379661393
  O        -1.9826609585        5.5001430061       10.7245593922
  O         9.4725124563        2.9922332881       12.6833925274
  O        10.7666144242        0.2281492465        5.8006983375
  O         7.9201153516        0.1275392842        3.8383821499
  O         0.9619137276        3.1022226649       10.7247272956
  O         0.8641533610        5.6104083512       12.6831332436
  O         7.8221233036        2.6398216967        5.8006451464
  H         0.1873634409        3.0516433007        3.5101695862
  H         7.1731018276        0.0397199636       10.4699230324
  H         8.5962687042        2.6837980602       13.0137630267
  H         1.6100583397        5.6949142714        6.0567289397
  H        -1.2088042871        5.5515049978        3.5100762416
  H         0.0582486511        2.8280596810       10.4696894824
  H         9.9931213281        0.1839030479       13.0136909861
  H         8.7266716009        2.9081928125        6.0571343507
  H        -0.6887554330        2.9145177931        4.8109917806
  H        -2.1061060549        5.7719336985       11.6763700785
  H         9.4715884253        2.8218821082       11.7103554038
  H         5.7440508302       11.4339786085        4.8467727722
  H         2.7728300193       11.4234202291        4.8112937558
  H         1.0842202566        2.8308647826       11.6772176691
  H         0.8643242614        5.7820093057       11.7101962888
  H         7.6981993523        2.9048961262        4.8461425102
 Ca         3.6156187877        1.4335731128        2.6944208449
 Ca         8.0077391415        4.3013597020        9.3991980456
 Ca         5.1683112482        4.3017873608       13.8272296151
 Ca         6.4553764356        1.4342949976        7.1206867801
  S         8.0073596253        4.3013832896        2.5299161778
  S         3.6158042850        1.4337450935        9.3308874876
  S         6.4550175800        1.4338525041       13.9925776721
  S         5.1682420487        4.3017020438        7.1846809497
  O         1.8404357808        3.1237791971        3.3662536137
  O         3.1607408645        0.2737664799       10.1685541155
  O         6.9446517946        2.6119724799       13.1570526029
  O         5.6231254099        5.4608687446        6.3456452608
  O         8.4961502433        5.4793090102        3.3663111770
  O         4.0708610553        2.5936805878       10.1686022067
  O         0.2868337356        0.2558811276       13.1570852114
  O         4.7133486489        3.1425119550        6.3456835075
  O         3.4661562194        3.7519191689        1.7847046637
  O         4.7254762827        0.9011274055        8.5024747139
  O         5.3183951027        1.9846563661       14.7373478001
  O         4.0586477647        4.8341033870        8.0131061382
  O         6.8702957669        4.8512069765        1.7846981028
  O         2.5062345407        1.9664488250        8.5024795375
  O         1.9132662723        0.8831035813       14.7372831300
  O         6.2777360041        3.7692923405        8.0131532158
  O         4.9905879389        2.7409117724        3.8375357135
  O         3.6964637381        5.4999697854       10.7244352260
  O         3.7934178058        2.9918259160       12.6836158339
  O         5.0875539208        0.2282308009        5.8007510801
  O         2.2409175314        0.1271640114        3.8379286035
  O         6.6407443919        3.1024434354       10.7246317502
  O         6.5432968917        5.6108641301       12.6833958712
  O         2.1432550200        2.6396926265        5.8006668830
  H         5.8670988602        3.0519406423        3.5103527899
  H         1.4941645099        0.0396556484       10.4697619530
  H         2.9166966936        2.6833263133       13.0134413430
  H         7.2890121691        5.6949656125        6.0569076240
  H         4.4694549758        5.5511768126        3.5102753609
  H         5.7371852714        2.8281183832       10.4695289581
  H         4.3146873158        0.1843967413       13.0133869901
  H         3.0477105116        2.9081548173        6.0572763993
  H         4.9903577382        2.9143652680        4.8106559685
  H         3.5728615626        5.7718882413       11.6762467324
  H         3.7924074565        2.8219574733       11.7104760400
  H         0.0651001581       11.4339947646        4.8468158399
  H        -2.9062919715       11.4235748610        4.8109310568
  H         6.7632442158        2.8309231361       11.6771131748
  H         6.5435172074        5.7819686740       11.7103544132
  H         2.0191356645        2.9048935413        4.8461739891
 Ca         1.0418763543        7.1691799213        2.6934998112
 Ca         5.4339493374       10.0373727970        9.3990105986
 Ca         2.5942496682       10.0372139034       13.8280558321
 Ca         3.8811115364        7.1689037895        7.1205121353
  S         5.4344572122       10.0375291432        2.5302656961
  S         1.0418481887        7.1694627206        9.3314673925
  S         3.8814147281        7.1693212854       13.9922672255
  S         2.5942514058       10.0369106745        7.1843388317
  O        -0.7350081923        8.8587339334        3.3654350185
  O         0.5869295953        6.0095197600       10.1693945091
  O         4.3720869248        8.3480617574       13.1582298292
  O         3.0490558510       11.1962680296        6.3454009666
  O         5.9233877733       11.2144949090        3.3673419858
  O         1.4970819877        8.3295766117       10.1687972442
  O        -2.2883782557        5.9919176341       13.1565136713
  O         2.1392005105        8.8776844972        6.3455444983
  O         0.8925951476        9.4872223964        1.7866672308
  O         2.1513397981        6.6363993952        8.5031298649
  O         2.7438999826        7.7202457731       14.7353735778
  O         1.4848452924       10.5697589312        8.0126561538
  O         4.2960927087       10.5871282574        1.7864093064
  O        -0.0682442380        7.7015268006        8.5032714488
  O        -0.6604311042        6.6180977937       14.7354450273
  O         3.7042900206        9.5048858629        8.0123752044
  O         2.4163366418        8.4756131764        3.8380551318
  O         1.1215115767       11.2359291489       10.7245920827
  O         1.2196710732        8.7281701779       12.6832299325
  O         2.5147008961        5.9639460378        5.8009667101
  O        -0.3327445823        5.8628380884        3.8380329805
  O         4.0670084946        8.8376873070       10.7246932535
  O         3.9689090872       11.3459108480       12.6831186250
  O        -0.4308286043        8.3750171928        5.8007219791
  H         3.2921850776        8.7868552171        3.5100725139
  H        -1.0794383972        5.7745392095       10.4695108235
  H         0.3435685340        8.4195462769       13.0138514402
  H         4.7145658296       11.4309399056        6.0576717967
  H         1.8963059716       11.2870191260        3.5108740497
  H         3.1633027907        8.5637167280       10.4695614480
  H         1.7401896826        5.9193602219       13.0133255219
  H         0.4736679850        8.6434572351        6.0573346724
  H         2.4158508334        8.6501215480        4.8109771855
  H         6.1475079322        0.0368828921       11.6770155112
  H         1.2190288553        8.5571214081       11.7103261432
  H         2.6379516141        5.6982195822        4.8465468547
  H        -0.3324883579        5.6884976569        4.8110224784
  H         4.1894032876        8.5665075745       11.6772258039
  H         9.1177693577        0.0461557110       11.7101914384
  H        -0.5549282398        8.6401480531        4.8462411435
 Ca         6.7208908840        7.1691726939        2.6939017231
 Ca        -0.2450608315       10.0374669134        9.3990177094
 Ca        -3.0847467004       10.0371894688       13.8275317294
 Ca        -1.7978785554        7.1690399906        7.1205199076
  S        -0.2453647445       10.0371465528        2.5302244177
  S         6.7208550938        7.1694680811        9.3312972381
  S        -1.7982383014        7.1691751480       13.9923113074
  S        -3.0847407188       10.0369106758        7.1844115779
  O         4.9452757285        8.8589051221        3.3653104546
  O         6.2659428445        6.0095157034       10.1692209394
  O        -1.3080692804        8.3479533973       13.1581455952
  O        -2.6299346220       11.1962476329        6.3454347447
  O         0.2431438222       11.2142648422        3.3671855633
  O         7.1760471409        8.3296086127       10.1686242173
  O         3.3916310127        5.9920759150       13.1563776416
  O        -3.5397740547        8.8776824168        6.3455914230
  O         6.5714235093        9.4875627615        1.7854856612
  O         7.8303431137        6.6363759733        8.5029834415
  O        -2.9348124087        7.7199945230       14.7367255069
  O        -4.1941187044       10.5697698455        8.0127550197
  O        -1.3827178519       10.5867843910        1.7851353577
  O         5.6107673617        7.7015356790        8.5031107686
  O         5.0182419664        6.6182678575       14.7367078626
  O        -1.9747140781        9.5048834591        8.0124646480
  O        -3.2624231548        8.4760010121        3.8376116909
  O        -4.5573470916       11.2357439042       10.7244729425
  O         6.8985541174        8.7277280623       12.6834788596
  O         8.1935674119        5.9640618026        5.8010132458
  O         5.3460619204        5.8624583348        3.8376501956
  O        -1.6121215698        8.8378448239       10.7246044062
  O        -1.7099772939       11.3463337893       12.6833273490
  O         5.2482848798        8.3749453395        5.8007300466
  H        -2.3860284239        8.7872208660        3.5102428365
  H         4.5996091023        5.7744905029       10.4693758488
  H         6.0219700848        8.4190287567       13.0135488705
  H        -0.9644452582       11.4309528645        6.0577382794
  H        -3.7834389579       11.2866737799        3.5110546923
  H        -2.5157446567        8.5637477668       10.4694299751
  H         7.4198177344        5.9198394701       13.0130093239
  H         6.1527100980        8.6434195620        6.0574654948
  H        -3.2630053357        8.6499534731        4.8106393901
  H         0.4684927893        0.0368270295       11.6768947510
  H         6.8978801044        8.5572113143       11.7104549637
  H         8.3170143198        5.6981946319        4.8466147090
  H         5.3463785315        5.6886323440        4.8107364734
  H        -1.4895630696        8.5665858822       11.6771582936
  H         3.4389341097        0.0461033901       11.7102923937
  H         5.1239833690        8.6401461664        4.8462507621
     192
 i =        7, E =     -2324.0787223598
 Ca         9.2946429144        1.4335493375        2.7229408270
 Ca         2.3283945643        4.3011895414        9.3664555529
 Ca        -0.5107732246        4.3019915783       13.7937820841
 Ca         0.7766294566        1.4341001842        7.1420473495
  S         2.3289848073        4.3013541828        2.5413605607
  S         9.2947611652        1.4338284680        9.3034366472
  S         0.7763130715        1.4338616754       13.9812657809
  S        -0.5107307632        4.3016553579        7.2157611047
  O         7.5348112179        3.1263081374        3.3912193913
  O         8.8368049327        0.2745603102       10.1320597602
  O         1.2521012397        2.6086563186       13.1329121357
  O        -0.0511844285        5.4601440702        6.3867361398
  O         2.8017237006        5.4765576688        3.3913954487
  O         9.7526265856        2.5930280923       10.1321932214
  O         5.9793029305        0.2592944421       13.1328007141
  O        -0.9702020010        3.1431413384        6.3867241308
  O         9.1497832722        3.7491336176        1.8099470001
  O        10.3988407895        0.9005392284        8.4819468178
  O        -0.3653236248        1.9886494014       14.7114478515
  O        -1.6140053647        4.8348870923        8.0383966454
  O         1.1868320015        4.8540309560        1.8100585368
  O         8.1908143590        1.9671309503        8.4818865570
  O         7.5969054324        0.8791883472       14.7112363981
  O         0.5923901942        3.7683781608        8.0384890202
  O        -0.6571777478        2.7428388302        3.8811325037
  O        -1.9752526029        5.5075200691       10.6626094662
  O         9.4435372407        2.9910460797       12.6390008099
  O        10.7625622170        0.2227929882        5.8618341247
  O         7.8883646202        0.1252831095        3.8811210863
  O         0.9542821889        3.0942038545       10.6636695405
  O         0.8933902158        5.6113977178       12.6392165374
  O         7.8270391281        2.6463520174        5.8602500955
  H         0.2258749831        3.0410181730        3.5617684598
  H         7.1869288003        0.0184363691       10.3953330506
  H         8.5596857870        2.6938025132       12.9574593393
  H         1.5978527876        5.7148874832        6.1261621993
  H        -1.2472602066        5.5621437854        3.5620200138
  H         0.0446326605        2.8492076189       10.3955037299
  H        10.0297437133        0.1739193411       12.9572400870
  H         8.7384525876        2.8884356328        6.1255948416
  H        -0.6770817431        2.9267764103        4.8531550269
  H        -2.0841922052        5.7899657553       11.6030344540
  H         9.4579778808        2.8098349591       11.6671232085
  H         5.7173643243       11.4132918207        4.9206946823
  H         2.7613211661       11.4115021235        4.8526745380
  H         1.0626173183        2.8127352125       11.6051451996
  H         0.8778573560        5.7937949858       11.6677926745
  H         7.7237306111        2.9255037540        4.9180753350
 Ca         3.6156270655        1.4335462145        2.7233682551
 Ca         8.0074250343        4.3014549401        9.3664581491
 Ca         5.1682579111        4.3020090283       13.7929744847
 Ca         6.4556719810        1.4343629318        7.1420517349
  S         8.0076203501        4.3016024488        2.5413567881
  S         3.6157678096        1.4338246632        9.3034128462
  S         6.4550965972        1.4340143713       13.9812709586
  S         5.1682686058        4.3016484958        7.2156913947
  O         1.8562271402        3.1262950015        3.3913976494
  O         3.1578499171        0.2745703637       10.1320601139
  O         6.9306250949        2.6086938833       13.1327380296
  O         5.6277798711        5.4601565210        6.3866758866
  O         8.4802719047        5.4765631296        3.3915989845
  O         4.0735870594        2.5930108292       10.1321971165
  O         0.3007967659        0.2592706716       13.1325900462
  O         4.7088495748        3.1431199159        6.3866494689
  O         3.4710035843        3.7498407922        1.8090005013
  O         4.7197963104        0.9005217185        8.4818478641
  O         5.3135899907        1.9883671981       14.7119403955
  O         4.0650184723        4.8348566679        8.0384080539
  O         6.8656117394        4.8533530264        1.8091208735
  O         2.5118643302        1.9671330828        8.4817916722
  O         1.9179724082        0.8794367541       14.7117329845
  O         6.2713524953        3.7684096669        8.0385235468
  O         5.0216482467        2.7433398053        3.8806069997
  O         3.7037797554        5.5073471603       10.6623988610
  O         3.7646741271        2.9903566082       12.6393071065
  O         5.0836484969        0.2228619448        5.8619418849
  O         2.2095291025        0.1247075339        3.8805592743
  O         6.6332366998        3.0944582682       10.6634659893
  O         6.5722943339        5.6121631092       12.6395410891
  O         2.1479581923        2.6461666754        5.8603879796
  H         5.9053421989        3.0408690243        3.5620064766
  H         1.5079806208        0.0183053362       10.3951652926
  H         2.8802745541        2.6937269166       12.9571630333
  H         7.2768793927        5.7149931719        6.1261983060
  H         4.4312442872        5.5622565260        3.5622831536
  H         5.7235897125        2.8493386336       10.3953550927
  H         4.3511512405        0.1740212488       12.9569189945
  H         3.0594150097        2.8883314869        6.1256104279
  H         5.0018990955        2.9267353866        4.8525834637
  H         3.5949274991        5.7899521348       11.6027842306
  H         3.7790030174        2.8098137295       11.6674351001
  H         0.0382327569       11.4132861778        4.9208156636
  H        -2.9176764670       11.4115517034        4.8520814731
  H         6.7414294586        2.8127565998       11.6048851601
  H         6.5568696528        5.7938503047       11.6681182999
  H         2.0449633141        2.9255448392        4.9182631565
 Ca         1.0414914350        7.1695182671        2.7223925160
 Ca         5.4336616030       10.0369694057        9.3664623579
 Ca         2.5945603466       10.0369494910       13.7941894065
 Ca         3.8813490359        7.1690745512        7.1419755423
  S         5.4341374663       10.0361979804        2.5413489472
  S         1.0419856389        7.1695052528        9.3033634778
  S         3.8812232605        7.1699024637       13.9813947821
  S         2.5941572299       10.0369160584        7.2158169831
  O        -0.7181510110        8.8612277610        3.3911846669
  O         0.5838906974        6.0099904444       10.1314505054
  O         4.3570900933        8.3447237962       13.1330765016
  O         3.0539548377       11.1957725564        6.3875925984
  O         5.9070703534       11.2116736096        3.3901195231
  O         1.5000107667        8.3287375317       10.1319553931
  O        -2.2739284276        5.9953751405       13.1337676093
  O         2.1344956682        8.8784616319        6.3868565490
  O         0.8971165243        9.4846415280        1.8098746843
  O         2.1461282842        6.6362593133        8.4820182299
  O         2.7394553863        7.7241389043       14.7116925695
  O         1.4908633242       10.5700814198        8.0383588317
  O         4.2921364663       10.5897366034        1.8103993861
  O        -0.0624253564        7.7026397882        8.4823617084
  O        -0.6562953828        6.6145777532       14.7111361821
  O         3.6977858623        9.5037587733        8.0378702927
  O         2.4477346977        8.4779856810        3.8812124335
  O         1.1296246427       11.2442629930       10.6638578587
  O         1.1906793009        8.7268954197       12.6388215031
  O         2.5087855555        5.9568711295        5.8599176525
  O        -0.3641802454        5.8604767037        3.8809596100
  O         4.0597247232        8.8297281294       10.6639193135
  O         3.9981102696       11.3472359879       12.6388685573
  O        -0.4261748088        8.3813978053        5.8599411982
  H         3.3308059763        8.7761125217        3.5617380289
  H        -1.0654570405        5.7534431254       10.3956065878
  H         0.3068779649        8.4296804181       12.9575328084
  H         4.7027290768       11.4505349865        6.1250922035
  H         1.8575252408       11.2974675777        3.5620777144
  H         3.1499357252        8.5849859744       10.3958015089
  H         1.7769776020        5.9095348280       12.9574012906
  H         0.4852168568        8.6235897528        6.1253748678
  H         2.4276355888        8.6621355346        4.8531864490
  H         6.1686073819        0.0548449591       11.6053147267
  H         1.2053533601        8.5453696545       11.6669918036
  H         2.6134475706        5.6778995505        4.9177458541
  H        -0.3443696031        5.6763529192        4.8529752712
  H         4.1676849681        8.5486579996       11.6054106890
  H         9.1313931875        0.0580223833       11.6670299950
  H        -0.5292217117        8.6605280091        4.9178759794
 Ca         6.7205125372        7.1695308128        2.7228734190
 Ca        -0.2453173975       10.0372270322        9.3664902467
 Ca        -3.0844570489       10.0369221293       13.7934178168
 Ca        -1.7976052066        7.1693416035        7.1419949144
  S        -0.2452602609       10.0365017368        2.5413286594
  S         6.7209743712        7.1695128788        9.3033508512
  S        -1.7980146988        7.1700689581       13.9814002872
  S        -3.0848232911       10.0369102057        7.2157271368
  O         4.9612922019        8.8611503510        3.3913643419
  O         6.2629281180        6.0100192908       10.1314805786
  O        -1.3224044894        8.3447957542       13.1329218411
  O        -2.6250618670       11.1957723874        6.3874996923
  O         0.2275625653       11.2117671051        3.3902844852
  O         7.1789722497        8.3287382832       10.1319585845
  O         3.4055824501        5.9953566973       13.1335256331
  O        -3.5444625244        8.8784463812        6.3867708186
  O         6.5764140413        9.4853814328        1.8089236856
  O         7.8250829714        6.6362464862        8.4819525196
  O        -2.9396872361        7.7238196338       14.7121706005
  O        -4.1880794048       10.5700828839        8.0383484671
  O        -1.3871323198       10.5890135776        1.8093927553
  O         5.6166294035        7.7026636577        8.4822506342
  O         5.0228107970        6.6148168356       14.7116077263
  O        -1.9812414766        9.5037496736        8.0378837986
  O        -3.2314248002        8.4785180836        3.8806671356
  O        -4.5493331825       11.2440634432       10.6636273864
  O         6.8698554251        8.7261485971       12.6391613321
  O         8.1878646138        5.9570285501        5.8600858821
  O         5.3149779208        5.8599442398        3.8804593278
  O        -1.6192785948        8.8299012658       10.6637062550
  O        -1.6810504631       11.3479397503       12.6391821213
  O         5.2526924379        8.3812799039        5.8601037718
  H        -2.3476784218        8.7760152287        3.5620049189
  H         4.6135853497        5.7533235035       10.3954467860
  H         5.9854494271        8.4295766965       12.9572012449
  H        -0.9762329889       11.4506159819        6.1251251867
  H        -3.8219915650       11.2975836703        3.5623224973
  H        -2.5290875797        8.5850930695       10.3956738281
  H         7.4564651529        5.9096026155       12.9571100556
  H         6.1641663782        8.6235008852        6.1253448132
  H        -3.2513235955        8.6620822578        4.8525967301
  H         0.4897912649        0.0548075458       11.6050468078
  H         6.8843648008        8.5453531620       11.6673315703
  H         8.2922089523        5.6778573066        4.9179649739
  H         5.3346182943        5.6763747170        4.8524391028
  H        -1.5114955194        8.5487033403       11.6051785886
  H         3.4523952740        0.0580718843       11.6673482845
  H         5.1500128695        8.6605463699        4.9180603548
     192
 i =        8, E =     -2324.0842716840
 Ca         9.2948743202        1.4334089836        2.7134292114
 Ca         2.3284668145        4.3011541955        9.3840823587
 Ca        -0.5109640054        4.3019421130       13.8036555487
 Ca         0.7765867982        1.4341899196        7.1377673166
  S         2.3289220307        4.3016845233        2.5344436940
  S         9.2948817461        1.4338458487        9.2999224979
  S         0.7762629559        1.4339525016       13.9888414286
  S        -0.5108693804        4.3016163985        7.2203440621
  O         7.5249352512        3.1279281710        3.3762932308
  O         8.8352126681        0.2783614841       10.1288345752
  O         1.2612999873        2.6061074776       13.1465320411
  O        -0.0507107895        5.4560970903        6.3898105069
  O         2.8117061039        5.4750542124        3.3764540154
  O         9.7543071844        2.5892545038       10.1290420657
  O         5.9700636330        0.2618332661       13.1464688633
  O        -0.9708031260        3.1470994864        6.3897415431
  O         9.1490084156        3.7431741359        1.8076088153
  O        10.3961761798        0.8992884290        8.4783978222
  O        -0.3643878515        1.9936184230       14.7154940997
  O        -1.6113662827        4.8368438136        8.0423007254
  O         1.1875789914        4.8598962468        1.8076631616
  O         8.1936745200        1.9685441470        8.4784115592
  O         7.5959416534        0.8742251264       14.7153168616
  O         0.5895998523        3.7663886359        8.0423037824
  O        -0.6637142477        2.7355973590        3.8723003826
  O        -1.9769297337        5.5196351342       10.6747636342
  O         9.4484214773        2.9978069664       12.6456230765
  O        10.7611740113        0.2095184322        5.8460964258
  O         7.8949428211        0.1323546204        3.8721887315
  O         0.9562914719        3.0824445555       10.6754553179
  O         0.8884440514        5.6048763243       12.6458864438
  O         7.8275090181        2.6589273323        5.8452975587
  H         0.2257355657        3.0325794047        3.5626538354
  H         7.1848446827        0.0143505508       10.3918903551
  H         8.5596114779        2.7019469199       12.9585135674
  H         1.5990725886        5.7188168516        6.1307899895
  H        -1.2472211186        5.5705717640        3.5625673299
  H         0.0465397144        2.8532738809       10.3917731826
  H        10.0298501675        0.1657743047       12.9584001113
  H         8.7376121245        2.8844690517        6.1311014408
  H        -0.6825419544        2.9276278482        4.8399655554
  H        -2.0739214089        5.8008427080       11.6134461766
  H         9.4649721146        2.8092996633       11.6778927093
  H         5.7092284232       11.4017578228        4.9067406271
  H         2.7665237413       11.4108255630        4.8394336662
  H         1.0518658101        2.8018702689       11.6148447391
  H         0.8711023559        5.7941586295       11.6785750991
  H         7.7331485975        2.9372662145        4.9053639652
 Ca         3.6158402707        1.4334169980        2.7136481452
 Ca         8.0074747218        4.3013964867        9.3840790052
 Ca         5.1680674455        4.3019560371       13.8032395167
 Ca         6.4556145893        1.4344371351        7.1377641696
  S         8.0077528180        4.3013991592        2.5344428383
  S         3.6158935751        1.4338416390        9.2999027416
  S         6.4551481893        1.4339250946       13.9888417130
  S         5.1681270456        4.3016108766        7.2202643792
  O         1.8462777184        3.1281164391        3.3761528948
  O         3.1562584774        0.2783566201       10.1288120075
  O         6.9401780745        2.6059853286       13.1465035290
  O         5.6282366668        5.4561169869        6.3897522891
  O         8.4903521316        5.4748542759        3.3763339841
  O         4.0752667033        2.5892529163       10.1290257739
  O         0.2911979004        0.2619644170       13.1464218959
  O         4.7082608041        3.1470774047        6.3896629075
  O         3.4699088343        3.7433570903        1.8074428388
  O         4.7171782853        0.8993082303        8.4783307696
  O         5.3146576291        1.9936949113       14.7155491659
  O         4.0676152925        4.8367881158        8.0422653134
  O         6.8666740769        4.8597181498        1.8074983789
  O         2.5146859701        1.9685137410        8.4783561281
  O         1.9168780363        0.8741341570       14.7153940161
  O         6.2686001127        3.7664361910        8.0422824015
  O         5.0150554764        2.7361057497        3.8719259718
  O         3.7021534689        5.5194800201       10.6746043469
  O         3.7696407756        2.9971790860       12.6458500779
  O         5.0821815367        0.2095789932        5.8461609998
  O         2.2161925155        0.1317868726        3.8717901589
  O         6.6351739477        3.0826588180       10.6753319252
  O         6.5672434628        5.6055515977       12.6461269747
  O         2.1485653797        2.6587955097        5.8453401641
  H         5.9049196916        3.0323467027        3.5626443932
  H         1.5059188448        0.0141998772       10.3916308217
  H         2.8805061864        2.7019261271       12.9584174721
  H         7.2780451410        5.7189541358        6.1310079479
  H         4.4315785523        5.5707748851        3.5625801794
  H         5.7254680946        2.8534290047       10.3915167331
  H         4.3509565582        0.1658163184       12.9583040856
  H         3.0586317041        2.8843302574        6.1313008917
  H         4.9962389712        2.9276103510        4.8395846518
  H         3.6051016137        5.8008599336       11.6132233037
  H         3.7861220695        2.8092278012       11.6781005692
  H         0.0302288693       11.4017383349        4.9068362671
  H        -2.9122659049       11.4108435450        4.8390417063
  H         6.7308108850        2.8018699990       11.6146439246
  H         6.5499943868        5.7942691734       11.6787960749
  H         2.0541708483        2.9372989573        4.9054650487
 Ca         1.0417073215        7.1691630217        2.7131203398
 Ca         5.4337636741       10.0370763173        9.3844421258
 Ca         2.5944041793       10.0372617244       13.8037904955
 Ca         3.8813059827        7.1690215717        7.1372645086
  S         5.4341855548       10.0372083012        2.5343477023
  S         1.0418624666        7.1694718453        9.2996851600
  S         3.8810680488        7.1695132954       13.9889922846
  S         2.5943058731       10.0369371063        7.2205231701
  O        -0.7278684554        8.8632275922        3.3759292051
  O         0.5822715413        6.0138665799       10.1283302063
  O         4.3661570268        8.3419228346       13.1469713441
  O         3.0544865086       11.1915711888        6.3903820346
  O         5.9167221332       11.2100807746        3.3766885891
  O         1.5015670879        8.3247834695       10.1287915728
  O        -2.2828965013        5.9978267373       13.1463818460
  O         2.1339980289        8.8826770813        6.3897893950
  O         0.8960351438        9.4783597483        1.8075866759
  O         2.1432111676        6.6348687392        8.4783128663
  O         2.7406260866        7.7294660627       14.7156410541
  O         1.4937803976       10.5721858697        8.0423516581
  O         4.2924671873       10.5950719985        1.8075797982
  O        -0.0595497506        7.7040950276        8.4784321855
  O        -0.6569839996        6.6100150974       14.7154926878
  O         3.6949007244        9.5015136444        8.0421501392
  O         2.4412414725        8.4709098469        3.8723314278
  O         1.1272348484       11.2558968901       10.6754766210
  O         1.1955855567        8.7334471735       12.6454993624
  O         2.5091730854        5.9446553288        5.8454511190
  O        -0.3579629346        5.8674820272        3.8722844145
  O         4.0616847330        8.8179037254       10.6757026587
  O         3.9933527672       11.3406655364       12.6454252962
  O        -0.4256896237        8.3940964842        5.8450258010
  H         3.3307479173        8.7677149954        3.5626723026
  H        -1.0671875528        5.7492811281       10.3912105086
  H         0.3067290684        8.4377996193       12.9584715671
  H         4.7031292570       11.4547609129        6.1320611366
  H         1.8575472270       11.3058814876        3.5629082683
  H         3.1518404872        8.5890768571       10.3919559662
  H         1.7771401498        5.9014153635       12.9585018462
  H         0.4844044866        8.6195513328        6.1309969276
  H         2.4222790317        8.6628713983        4.8400000485
  H         6.1796562992        0.0657223830       11.6148191909
  H         1.2121797559        8.5449352397       11.6777679082
  H         2.6031496403        5.6660538421        4.9055772889
  H        -0.3385881402        5.6756434625        4.8399751537
  H         4.1570489263        8.5378646630       11.6152099921
  H         9.1242919593        0.0584608514       11.6777220263
  H        -0.5199086703        8.6721476495        4.9050654843
 Ca         6.7207307033        7.1691534816        2.7134011319
 Ca        -0.2452423053       10.0373133050        9.3844514959
 Ca        -3.0846125509       10.0372572745       13.8033998891
 Ca        -1.7976570735        7.1692741677        7.1372727300
  S        -0.2450152409       10.0369325114        2.5343569184
  S         6.7208516547        7.1694767371        9.2996740981
  S        -1.7980643056        7.1694803926       13.9890072223
  S        -3.0846811881       10.0369402663        7.2204273964
  O         4.9515213895        8.8633752608        3.3757471996
  O         6.2613120188        6.0138788037       10.1283373015
  O        -1.3129979058        8.3418233253       13.1469803737
  O        -2.6245587320       11.1915853862        6.3902874285
  O         0.2373604622       11.2099737565        3.3764582199
  O         7.1805245824        8.3247976151       10.1287669490
  O         3.3962151873        5.9979598123       13.1463467213
  O        -3.5449416077        8.8826571037        6.3897151874
  O         6.5749850333        9.4785520717        1.8074189304
  O         7.8222131403        6.6349015048        8.4782777831
  O        -2.9383685128        7.7295130432       14.7156910625
  O        -4.1852198448       10.5721477918        8.0423002613
  O        -1.3864445813       10.5948961630        1.8074000494
  O         5.6194550827        7.7040790771        8.4783632448
  O         5.0219621618        6.6099092771       14.7155486922
  O        -1.9840878049        9.5015382796        8.0421093760
  O        -3.2379471152        8.4714499494        3.8719499774
  O        -4.5516606982       11.2557180853       10.6753141854
  O         6.8748097095        8.7327677133       12.6457458855
  O         8.1881188780        5.9447671271        5.8455277838
  O         5.3212558574        5.8669512695        3.8719288266
  O        -1.6174015536        8.8180394213       10.6755724356
  O        -1.6858736351       11.3413063234       12.6456561741
  O         5.2533413610        8.3940470410        5.8450879421
  H        -2.3480136771        8.7675260469        3.5626609148
  H         4.6118742775        5.7491449555       10.3909692624
  H         5.9855995873        8.4377513129       12.9583708115
  H        -0.9758596309       11.4548617897        6.1322105958
  H        -3.8216529500       11.3060869198        3.5629116066
  H        -2.5272180753        8.5892063135       10.3917181852
  H         7.4562973703        5.9014302456       12.9583988940
  H         6.1634254502        8.6194252688        6.1311837866
  H        -3.2569040520        8.6628417853        4.8396163590
  H         0.5007193839        0.0657184556       11.6145945685
  H         6.8913384278        8.5448698859       11.6779889076
  H         8.2821270838        5.6660160084        4.9057094149
  H         5.3406045575        5.6756405437        4.8396176207
  H        -1.5219980342        8.5378794285       11.6150355102
  H         3.4451477408        0.0585521790       11.6779344061
  H         5.1590857051        8.6721522649        4.9051498992
     192
 i =        9, E =     -2324.0885279610
 Ca         9.2948777730        1.4336263100        2.6987070006
 Ca         2.3285367875        4.3014173090        9.4036146291
 Ca        -0.5109871473        4.3017382105       13.8148464761
 Ca         0.7764200702        1.4340740087        7.1169900489
  S         2.3287065399        4.3015232392        2.5290934476
  S         9.2948720256        1.4338787185        9.2928678227
  S         0.7761640084        1.4340615195       13.9941730332
  S        -0.5108408897        4.3015990943        7.2275088864
  O         7.5130573224        3.1320225636        3.3647906904
  O         8.8311637607        0.2849250917       10.1248860221
  O         1.2717070376        2.6027659213       13.1575135783
  O        -0.0496190938        5.4514891864        6.3949174825
  O         2.8234624643        5.4708417570        3.3647889284
  O         9.7583596118        2.5826866776       10.1251586637
  O         5.9597211692        0.2652696568       13.1575540857
  O        -0.9719456053        3.1517115086        6.3948742241
  O         9.1462186247        3.7374943942        1.8028191107
  O        10.3931942728        0.8948587620        8.4716162046
  O        -0.3612618472        1.9984351224       14.7217549569
  O        -1.6085487466        4.8393479900        8.0502254261
  O         1.1904631583        4.8655507994        1.8027531895
  O         8.1966894370        1.9731083385        8.4714883974
  O         7.5927187549        0.8694496639       14.7217003224
  O         0.5867692057        3.7637202936        8.0503548135
  O        -0.6679681645        2.7263523064        3.8637503980
  O        -1.9791172876        5.5396228396       10.6930841920
  O         9.4521036271        3.0080455670       12.6530348857
  O        10.7644002776        0.1920393394        5.8285100516
  O         7.8991953082        0.1413049677        3.8637340517
  O         0.9584890252        3.0624965548       10.6934141106
  O         0.8847285776        5.5950665142       12.6530872278
  O         7.8244975928        2.6764608744        5.8281354505
  H         0.2291968745        3.0155752181        3.5578067540
  H         7.1819338786        0.0110002944       10.3860945744
  H         8.5565015015        2.7178654015       12.9627027603
  H         1.6028956322        5.7220864682        6.1359715374
  H        -1.2505813822        5.5875764309        3.5582376854
  H         0.0494212180        2.8565954362       10.3860267043
  H        10.0328648399        0.1498444797       12.9622313003
  H         8.7337009564        2.8813068857        6.1358755962
  H        -0.6995564343        2.9265338606        4.8258803130
  H        -2.0521383815        5.8228238333       11.6315080700
  H         9.4820318914        2.8092009269       11.6907619322
  H         5.6873215373       11.3805978519        4.8894991348
  H         2.7833926646       11.4120173671        4.8257028780
  H         1.0302277593        2.7802182468       11.6321142756
  H         0.8541966319        5.7940829044       11.6910327914
  H         7.7546663054        2.9580728851        4.8888824002
 Ca         3.6158610628        1.4336293454        2.6985480848
 Ca         8.0076519637        4.3015214253        9.4036139401
 Ca         5.1680297424        4.3017595060       13.8148078930
 Ca         6.4555535007        1.4342130417        7.1169835146
  S         8.0078446913        4.3013482560        2.5290960472
  S         3.6158777749        1.4338760348        9.2928465958
  S         6.4553233396        1.4339741522       13.9941695248
  S         5.1681567004        4.3015946401        7.2274277030
  O         1.8336993811        3.1323641524        3.3648420604
  O         3.1522077349        0.2849003450       10.1248378625
  O         6.9510198767        2.6025380517       13.1574116954
  O         5.6293219423        5.4515259272        6.3948822940
  O         8.5027933579        5.4704963939        3.3648617198
  O         4.0793218079        2.5827044498       10.1251139673
  O         0.2804370558        0.2654969187       13.1574460554
  O         4.7071176574        3.1516754336        6.3948214114
  O         3.4670602178        3.7373713720        1.8030988943
  O         4.7142281946        0.8949031789        8.4715866323
  O         5.3178980513        1.9986575533       14.7214620862
  O         4.0703993251        4.8392635797        8.0501515863
  O         6.8696217064        4.8656777987        1.8030389396
  O         2.5176646925        1.9730530314        8.4714575348
  O         1.9135528824        0.8692223381       14.7214190110
  O         6.2658048201        3.7637998639        8.0502985970
  O         5.0106014144        2.7266306033        3.8636077337
  O         3.7000280170        5.5394295634       10.6929985363
  O         3.7734646783        3.0076483603       12.6531635385
  O         5.0853798931        0.1921243501        5.8284870129
  O         2.2206343880        0.1409855498        3.8635870529
  O         6.6373284033        3.0627631702       10.6933524311
  O         6.5633964797        5.5954868849       12.6532193007
  O         2.1455670060        2.6762896879        5.8281139043
  H         5.9078134120        3.0153589427        3.5577106332
  H         1.5030084321        0.0108588785       10.3858272707
  H         2.8778578992        2.7178577884       12.9627542967
  H         7.2818914818        5.7222169781        6.1361668180
  H         4.4287812454        5.5877729564        3.5581344802
  H         5.7283573656        2.8567443149       10.3857691390
  H         4.3535163694        0.1498668474       12.9623005474
  H         3.0546957449        2.8811736313        6.1360407770
  H         4.9791656130        2.9266667868        4.8257407797
  H         3.6268070741        5.8228946191       11.6313101149
  H         3.8032276787        2.8090130541       11.6908517628
  H         0.0083792360       11.3805417415        4.8895428731
  H        -2.8953244685       11.4118776163        4.8255722851
  H         6.7092405884        2.7801626419       11.6319224604
  H         6.5330249721        5.7943023674       11.6911241805
  H         2.0756463912        2.9581459522        4.8889619103
 Ca         1.0417430082        7.1691179120        2.6985350600
 Ca         5.4337338072       10.0369580969        9.4038932247
 Ca         2.5943374684       10.0373312292       13.8147141494
 Ca         3.8812583177        7.1692771996        7.1163625745
  S         5.4339720923       10.0369371759        2.5292043230
  S         1.0418506110        7.1693642297        9.2925746479
  S         3.8809554349        7.1696313243       13.9940629106
  S         2.5942993033       10.0370081051        7.2277780753
  O        -0.7398718351        8.8673030739        3.3646027220
  O         0.5783352408        6.0205880822       10.1248585744
  O         4.3767316862        8.3386652287       13.1578711502
  O         3.0554618618       11.1867381062        6.3950148308
  O         5.9281391169       11.2058157693        3.3658690001
  O         1.5055244409        8.3180835162       10.1249440468
  O        -2.2928889081        6.0013583910       13.1563990883
  O         2.1330017638        8.8873250018        6.3949235060
  O         0.8932664131        9.4728527208        1.8025908382
  O         2.1400697438        6.6302242480        8.4712384726
  O         2.7436886643        7.7341473171       14.7218893283
  O         1.4967324399       10.5748346927        8.0506558785
  O         4.2957694055       10.6009631262        1.8027582763
  O        -0.0563167283        7.7086469320        8.4712450529
  O        -0.6605386975        6.6050128749       14.7216737330
  O         3.6918648281        9.4990163545        8.0505822218
  O         2.4369709839        8.4618450357        3.8636896726
  O         1.1249245635       11.2758195423       10.6934387169
  O         1.1992838469        8.7434127156       12.6529218003
  O         2.5120801666        5.9269183492        5.8280601299
  O        -0.3532854069        5.8766785664        3.8636078687
  O         4.0637886996        8.7979890326       10.6936431659
  O         3.9893253963       11.3305602098       12.6528595203
  O        -0.4286381976        8.4115962527        5.8279308768
  H         3.3342896374        8.7507405436        3.5579414845
  H        -1.0702124059        5.7460014938       10.3852277085
  H         0.3035387629        8.4537003561       12.9625552144
  H         4.7073600100       11.4578568029        6.1367731596
  H         1.8540067507       11.3228921165        3.5578463005
  H         3.1547370847        8.5922893601       10.3861474284
  H         1.7802873430        5.8854740977       12.9628902333
  H         0.4804824640        8.6164911826        6.1358036225
  H         2.4054978537        8.6617659246        4.8258712164
  H         6.2013322945        0.0874359760       11.6320645798
  H         1.2290264165        8.5448792706       11.6906076071
  H         2.5819164887        5.6452339185        4.8888678964
  H        -0.3220379464        5.6766093024        4.8257283071
  H         4.1353879673        8.5161796501       11.6325352395
  H         9.1075449025        0.0586295004       11.6906490570
  H        -0.4983601197        8.6929778098        4.8885759077
 Ca         6.7207532529        7.1691088381        2.6984459949
 Ca        -0.2451596217       10.0370532782        9.4039083502
 Ca        -3.0846735905       10.0373291626       13.8146971163
 Ca        -1.7976151170        7.1694174528        7.1163684780
  S        -0.2448936894       10.0368233618        2.5292053069
  S         6.7208466458        7.1693751837        9.2925627359
  S        -1.7978896804        7.1695619636       13.9940703414
  S        -3.0846969521       10.0370049753        7.2276803976
  O         4.9387607000        8.8675734946        3.3646351926
  O         6.2573729119        6.0205843619       10.1248287182
  O        -1.3019574937        8.3384632838       13.1577941751
  O        -2.6235950092       11.1867754729        6.3949610824
  O         0.2495025693       11.2055569976        3.3658862889
  O         7.1844819030        8.3181214132       10.1248960620
  O         3.3857712082        6.0015798840       13.1563042690
  O        -3.5459362029        8.8872808183        6.3948722213
  O         6.5721298153        9.4727185880        1.8028607595
  O         7.8191042115        6.6302759512        8.4712332622
  O        -2.9351670415        7.7343505980       14.7216164709
  O        -4.1823088573       10.5747584159        8.0505727515
  O        -1.3831135199       10.6010772005        1.8030327898
  O         5.6226465904        7.7085951665        8.4712179780
  O         5.0183039724        6.6047916382       14.7214058993
  O        -1.9870865481        9.4991018133        8.0505079311
  O        -3.2424302086        8.4621319591        3.8635585170
  O        -4.5539157444       11.2755853867       10.6933504319
  O         6.8786443489        8.7429944818       12.6530560620
  O         8.1910004150        5.9270691386        5.8280496853
  O         5.3261180875        5.8763719648        3.8634904978
  O        -1.6153455217        8.7981813419       10.6935785134
  O        -1.6900288851       11.3309695686       12.6529921349
  O         5.2504029741        8.4114979482        5.8279239707
  H        -2.3450788391        8.7505641575        3.5578498197
  H         4.6088552114        5.7458703283       10.3849639719
  H         5.9829003623        8.4536622541       12.9626077203
  H        -0.9716076777       11.4579554777        6.1369128927
  H        -3.8246101230       11.3230695403        3.5577580928
  H        -2.5243187007        8.5924084006       10.3859145708
  H         7.4589700561        5.8854873860       12.9629498737
  H         6.1594706249        8.6163746568        6.1359529411
  H        -3.2737501705        8.6618980547        4.8257434168
  H         0.5223213613        0.0875017140       11.6318552357
  H         6.9082368956        8.5446937878       11.6907004705
  H         8.2609577016        5.6451498216        4.8889556995
  H         5.3572392927        5.6764615761        4.8256161705
  H        -1.5436010426        8.5161244671       11.6323658757
  H         3.4283402679        0.0588264704       11.6907434807
  H         5.1805997982        8.6930287266        4.8886378478
     192
 i =       10, E =     -2324.0911044040
 Ca         9.2948867221        1.4336580145        2.6983550896
 Ca         2.3286295830        4.3014922161        9.4189240294
 Ca        -0.5109578379        4.3017017735       13.8138751278
 Ca         0.7763283840        1.4340376402        7.1029247882
  S         2.3286964195        4.3016455891        2.5336279045
  S         9.2948958032        1.4339145547        9.2831140383
  S         0.7760809502        1.4340650694       13.9900804463
  S        -0.5108879615        4.3015532783        7.2364668793
  O         7.5130157300        3.1337840926        3.3712974203
  O         8.8277463396        0.2875563265       10.1161280881
  O         1.2716910983        2.6005550867       13.1505945188
  O        -0.0475075685        5.4486798229        6.4019279448
  O         2.8235514514        5.4691657034        3.3713769824
  O         9.7617223536        2.5800821922       10.1165190982
  O         5.9597409297        0.2674943318       13.1505275788
  O        -0.9740324616        3.1544432721        6.4018036631
  O         9.1438572730        3.7364899388        1.8036879709
  O        10.3905828929        0.8904871374        8.4608295360
  O        -0.3587337211        1.9997859141       14.7211612796
  O        -1.6068413172        4.8430971579        8.0593811913
  O         1.1927932553        4.8663319021        1.8035874931
  O         8.1993625398        1.9775056234        8.4606084760
  O         7.5902007289        0.8682644810       14.7211328333
  O         0.5850350395        3.7600141922        8.0595471304
  O        -0.6673835628        2.7144752655        3.8668712484
  O        -1.9787894823        5.5517780516       10.6888454324
  O         9.4491910427        3.0184476698       12.6486181774
  O        10.7628615109        0.1788407337        5.8334856252
  O         7.8987679279        0.1531593197        3.8668062465
  O         0.9579864141        3.0502216980       10.6889865456
  O         0.8874212269        5.5846887219       12.6486875502
  O         7.8260429950        2.6897687477        5.8334319530
  H         0.2365521971        2.9994076275        3.5697744501
  H         7.1813534521        0.0101993579       10.3693127532
  H         8.5474780987        2.7326307924       12.9505322511
  H         1.6025479111        5.7229727466        6.1533444643
  H        -1.2580787404        5.6037400200        3.5697366604
  H         0.0500112304        2.8573701183       10.3693952571
  H        10.0419866292        0.1350865190       12.9503049162
  H         8.7341602479        2.8803922243        6.1535249203
  H        -0.7087298639        2.9289553460        4.8248191686
  H        -2.0307191740        5.8422444387       11.6276434867
  H         9.4910393850        2.8056324840       11.6901792008
  H         5.6674106837       11.3625415951        4.8934577967
  H         2.7922557808       11.4095092250        4.8247057541
  H         1.0092773478        2.7611481332       11.6279757852
  H         0.8455351433        5.7977164144       11.6903999408
  H         7.7743730583        2.9759291597        4.8932819377
 Ca         3.6158577145        1.4336762808        2.6980214622
 Ca         8.0077325057        4.3015832501        9.4189204280
 Ca         5.1680591481        4.3017153969       13.8140690237
 Ca         6.4554439859        1.4341179718        7.1029133376
  S         8.0080083826        4.3013196430        2.5336413742
  S         3.6159009290        1.4339103455        9.2830684885
  S         6.4553144407        1.4339472871       13.9900839127
  S         5.1681083685        4.3015522834        7.2364182876
  O         1.8338106104        3.1341438406        3.3714247397
  O         3.1488057289        0.2875315066       10.1160726616
  O         6.9509897446        2.6002900823       13.1503808354
  O         5.6314127179        5.4487097886        6.4018982386
  O         8.5027814906        5.4688023032        3.3715167111
  O         4.0826713867        2.5800980850       10.1164631549
  O         0.2804388693        0.2677539801       13.1503193018
  O         4.7050528758        3.1544181157        6.4017591278
  O         3.4645072702        3.7361468515        1.8042198427
  O         4.7116501562        0.8905642093        8.4608044181
  O         5.3205430917        2.0000533904       14.7209102516
  O         4.0720637239        4.8429822815        8.0592946455
  O         6.8721456511        4.8666619044        1.8041316436
  O         2.5203093037        1.9774270314        8.4605822383
  O         1.9109255848        0.8680130921       14.7208829960
  O         6.2641094006        3.7601155868        8.0594717086
  O         5.0113975073        2.7145601809        3.8669056675
  O         3.7003399098        5.5515163526       10.6887893084
  O         3.7704578439        3.0180768440       12.6486684504
  O         5.0838493802        0.1789969635        5.8334768126
  O         2.2200066285        0.1530640802        3.8668516163
  O         6.6368232209        3.0505541610       10.6889643955
  O         6.5661695113        5.5850686537       12.6487369564
  O         2.1471330642        2.6895288865        5.8334004460
  H         5.9151578533        2.9992099847        3.5695232443
  H         1.5024122175        0.0100541521       10.3690906971
  H         2.8688602545        2.7326201924       12.9507531924
  H         7.2815626607        5.7231101805        6.1535136555
  H         4.4213186455        5.6039228653        3.5695053814
  H         5.7289606294        2.8575281340       10.3691779600
  H         4.3625981320        0.1351063439       12.9505346638
  H         3.0551461492        2.8802409892        6.1536881842
  H         4.9698992736        2.9291396788        4.8248817268
  H         3.6482585611        5.8423736713       11.6274338139
  H         3.8122937466        2.8053942084       11.6901535717
  H        -0.0115257645       11.3624672278        4.8935368956
  H        -2.8863684751       11.4093189422        4.8247857277
  H         6.6882903582        2.7610433790       11.6277830815
  H         6.5243077822        5.7979811668       11.6903727008
  H         2.0953102673        2.9760161513        4.8933772315
 Ca         1.0419180543        7.1689093539        2.6981927257
 Ca         5.4337778704       10.0368949368        9.4191488014
 Ca         2.5941926692       10.0375044423       13.8137547487
 Ca         3.8812339166        7.1693337557        7.1024441847
  S         5.4337493810       10.0371921194        2.5338746087
  S         1.0418753586        7.1693573729        9.2828023564
  S         3.8810649622        7.1696768538       13.9898450536
  S         2.5942749249       10.0370103313        7.2367064792
  O        -0.7399490412        8.8688724745        3.3709981844
  O         0.5749989921        6.0232208796       10.1162293393
  O         4.3767960857        8.3366709439       13.1509731578
  O         3.0575085484       11.1839398028        6.4018399171
  O         5.9283614073       11.2039854948        3.3729504598
  O         1.5088676798        8.3155531457       10.1161621258
  O        -2.2930983960        6.0037142972       13.1491499303
  O         2.1309133910        8.8900165241        6.4019296477
  O         0.8909010121        9.4720229359        1.8037669078
  O         2.1373455363        6.6257615993        8.4602778533
  O         2.7462453456        7.7354105444       14.7210780501
  O         1.4985404858       10.5787109018        8.0598780496
  O         4.2980239821       10.6018278518        1.8035384656
  O        -0.0535991202        7.7129198423        8.4602305447
  O        -0.6630760317        6.6037128438       14.7211369384
  O         3.6900171462        9.4952325835        8.0598689701
  O         2.4376257184        8.4500123234        3.8668702838
  O         1.1254462711       11.2880700346       10.6891587882
  O         1.1963918845        8.7537143769       12.6484690335
  O         2.5108346143        5.9137824789        5.8334669696
  O        -0.3541814855        5.8883818137        3.8670101168
  O         4.0632651447        8.7857191888       10.6892095675
  O         3.9923255248       11.3204309753       12.6482357864
  O        -0.4270411949        8.4249619209        5.8332294690
  H         3.3416748884        8.7345927242        3.5698486903
  H        -1.0710525262        5.7453107907       10.3688041024
  H         0.2945065159        8.4684573936       12.9503508127
  H         4.7071097128       11.4587583125        6.1544208552
  H         1.8467307442       11.3390326262        3.5700018615
  H         3.1553416487        8.5929695681       10.3695223352
  H         1.7891685391        5.8707541200       12.9504409156
  H         0.4809887420        8.6156105524        6.1534819967
  H         2.3963531526        8.6642466910        4.8248723905
  H         6.2222244080        0.1065844298       11.6280222347
  H         1.2379276907        8.5412455624       11.6899715822
  H         2.5618221525        5.6272548069        4.8934184979
  H        -0.3124974303        5.6742058877        4.8249850774
  H         4.1143963084        8.4970756111       11.6284206798
  H         9.0983606308        0.0622020700       11.6898139526
  H        -0.4786221160        8.7108631963        4.8929239468
 Ca         6.7209284226        7.1688723233        2.6979126615
 Ca        -0.2451248312       10.0369696450        9.4191585072
 Ca        -3.0848148725       10.0375247776       13.8139708865
 Ca        -1.7976494606        7.1694130584        7.1024447427
  S        -0.2449424253       10.0368795446        2.5338769951
  S         6.7208776691        7.1693634454        9.2827694214
  S        -1.7976832670        7.1695467156       13.9898560612
  S        -3.0847245080       10.0370161290        7.2366453281
  O         4.9388396769        8.8691682192        3.3710666405
  O         6.2540529707        6.0232161127       10.1161948044
  O        -1.3019130740        8.3364303306       13.1508008324
  O        -2.6215725571       11.1839703610        6.4017864810
  O         0.2495917651       11.2036987710        3.3729931556
  O         7.1878090896        8.3155901305       10.1161032257
  O         3.3855624913        6.0039727981       13.1489677310
  O        -3.5479987759        8.8899864094        6.4018912413
  O         6.5695339303        9.4716350021        1.8043215093
  O         7.8164133157        6.6258456222        8.4602702183
  O        -2.9324659143        7.7356611251       14.7208222772
  O        -4.1805528665       10.5785966703        8.0597849197
  O        -1.3806310769       10.6021842822        1.8040951354
  O         5.6253373709        7.7128341408        8.4602149520
  O         5.0156241774        6.6034515995       14.7208755296
  O        -1.9888939904        9.4953552644        8.0597780595
  O        -3.2415626358        8.4500979384        3.8669245795
  O        -4.5533924585       11.2877640944       10.6891164984
  O         6.8756595498        8.7533291182       12.6485202437
  O         8.1897472456        5.9140154649        5.8334508121
  O         5.3250345255        5.8882877602        3.8670626435
  O        -1.6158827437        8.7859693924       10.6891855473
  O        -1.6869468279       11.3208088582       12.6482968516
  O         5.2520291571        8.4248106252        5.8332023729
  H        -2.3377136869        8.7344323880        3.5695990400
  H         4.6079935838        5.7451802545       10.3686065255
  H         5.9739030666        8.4684164841       12.9505726502
  H        -0.9718342428       11.4588653048        6.1545308333
  H        -3.8318448781       11.3391838801        3.5697705419
  H        -2.5237109370        8.5930973782       10.3693200832
  H         7.4678049906        5.8707782259       12.9506582130
  H         6.1599723748        8.6154809838        6.1536391264
  H        -3.2829918165        8.6644328430        4.8249563845
  H         0.5432206594        0.1067107349       11.6278123609
  H         6.9171946851        8.5410109109       11.6899428346
  H         8.2408886220        5.6271481222        4.8935278715
  H         5.3668540564        5.6739973546        4.8250596560
  H        -1.5645886615        8.4969656833       11.6282510817
  H         3.4191001337        0.0624454919       11.6898016458
  H         5.2002862721        8.7109292141        4.8929882938
     192
 i =       11, E =     -2324.0936625626
 Ca         9.2947312585        1.4339117314        2.7006135422
 Ca         2.3286840852        4.3015894638        9.4419766994
 Ca        -0.5108536254        4.3016218683       13.8069859580
 Ca         0.7762406293        1.4338525252        7.0817968256
  S         2.3286091671        4.3011409657        2.5444096564
  S         9.2948627222        1.4339149213        9.2607598397
  S         0.7760018921        1.4341784382       13.9817351758
  S        -0.5108161843        4.3015623422        7.2542940770
  O         7.5165580308        3.1364068905        3.3887472802
  O         8.8246148329        0.2907377139       10.0977814173
  O         1.2694505450        2.5968310924       13.1346502892
  O        -0.0442982825        5.4455273287        6.4159089736
  O         2.8199694585        5.4663577840        3.3885267382
  O         9.7646178862        2.5768086264       10.0983802786
  O         5.9617979127        0.2714564186       13.1347457384
  O        -0.9770245910        3.1576442622        6.4157404247
  O         9.1394457778        3.7343599169        1.8081687895
  O        10.3871774885        0.8820322469        8.4380534305
  O        -0.3544937991        2.0028387934       14.7183835491
  O        -1.6047209853        4.8504649643        8.0765851439
  O         1.1971982913        4.8681135619        1.8080273359
  O         8.2029260527        1.9860724977        8.4375763976
  O         7.5859710620        0.8654929975       14.7181914211
  O         0.5828675495        3.7525242299        8.0769559848
  O        -0.6573123814        2.6955215838        3.8820549294
  O        -1.9707576044        5.5803840510       10.6744486529
  O         9.4378919648        3.0414218458       12.6314658918
  O        10.7554477198        0.1487520293        5.8509704638
  O         7.8887702087        0.1719021304        3.8822131780
  O         0.9499636165        3.0213747907       10.6742104859
  O         0.8985869201        5.5619327585       12.6312848515
  O         7.8336256901        2.7203620714        5.8509557809
  H         0.2555993137        2.9678324766        3.5951866775
  H         7.1841660699        0.0143202478       10.3262892882
  H         8.5280574660        2.7624032216       12.9204294732
  H         1.5984700314        5.7189174795        6.1951736609
  H        -1.2770464667        5.6352349144        3.5954825696
  H         0.0471180453        2.8533629197       10.3263752379
  H        10.0613953050        0.1054393150       12.9200639552
  H         8.7382254999        2.8844081996        6.1949811496
  H        -0.7290552674        2.9350205624        4.8334167208
  H        -1.9939310100        5.8781524532       11.6149304957
  H         9.5083684620        2.7968586195       11.6807262884
  H         5.6295080881       11.3284868702        4.9083267626
  H         2.8124791082       11.4033378288        4.8337830531
  H         0.9730127763        2.7256773534       11.6149395729
  H         0.8283215350        5.8065183662       11.6804884889
  H         7.8116269756        3.0097033471        4.9082157224
 Ca         3.6157258530        1.4339277669        2.7002949487
 Ca         8.0077762935        4.3017000650        9.4419627873
 Ca         5.1681466358        4.3016410101       13.8073808051
 Ca         6.4553245358        1.4338706116        7.0817885188
  S         8.0079985266        4.3014189462        2.5444172998
  S         3.6158676732        1.4339146805        9.2607124556
  S         6.4553283087        1.4341611867       13.9817389549
  S         5.1681785710        4.3015592868        7.2542562451
  O         1.8370925232        3.1366422034        3.3894381457
  O         3.1457088176        0.2907132811       10.0977564844
  O         6.9487682318        2.5964813995       13.1341025031
  O         5.6345980783        5.4455408453        6.4158396168
  O         8.4994382450        5.4661186206        3.3892302490
  O         4.0855361136        2.5768310970       10.0983552909
  O         0.2824753740        0.2717996908       13.1342053317
  O         4.7020833352        3.1576305724        6.4156545938
  O         3.4600268446        3.7336788494        1.8083336963
  O         4.7082459367        0.8821545250        8.4380137566
  O         5.3249819338        2.0030955473       14.7184776543
  O         4.0741836088        4.8503153973        8.0765150298
  O         6.8766135932        4.8687948014        1.8082140036
  O         2.5238696511        1.9859448478        8.4375296200
  O         1.9065167708        0.8652686015       14.7182683911
  O         6.2619433352        3.7526645057        8.0768975852
  O         5.0215018309        2.6953622819        3.8821075820
  O         3.7083465043        5.5799583361       10.6744181651
  O         3.7591535464        3.0411921142       12.6315450997
  O         5.0764870324        0.1489996075        5.8510051110
  O         2.2099486607        0.1720654063        3.8822857449
  O         6.6288291232        3.0218964030       10.6741884840
  O         6.5773513669        5.5621612597       12.6313594130
  O         2.1546549387        2.7199718244        5.8510110150
  H         5.9342126310        2.9677127355        3.5951130234
  H         1.5051968599        0.0141464508       10.3261679174
  H         2.8494102014        2.7623597844       12.9206175580
  H         7.2775250082        5.7190922455        6.1952500161
  H         4.4023341597        5.6353490206        3.5954054087
  H         5.7261006898        2.8535572786       10.3262624956
  H         4.3820374772        0.1054840650       12.9202758448
  H         3.0591701975        2.8842095870        6.1950613953
  H         4.9497751788        2.9352989784        4.8334795868
  H         3.6851306305        5.8783525244       11.6146942999
  H         3.8294808000        2.7965237461       11.6807341404
  H        -0.0494663030       11.3284187988        4.9084485145
  H        -2.8663306606       11.4030736846        4.8338708740
  H         6.6519429345        2.7255093899       11.6146940032
  H         6.5072268633        5.8068578720       11.6804906419
  H         2.1326269402        3.0097927893        4.9084097986
 Ca         1.0419539667        7.1689924003        2.7003525515
 Ca         5.4337344985       10.0368254007        9.4420415620
 Ca         2.5941124687       10.0376306644       13.8069481920
 Ca         3.8812885491        7.1694277641        7.0818937727
  S         5.4335978115       10.0362783154        2.5447525815
  S         1.0419318809        7.1692976689        9.2604423645
  S         3.8810309413        7.1701006999       13.9814819303
  S         2.5942350562       10.0370758856        7.2544917079
  O        -0.7366404824        8.8711705729        3.3883952281
  O         0.5721685750        6.0264989270       10.0982557176
  O         4.3747079919        8.3332944287       13.1351429606
  O         3.0604216343       11.1807215644        6.4154348904
  O         5.9250338089       11.2009781097        3.3899318049
  O         1.5118614856        8.3124584535       10.0976910670
  O        -2.2913957145        6.0081513269       13.1332466239
  O         2.1278294023        8.8930529803        6.4160933729
  O         0.8867079208        9.4701809780        1.8082696631
  O         2.1338787550        6.6171281112        8.4373463545
  O         2.7503584412        7.7384007203       14.7183011435
  O         1.5006824787       10.5862852669        8.0771839041
  O         4.3027327746       10.6040713073        1.8083886006
  O        -0.0500294091        7.7213707711        8.4372412269
  O        -0.6675237192        6.6005863048       14.7179138480
  O         3.6877915237        9.4878901976        8.0772623582
  O         2.4475838068        8.4310382655        3.8821149660
  O         1.1334433297       11.3165852529       10.6744306783
  O         1.1851713619        8.7765855296       12.6311490292
  O         2.5030296445        5.8833713053        5.8506899841
  O        -0.3638251377        5.9074519076        3.8820862504
  O         4.0551849284        8.7567187257       10.6744745634
  O         4.0034047569       11.2976651751       12.6309099611
  O        -0.4193947449        8.4556548569        5.8507056148
  H         3.3606434730        8.7029550667        3.5952915704
  H        -1.0684270696        5.7494013545       10.3258626650
  H         0.2751454648        8.4982864592       12.9202393355
  H         4.7034215130       11.4546542340        6.1955583567
  H         1.8278092575       11.3706062639        3.5953499211
  H         3.1524025782        8.5888002615       10.3264816299
  H         1.8084024351        5.8410364088       12.9203012114
  H         0.4851242456        8.6197353260        6.1948949937
  H         2.3761352517        8.6704826999        4.8334973929
  H         6.2586150247        0.1422603103       11.6149117453
  H         1.2551834149        8.5323331208       11.6803331026
  H         2.5247697814        5.5933288731        4.9081786856
  H        -0.2924598217        5.6678723166        4.8334515282
  H         4.0781097912        8.4615977843       11.6154811150
  H         9.0811201519        0.0711911310       11.6801557723
  H        -0.4412910185        8.7447062395        4.9077766711
 Ca         6.7209517098        7.1689719916        2.7000568227
 Ca        -0.2451739384       10.0369088729        9.4420497324
 Ca        -3.0848825718       10.0376444483       13.8073747149
 Ca        -1.7976360483        7.1694396080        7.0819019983
  S        -0.2450101099       10.0366644662        2.5447484659
  S         6.7209374347        7.1693066369        9.2604082459
  S        -1.7976148556        7.1701068996       13.9814883914
  S        -3.0847641141       10.0370764747        7.2544453883
  O         4.9418324583        8.8713137606        3.3890842088
  O         6.2512592921        6.0264887091       10.0982447448
  O        -1.3039731405        8.3329841507       13.1346055614
  O        -2.6186801364       11.1807409073        6.4153580161
  O         0.2464936250       11.2008402004        3.3906390148
  O         7.1907734068        8.3125000538       10.0976641380
  O         3.3872207154        6.0084772102       13.1327201170
  O        -3.5510590332        8.8930363559        6.4160122230
  O         6.5652783524        9.4694047289        1.8084323167
  O         7.8129483090        6.6172558463        8.4373232424
  O        -2.9281700537        7.7386151615       14.7184082234
  O        -4.1784176398       10.5861338720        8.0770977576
  O        -1.3758817956       10.6048003502        1.8085596120
  O         5.6289031892        7.7212319450        8.4372118185
  O         5.0109913381        6.6003488336       14.7180069064
  O        -1.9911109970        9.4880655456        8.0771914105
  O        -3.2315761180        8.4308475914        3.8822011463
  O        -4.5454096975       11.3160912752       10.6744091767
  O         6.8644408929        8.7763458315       12.6312245050
  O         8.1819977669        5.8837544707        5.8507436923
  O         5.3153332343        5.9076011896        3.8821678680
  O        -1.6239363147        8.7571399583       10.6744432791
  O        -1.6758495716       11.2979154024       12.6309979526
  O         5.2595930042        8.4553745965        5.8507685795
  H        -2.3187590329        8.7028681934        3.5952209444
  H         4.6105865207        5.7492417545       10.3257666009
  H         5.9545240451        8.4982128570       12.9204306578
  H        -0.9754826812       11.4548091421        6.1956177924
  H        -3.8507735743       11.3706629998        3.5952837772
  H        -2.5266267746        8.5889616465       10.3263866738
  H         7.4870567894        5.8411080309       12.9204933433
  H         6.1640562403        8.6195758242        6.1949378208
  H        -3.3030201255        8.6707562697        4.8335940826
  H         0.5796889884        0.1424594384       11.6146614475
  H         6.9343064457        8.5320124720       11.6803289797
  H         8.2037804468        5.5932193267        4.9083733534
  H         5.3867105706        5.6675706803        4.8335398562
  H        -1.6009674061        8.4614115724       11.6152522096
  H         3.4019852443        0.0715173794       11.6801692752
  H         5.2377063814        8.7447812431        4.9079368273
     192
 i =       12, E =     -2324.0947459034
 Ca         9.2947538808        1.4336912965        2.7036355430
 Ca         2.3287395823        4.3015216877        9.4372684008
 Ca        -0.5108856018        4.3017900931       13.8029860679
 Ca         0.7763129533        1.4339133721        7.0831480384
  S         2.3286974605        4.3013048739        2.5446928142
  S         9.2948298070        1.4339211378        9.2595431233
  S         0.7760066444        1.4342568516       13.9820128772
  S        -0.5107897359        4.3015391859        7.2548952581
  O         7.5186601919        3.1357916712        3.3909073865
  O         8.8264573239        0.2886865909       10.0972434900
  O         1.2664704236        2.5981501216       13.1334319329
  O        -0.0460166977        5.4478798382        6.4163830519
  O         2.8180049099        5.4669732746        3.3907800742
  O         9.7626636735        2.5788635383       10.0978761683
  O         5.9646425493        0.2701469800       13.1335459770
  O        -0.9752441322        3.1552860122        6.4161394754
  O         9.1403735212        3.7346451300        1.8087806350
  O        10.3882026954        0.8824089635        8.4371804154
  O        -0.3557156334        2.0024943698       14.7178642989
  O        -1.6053914533        4.8493949060        8.0780076681
  O         1.1961612521        4.8677706716        1.8087707946
  O         8.2019520372        1.9857241587        8.4366161486
  O         7.5872540534        0.8658969379       14.7175698706
  O         0.5835670128        3.7536539670        8.0784200441
  O        -0.6547966531        2.6897850583        3.8869970591
  O        -1.9697130925        5.5820823437       10.6676398008
  O         9.4359718736        3.0441211061       12.6238769997
  O        10.7545264622        0.1477859202        5.8559825910
  O         7.8863323267        0.1777521187        3.8871385259
  O         0.9490236811        3.0195406585       10.6674025627
  O         0.9004672640        5.5591386184       12.6236230245
  O         7.8344882112        2.7213148823        5.8559962390
  H         0.2553823630        2.9666113882        3.6026606060
  H         7.1837214612        0.0223221809       10.3243497398
  H         8.5281523746        2.7649219825       12.9143400802
  H         1.5995909557        5.7114006084        6.1971159574
  H        -1.2769009437        5.6364158314        3.6026017941
  H         0.0476287085        2.8454130886       10.3245882518
  H        10.0612403062        0.1030141471       12.9139599143
  H         8.7371042788        2.8918279704        6.1969591405
  H        -0.7281576136        2.9369854201        4.8369107364
  H        -1.9927025875        5.8778428521       11.6085956952
  H         9.5087913720        2.7952906807       11.6746731692
  H         5.6287863162       11.3286203145        4.9136055894
  H         2.8115727246       11.4013265760        4.8371681984
  H         0.9717681807        2.7259338002       11.6088834943
  H         0.8277914013        5.8081397470       11.6743626962
  H         7.8124098152        3.0096528495        4.9132889611
 Ca         3.6157295105        1.4337256913        2.7035477937
 Ca         8.0077894835        4.3016470767        9.4372579129
 Ca         5.1681240490        4.3017924193       13.8031679218
 Ca         6.4554167169        1.4340106588        7.0831399649
  S         8.0079847698        4.3013525729        2.5447011759
  S         3.6158373541        1.4339170908        9.2595161565
  S         6.4552713804        1.4340752725       13.9820158227
  S         5.1682052313        4.3015367343        7.2548473417
  O         1.8396177753        3.1359946407        3.3914243112
  O         3.1475813659        0.2886609810       10.0972554397
  O         6.9453758268        2.5979005462       13.1330597669
  O         5.6328728598        5.4479004477        6.4163049406
  O         8.4970842834        5.4667590860        3.3913041487
  O         4.0835522584        2.5788836454       10.0978848151
  O         0.2857391395        0.2703897446       13.1331771129
  O         4.7038703029        3.1552658542        6.4160472209
  O         3.4608958459        3.7340644421        1.8088321546
  O         4.7092723468        0.8825463192        8.4371488939
  O         5.3238074735        2.0027089813       14.7179851312
  O         4.0735221543        4.8492431732        8.0779370596
  O         6.8756696815        4.8684018025        1.8088397475
  O         2.5228981187        1.9855854610        8.4365874017
  O         1.9077325141        0.8656889445       14.7176815634
  O         6.2626319768        3.7537905099        8.0783594945
  O         5.0242122144        2.6898056467        3.8870388905
  O         3.7094578699        5.5816639981       10.6675965798
  O         3.7571169214        3.0438330313       12.6239807211
  O         5.0755219827        0.1480115375        5.8561087324
  O         2.2073324921        0.1777350079        3.8871907134
  O         6.6278189734        3.0200566642       10.6673744064
  O         6.5793428566        5.5594377470       12.6237328734
  O         2.1555741962        2.7209589148        5.8561014732
  H         5.9343190693        2.9664995877        3.6025327205
  H         1.5048045232        0.0221126663       10.3241554650
  H         2.8492800064        2.7648717163       12.9145419082
  H         7.2785794467        5.7116070436        6.1972870476
  H         4.4021710154        5.6365225100        3.6025002756
  H         5.7265548645        2.8456453503       10.3243928725
  H         4.3821014920        0.1030675254       12.9141556103
  H         3.0581154055        2.8915981928        6.1971362022
  H         4.9506995643        2.9371580057        4.8369701181
  H         3.6863162464        5.8780034493       11.6083654865
  H         3.8298960782        2.7950502565       11.6747106356
  H        -0.0501587228       11.3285898491        4.9137878414
  H        -2.8672762772       11.4011759463        4.8372415559
  H         6.6507405791        2.7258025881       11.6086499125
  H         6.5067129090        5.8083789003       11.6744025117
  H         2.1333624295        3.0097064984        4.9135045400
 Ca         1.0419739092        7.1689294273        2.7032256161
 Ca         5.4337464915       10.0368721235        9.4371563233
 Ca         2.5941445283       10.0376325636       13.8030651566
 Ca         3.8812909801        7.1693475238        7.0831132365
  S         5.4336815966       10.0365570754        2.5448759864
  S         1.0419729549        7.1693460007        9.2593212723
  S         3.8810207549        7.1702132467       13.9818952888
  S         2.5941686870       10.0369864612        7.2550756648
  O        -0.7345012285        8.8705717385        3.3903480209
  O         0.5740631300        6.0244239547       10.0977085227
  O         4.3718200036        8.3345500947       13.1340222106
  O         3.0587186155       11.1831207610        6.4161211821
  O         5.9231665299       11.2016318651        3.3918839424
  O         1.5100630778        8.3145774455       10.0971809271
  O        -2.2884684416        6.0066012559       13.1326067072
  O         2.1295165959        8.8905879971        6.4165663682
  O         0.8876039643        9.4704020785        1.8089213123
  O         2.1349430865        6.6174853471        8.4365876391
  O         2.7491150345        7.7381063207       14.7178018092
  O         1.4999066414       10.5852139494        8.0784845440
  O         4.3015164635       10.6036334478        1.8089402517
  O        -0.0510829533        7.7209821332        8.4365063761
  O        -0.6661237256        6.6011454775       14.7174240853
  O         3.6885945560        9.4890524879        8.0785070446
  O         2.4501207136        8.4252159367        3.8871572974
  O         1.1346504516       11.3183890163       10.6678359176
  O         1.1832749953        8.7794603864       12.6234816212
  O         2.5020060564        5.8825237712        5.8556726798
  O        -0.3666331536        5.9131653161        3.8871838664
  O         4.0542929552        8.7548230469       10.6676963151
  O         4.0053767762       11.2948244489       12.6232619444
  O        -0.4185509900        8.4566704367        5.8557168764
  H         3.3603658672        8.7017181755        3.6026772197
  H        -1.0688830377        5.7573575260       10.3241779383
  H         0.2753451825        8.5008117263       12.9141499832
  H         4.7044378948       11.4472707598        6.1974827056
  H         1.8281419140       11.3717792177        3.6029336538
  H         3.1529078603        8.5808244625       10.3247897708
  H         1.8082280445        5.8385870359       12.9141582989
  H         0.4840253151        8.6271653681        6.1968081371
  H         2.3768899056        8.6724882840        4.8370656850
  H         6.2596717567        0.1420156993       11.6090015437
  H         1.2557075973        8.5306869812       11.6742424003
  H         2.5240269460        5.5933958797        4.9132319351
  H        -0.2930783261        5.6659241912        4.8371117890
  H         4.0768197623        8.4618292563       11.6094261937
  H         9.0806649143        0.0728433378       11.6740591429
  H        -0.4405003162        8.7446578186        4.9128546235
 Ca         6.7209807402        7.1688875069        2.7031630425
 Ca        -0.2452012359       10.0369800340        9.4371618667
 Ca        -3.0848566464       10.0376429708       13.8032767552
 Ca        -1.7976045052        7.1694446314        7.0831171071
  S        -0.2450366481       10.0366598047        2.5448720173
  S         6.7209742450        7.1693519996        9.2593043407
  S        -1.7976966018        7.1700254026       13.9818948822
  S        -3.0848273060       10.0369936873        7.2550171301
  O         4.9444312770        8.8707007076        3.3908368550
  O         6.2531834087        6.0244120548       10.0977340624
  O        -1.3072768589        8.3343266582       13.1336785717
  O        -2.6203829645       11.1831481833        6.4160298980
  O         0.2441907571       11.2015411371        3.3923382002
  O         7.1889415862        8.3146160763       10.0971869486
  O         3.3906049229        6.0068306835       13.1322716556
  O        -3.5493627618        8.8905695340        6.4164775555
  O         6.5660745868        9.4696763452        1.8089866850
  O         7.8140125848        6.6176312429        8.4365749164
  O        -2.9293506837        7.7383031986       14.7179129329
  O        -4.1791812360       10.5850633211        8.0783973713
  O        -1.3770095417       10.6042656001        1.8089996274
  O         5.6278500222        7.7208316877        8.4364841224
  O         5.0123312626        6.6009218700       14.7175304897
  O        -1.9903229873        9.4892181829        8.0784346787
  O        -3.2288559828        8.4252110540        3.8872194754
  O        -4.5441398915       11.3178972136       10.6678010010
  O         6.8624395858        8.7791594994       12.6235905235
  O         8.1809212147        5.8828726072        5.8557848372
  O         5.3123596897        5.9131444886        3.8872453523
  O        -1.6248899169        8.7552370321       10.6676508134
  O        -1.6737806562       11.2951231464       12.6233831961
  O         5.2604960788        8.4564361497        5.8558369149
  H        -2.3187061599        8.7016363701        3.6025623232
  H         4.6101835074        5.7571627252       10.3240017282
  H         5.9544967613        8.5007321960       12.9143472703
  H        -0.9745262126       11.4474502930        6.1976239183
  H        -3.8507646465       11.3718325155        3.6028246227
  H        -2.5261732759        8.5810250797       10.3246117690
  H         7.4871173784        5.8386615435       12.9143570023
  H         6.1630289024        8.6269722171        6.1969620293
  H        -3.3022271940        8.6726471042        4.8371460933
  H         0.5807130307        0.1421733197       11.6087586274
  H         6.9348143279        8.5304668856       11.6742754222
  H         8.2030807024        5.5933266408        4.9134552746
  H         5.3860447798        5.6657255918        4.8371839748
  H        -1.6022153708        8.4616800470       11.6092043006
  H         3.4015599245        0.0730806448       11.6741119745
  H         5.2384382590        8.7446933654        4.9130390269
     192
 i =       13, E =     -2324.0960442253
 Ca         9.2948017863        1.4333716780        2.7079036248
 Ca         2.3287482920        4.3013709261        9.4373320046
 Ca        -0.5109481672        4.3022431649       13.7945236013
 Ca         0.7764341771        1.4339860825        7.0807661924
  S         2.3288057642        4.3011364376        2.5451670746
  S         9.2948258092        1.4339679001        9.2538730483
  S         0.7760448957        1.4342101405       13.9813832993
  S        -0.5107258403        4.3015581719        7.2592066774
  O         7.5225985977        3.1347970556        3.3944320600
  O         8.8300361921        0.2848801429       10.0923451289
  O         1.2608705305        2.6006965906       13.1304768682
  O        -0.0492087603        5.4512643602        6.4194381384
  O         2.8142987552        5.4677999502        3.3941964044
  O         9.7588811283        2.5827191551       10.0931400513
  O         5.9699414199        0.2676936434       13.1307750295
  O        -0.9718568189        3.1519608301        6.4191205968
  O         9.1421638282        3.7349442035        1.8102686478
  O        10.3904254264        0.8841581613        8.4326831749
  O        -0.3585712174        2.0008175009       14.7156103620
  O        -1.6077312933        4.8471959344        8.0816785100
  O         1.1942043300        4.8672208719        1.8105651375
  O         8.1999762322        1.9841327531        8.4319350512
  O         7.5902976674        0.8679298293       14.7149622464
  O         0.5858861289        3.7558850510        8.0821749286
  O        -0.6481514761        2.6772231562        3.9016852080
  O        -1.9683914681        5.5960847870       10.6524792198
  O         9.4327666408        3.0532514742       12.6046396806
  O        10.7538499114        0.1370451990        5.8669825630
  O         7.8796843603        0.1903232602        3.9020110125
  O         0.9479328292        3.0053232597       10.6520764215
  O         0.9035902126        5.5498971926       12.6042146931
  O         7.8350701431        2.7322627067        5.8670424808
  H         0.2586527513        2.9573865066        3.6193239919
  H         7.1836918727        0.0401713050       10.3122055930
  H         8.5266807021        2.7754352949       12.8953241459
  H         1.6013935729        5.6946576675        6.2081344458
  H        -1.2800008914        5.6454997613        3.6192996761
  H         0.0475535900        2.8277348048       10.3122512369
  H        10.0625543436        0.0926963082       12.8949941383
  H         8.7353778984        2.9084072171        6.2081191693
  H        -0.7316150640        2.9403547186        4.8473221137
  H        -1.9899485157        5.8803453302       11.5958818955
  H         9.5114599860        2.7904150182       11.6600643868
  H         5.6253737889       11.3252063446        4.9238706794
  H         2.8152176141       11.3979228714        4.8476402278
  H         0.9690003345        2.7233722907       11.5964525866
  H         0.8249514272        5.8130910026       11.6596283703
  H         7.8158219872        3.0131740952        4.9231600719
 Ca         3.6157810699        1.4334083091        2.7082542313
 Ca         8.0077623611        4.3015777333        9.4373200830
 Ca         5.1680610893        4.3022441830       13.7942948493
 Ca         6.4555445674        1.4342217711        7.0807445840
  S         8.0079312739        4.3013273816        2.5451587815
  S         3.6158343136        1.4339657667        9.2539008513
  S         6.4550767514        1.4343158410       13.9813805218
  S         5.1682670966        4.3015517875        7.2591254797
  O         1.8439045669        3.1348415106        3.3949888009
  O         3.1512130435        0.2848227692       10.0923856593
  O         6.9394571736        2.6006593023       13.1300788324
  O         5.6296920367        5.4513041235        6.4193673207
  O         8.4930780549        5.4677044489        3.3947526852
  O         4.0797254496        2.5827725974       10.0931789966
  O         0.2913555151        0.2677334263       13.1303765058
  O         4.7072412746        3.1519153213        6.4190333307
  O         3.4628265461        3.7346101951        1.8099460680
  O         4.7115107107        0.8843518100        8.4326918682
  O         5.3207855532        2.0009068373       14.7161607590
  O         4.0712042127        4.8470506410        8.0816019163
  O         6.8736538410        4.8677413945        1.8102167525
  O         2.5209022554        1.9839370283        8.4319527639
  O         1.9109103172        0.8678109837       14.7155340812
  O         6.2649283249        3.7560142600        8.0821068437
  O         5.0309896208        2.6773431081        3.9016460157
  O         3.7107836525        5.5956761268       10.6523346003
  O         3.7537753972        3.0529497258       12.6048217704
  O         5.0748472315        0.1372114662        5.8673183729
  O         2.2005450723        0.1902088880        3.9019648228
  O         6.6267153607        3.0058463017       10.6519479559
  O         6.5825979574        5.5502268376       12.6044227310
  O         2.1561519037        2.7319159810        5.8673346122
  H         5.9379475308        2.9573659064        3.6193352645
  H         1.5048529148        0.0398983696       10.3120244233
  H         2.8474956456        2.7753121316       12.8954940622
  H         7.2802991743        5.6949242325        6.2083579385
  H         4.3986916255        5.6455189426        3.6193226434
  H         5.7264045311        2.8280287593       10.3120750744
  H         4.3837343064        0.0928187698       12.8951601458
  H         3.0564650218        2.9081199395        6.2083457957
  H         4.9475118248        2.9404098696        4.8472543816
  H         3.6891777621        5.8804214199       11.5956081817
  H         3.8324762046        2.7903252715       11.6602106078
  H        -0.0536210908       11.3252592530        4.9242011085
  H        -2.8639017440       11.3979140497        4.8475720257
  H         6.6478576301        2.7233202333       11.5961683052
  H         6.5039616057        5.8131616884       11.6597904279
  H         2.1368514931        3.0131618882        4.9235167248
 Ca         1.0418297258        7.1689247088        2.7073890664
 Ca         5.4337269380       10.0369532837        9.4372882654
 Ca         2.5942306857       10.0376835027       13.7947019601
 Ca         3.8813558092        7.1691576744        7.0804540214
  S         5.4338819491       10.0363368727        2.5450803363
  S         1.0420891860        7.1694368697        9.2537825215
  S         3.8811198239        7.1700455482       13.9815416996
  S         2.5941250644       10.0369554745        7.2593640386
  O        -0.7305719773        8.8696082915        3.3935966613
  O         0.5777485466        6.0205695168       10.0928020027
  O         4.3662975197        8.3368539194       13.1312158069
  O         3.0554830537       11.1865639079        6.4193635334
  O         5.9193988855       11.2024686697        3.3947156998
  O         1.5065861131        8.3184767045       10.0924251105
  O        -2.2829655047        6.0038375793       13.1306126566
  O         2.1326895873        8.8871817144        6.4196917210
  O         0.8894460813        9.4706969904        1.8102949219
  O         2.1372518316        6.6191749568        8.4322941426
  O         2.7463310730        7.7365067866       14.7155338567
  O         1.4973859112       10.5829148171        8.0819778649
  O         4.2995551856       10.6031367267        1.8105525405
  O        -0.0532613059        7.7192831621        8.4322465298
  O        -0.6628298562        6.6034008577       14.7152105671
  O         3.6910896582        9.4913353478        8.0819305954
  O         2.4566831265        8.4124916617        3.9020205807
  O         1.1359889367       11.3322502597       10.6527481581
  O         1.1801500419        8.7888401806       12.6040850095
  O         2.5011317297        5.8719189194        5.8665932386
  O        -0.3733416385        5.9259246974        3.9019766108
  O         4.0533591364        8.7404284271       10.6524590473
  O         4.0087009313       11.2855422595       12.6038543337
  O        -0.4180742973        8.4677588522        5.8666510026
  H         3.3634771347        8.6924630752        3.6193494775
  H        -1.0686281872        5.7750333124       10.3119724322
  H         0.2740833216        8.5113211400       12.8951451518
  H         4.7059980238       11.4307437532        6.2084993212
  H         1.8249994866       11.3809039921        3.6195609506
  H         3.1528818340        8.5630994099       10.3126337302
  H         1.8095219314        5.8282548595       12.8950326538
  H         0.4822731646        8.6437727561        6.2077848422
  H         2.3732646467        8.6759043178        4.8475749282
  H         6.2624886534        0.1446249635       11.5966598108
  H         1.2586147120        8.5257485099       11.6595419575
  H         2.5206466774        5.5899133872        4.9230736410
  H        -0.2896219897        5.6624534833        4.8475260458
  H         4.0740328951        8.4592785240       11.5970516071
  H         9.0777980662        0.0778200252       11.6593144130
  H        -0.4370766416        8.7481631168        4.9226620426
 Ca         6.7208379639        7.1688849314        2.7077759424
 Ca        -0.2452580739       10.0371494665        9.4373009553
 Ca        -3.0847694630       10.0376770052       13.7945009397
 Ca        -1.7975350645        7.1693932054        7.0804662729
  S        -0.2450243827       10.0366260706        2.5450714309
  S         6.7210852186        7.1694397699        9.2538160289
  S        -1.7978485523        7.1701608984       13.9815375276
  S        -3.0848653193       10.0369638939        7.2592697511
  O         4.9486798989        8.8695775300        3.3941346746
  O         6.2569131940        6.0205169102       10.0928484779
  O        -1.3131139325        8.3368375590       13.1308310804
  O        -2.6235946859       11.1866162372        6.4192823857
  O         0.2400407132       11.2025716452        3.3952117512
  O         7.1854106842        8.3185454331       10.0924600626
  O         3.3964599721        6.0038543101       13.1302218022
  O        -3.5461991392        8.8871451128        6.4196018226
  O         6.5680332408        9.4701474068        1.8099051061
  O         7.8163391713        6.6193825618        8.4323214976
  O        -2.9323210157        7.7365823600       14.7160834903
  O        -4.1816742008       10.5827787170        8.0818758757
  O        -1.3791163292       10.6035475000        1.8101681421
  O         5.6256534556        7.7190797004        8.4322604978
  O         5.0158021815        6.6032933473       14.7157748787
  O        -1.9878533043        9.4914790713        8.0818526198
  O        -3.2221549526        8.4126069419        3.9019866133
  O        -4.5427842676       11.3317557151       10.6526108073
  O         6.8591701476        8.7885141580       12.6042814007
  O         8.1800485158        5.8722500056        5.8668996176
  O         5.3055022374        5.9257888826        3.9019659325
  O        -1.6258256785        8.7408441630       10.6523021284
  O        -1.6703189615       11.2858546072       12.6040473916
  O         5.2609508031        8.4675552128        5.8669846091
  H        -2.3152165920        8.6924685260        3.6193536765
  H         4.6105070365        5.7747787229       10.3118169326
  H         5.9529033752        8.5111709714       12.8953204596
  H        -0.9730543170       11.4309864195        6.2087204732
  H        -3.8542833938       11.3808673254        3.6195827848
  H        -2.5262661312        8.5633690175       10.3124622789
  H         7.4887391860        5.8283948526       12.8952043478
  H         6.1613492300        8.6435211853        6.2079927466
  H        -3.3055936943        8.6759181408        4.8475201210
  H         0.5836374826        0.1446893672       11.5963702522
  H         6.9376330902        8.5256948686       11.6596857336
  H         8.1996297700        5.5899198854        4.9234441085
  H         5.3892458371        5.6623801683        4.8474867737
  H        -1.6051031744        8.4592125685       11.5967707712
  H         3.3987785639        0.0779036610       11.6594652822
  H         5.2419324635        8.7481314176        4.9230057209
     192
 i =       14, E =     -2324.0969823594
 Ca         9.2948914413        1.4329724775        2.7106003750
 Ca         2.3287390820        4.3013376732        9.4420643945
 Ca        -0.5109950935        4.3025611348       13.7900263986
 Ca         0.7764539897        1.4339787158        7.0747858455
  S         2.3288612416        4.3010243650        2.5449434876
  S         9.2948406311        1.4340526311        9.2461821082
  S         0.7760914729        1.4344316941       13.9792488851
  S        -0.5106891247        4.3015498358        7.2642536351
  O         7.5250959360        3.1334590439        3.3950499416
  O         8.8329292948        0.2826065874       10.0857377386
  O         1.2573598779        2.6033744404       13.1280124790
  O        -0.0511974818        5.4535091412        6.4238602032
  O         2.8119681721        5.4689039595        3.3946928410
  O         9.7559052759        2.5850804940       10.0866981211
  O         5.9731998619        0.2652954467       13.1286419460
  O        -0.9697752048        3.1497313957        6.4234677871
  O         9.1438925299        3.7359712928        1.8105059612
  O        10.3935159622        0.8875056666        8.4275602280
  O        -0.3619564000        1.9975637190       14.7121437585
  O        -1.6102781542        4.8443118603        8.0849621299
  O         1.1921301083        4.8655572713        1.8110722071
  O         8.1972100881        1.9810696267        8.4265559410
  O         7.5939359308        0.8716705926       14.7112212359
  O         0.5884043490        3.7588174541        8.0855572697
  O        -0.6439891184        2.6635744784        3.9174011881
  O        -1.9712814639        5.6170558162       10.6389020750
  O         9.4286488680        3.0656371959       12.5876645429
  O        10.7560936885        0.1195151153        5.8767108321
  O         7.8755541359        0.2040498834        3.9178943957
  O         0.9510687461        2.9837098507       10.6382378654
  O         0.9077609678        5.5375531050       12.5870235346
  O         7.8326580475        2.7501993752        5.8769392874
  H         0.2614533856        2.9452506252        3.6356687919
  H         7.1821070741        0.0596852697       10.3008173489
  H         8.5241664825        2.7874407951       12.8779481612
  H         1.6039482181        5.6762754550        6.2183306159
  H        -1.2826360913        5.6574958970        3.6356056197
  H         0.0490614446        2.8082945899       10.3008435178
  H        10.0648573608        0.0809287749       12.8774164080
  H         8.7328876037        2.9267624685        6.2183694286
  H        -0.7367660414        2.9428185699        4.8576913956
  H        -1.9869160868        5.8843653174       11.5866584659
  H         9.5172282317        2.7859007902       11.6476562227
  H         5.6221929020       11.3209185432        4.9305121698
  H         2.8204198991       11.3953462561        4.8580432425
  H         0.9659878287        2.7193398264       11.5873199426
  H         0.8189978689        5.8176534657       11.6470636765
  H         7.8190973144        3.0175067530        4.9296471498
 Ca         3.6158538734        1.4330376648        2.7112880144
 Ca         8.0077717080        4.3016126952        9.4420520156
 Ca         5.1680234919        4.3025493690       13.7895716839
 Ca         6.4555856796        1.4342985318        7.0747804906
  S         8.0079087872        4.3011447682        2.5449201397
  S         3.6158551965        1.4340494804        9.2462524872
  S         6.4550532163        1.4345123429       13.9792484557
  S         5.1683031514        4.3015427563        7.2641791437
  O         1.8466800436        3.1334643005        3.3955139303
  O         3.1541838039        0.2825196142       10.0858104212
  O         6.9357363029        2.6034105832       13.1277682987
  O         5.6276953562        5.4535558139        6.4238153147
  O         8.4905630237        5.4687859189        3.3951519809
  O         4.0766811788        2.5851615834       10.0867705194
  O         0.2948319333        0.2652609272       13.1283890716
  O         4.7093290294        3.1496799558        6.4234054488
  O         3.4644720613        3.7354651014        1.8102284057
  O         4.7146504908        0.8877839066        8.4276166001
  O         5.3175530624        1.9979313672       14.7126897518
  O         4.0686405157        4.8441690360        8.0848724503
  O         6.8717729077        4.8664163092        1.8107028968
  O         2.5180893378        1.9807924342        8.4266371455
  O         1.9144281640        0.8712995014       14.7117693411
  O         6.2674621501        3.7589364026        8.0854714949
  O         5.0353262551        2.6637756665        3.9173593460
  O         3.7079887194        5.6166384327       10.6386851196
  O         3.7496399034        3.0653760912       12.5878850521
  O         5.0770551102        0.1195969189        5.8772752255
  O         2.1962584663        0.2038626793        3.9178247624
  O         6.6297454708        2.9842858664       10.6380488193
  O         6.5867759628        5.5378526628       12.5872843659
  O         2.1538084786        2.7498978635        5.8774013784
  H         5.9409672929        2.9453333168        3.6356110233
  H         1.5033663377        0.0593273670       10.3005346281
  H         2.8449253148        2.7872222211       12.8780661963
  H         7.2827380793        5.6766218859        6.2187264034
  H         4.3958269233        5.6574157233        3.6355902009
  H         5.7278109880        2.8086742226       10.3005535718
  H         4.3861005611        0.0811452350       12.8775168115
  H         3.0540856884        2.9263962933        6.2187694085
  H         4.9424745104        2.9427931155        4.8576179304
  H         3.6922042051        5.8843378596       11.5863464300
  H         3.8381286046        2.7859044437       11.6478715711
  H        -0.0567910607       11.3210481002        4.9310240788
  H        -2.8588191842       11.3954434036        4.8579528074
  H         6.6448459283        2.7193897787       11.5869952741
  H         6.4981251167        5.8176167097       11.6473039949
  H         2.1400894675        3.0174193309        4.9301431462
 Ca         1.0417715434        7.1687963308        2.7100330638
 Ca         5.4336621990       10.0369321702        9.4420921713
 Ca         2.5943339735       10.0376864612       13.7901633972
 Ca         3.8814220232        7.1691265704        7.0744543532
  S         5.4339791927       10.0364103899        2.5446737793
  S         1.0422073983        7.1694899141        9.2461594999
  S         3.8811740130        7.1701947600       13.9795686708
  S         2.5940943890       10.0369051083        7.2644218552
  O        -0.7280887051        8.8683426826        3.3939237040
  O         0.5806990279        6.0182246863       10.0861824612
  O         4.3628902495        8.3392975784       13.1287752820
  O         3.0535168269       11.1888756985        6.4239853378
  O         5.9170565321       11.2036169725        3.3949962038
  O         1.5038034416        8.3208014764       10.0859820214
  O        -2.2794833322        6.0011770589       13.1289264982
  O         2.1346420999        8.8849527967        6.4240673283
  O         0.8912398322        9.4718144880        1.8105596641
  O         2.1404190572        6.6224742372        8.4272500129
  O         2.7429990640        7.7332752559       14.7121694898
  O         1.4947313158       10.5798880675        8.0852175355
  O         4.2974853887       10.6015415770        1.8107095910
  O        -0.0561954344        7.7160252917        8.4271896562
  O        -0.6590703008        6.6072407661       14.7116639132
  O         3.6936987832        9.4942912784        8.0851468845
  O         2.4608139470        8.3986737599        3.9179522416
  O         1.1331246985       11.3533908160       10.6392991863
  O         1.1760792734        8.8013801754       12.5870487344
  O         2.5033640652        5.8543632026        5.8762142685
  O        -0.3776559005        5.9397028173        3.9179351975
  O         4.0566196059        8.7186218739       10.6387186545
  O         4.0127365997       11.2730098967       12.5868046292
  O        -0.4205849169        8.4858110913        5.8763946703
  H         3.3661188560        8.6803499604        3.6357321697
  H        -1.0700616686        5.7945102010       10.3006840740
  H         0.2717068107        8.5232497623       12.8777325389
  H         4.7083947498       11.4124371105        6.2187397790
  H         1.8223443506       11.3928418410        3.6360267567
  H         3.1544783607        8.5435761475       10.3013099293
  H         1.8119443777        5.8164614774       12.8776508778
  H         0.4797054739        8.6621845522        6.2179052468
  H         2.3679470537        8.6784076466        4.8580807113
  H         6.2653946296        0.1486727332       11.5877423596
  H         1.2645804003        8.5212459726       11.6471127686
  H         2.5174495338        5.5856152094        4.9294009955
  H        -0.2843395645        5.6598929134        4.8580341160
  H         4.0711108220        8.4552405098       11.5880120887
  H         9.0720072633        0.0824417869       11.6469044556
  H        -0.4338465877        8.7524874256        4.9290182545
 Ca         6.7207972827        7.1687230873        2.7107707381
 Ca        -0.2453015773       10.0372127351        9.4420979186
 Ca        -3.0846860372       10.0376807200       13.7897219381
 Ca        -1.7974340916        7.1694587719        7.0744584990
  S        -0.2450162963       10.0365936534        2.5446690802
  S         6.7211963275        7.1694907120        9.2462328352
  S        -1.7978890072        7.1702552718       13.9795670607
  S        -3.0848930670       10.0369171981        7.2643266680
  O         4.9514302458        8.8683061180        3.3943345404
  O         6.2599347408        6.0181370535       10.0862558769
  O        -1.3167421816        8.3393322340       13.1285615113
  O        -2.6255623507       11.1889369563        6.4239239799
  O         0.2374209029       11.2037718619        3.3953255742
  O         7.1825492845        8.3208952969       10.0860512171
  O         3.4001801879        6.0011241583       13.1287144973
  O        -3.5442400444        8.8849142012        6.4239947472
  O         6.5696534002        9.4709255291        1.8102098461
  O         7.8195534159        6.6227705956        8.4273312249
  O        -2.9354863842        7.7336679202       14.7127076143
  O        -4.1843414395       10.5797630641        8.0850949607
  O        -1.3810483070       10.6022024238        1.8103678730
  O         5.6226678850        7.7157413551        8.4272529810
  O         5.0194473187        6.6068750513       14.7121920598
  O        -1.9852356110        9.4944155744        8.0850523149
  O        -3.2178622616        8.3988706418        3.9178807761
  O        -4.5455517830       11.3528483918       10.6390963389
  O         6.8550902442        8.8010973176       12.5872947347
  O         8.1822086815        5.8546493121        5.8766897885
  O         5.3010291069        5.9394850285        3.9179099832
  O        -1.6226591710        8.7190692170       10.6384920351
  O        -1.6662753680       11.2732766241       12.5870374256
  O         5.2585065523        8.4857004115        5.8769154142
  H        -2.3123474475        8.6804595214        3.6356809575
  H         4.6091751454        5.7941731069       10.3004117098
  H         5.9504695531        8.5230049148       12.8778466222
  H        -0.9707664473       11.4127536878        6.2191199252
  H        -3.8571535388       11.3927016183        3.6359795943
  H        -2.5247657997        8.5439351411       10.3010190924
  H         7.4912211119        5.8166909712       12.8777753165
  H         6.1589030010        8.6618525601        6.2183088774
  H        -3.3107712756        8.6783247708        4.8579905706
  H         0.5865506807        0.1486279684       11.5874138643
  H         6.9434644718        8.5212944126       11.6473347993
  H         8.1964749215        5.5856905611        4.9299132838
  H         5.3943841982        5.6598985087        4.8579787520
  H        -1.6080204403        8.4552729994       11.5876865063
  H         3.3931163935        0.0824321801       11.6471244416
  H         5.2451058234        8.7523836968        4.9295075697
     192
 i =       15, E =     -2324.0979523891
 Ca         9.2948898156        1.4327255936        2.7071018292
 Ca         2.3286661719        4.3013299944        9.4495907833
 Ca        -0.5109857968        4.3026937644       13.7951854844
 Ca         0.7764931451        1.4340129305        7.0668853078
  S         2.3287537992        4.3004754796        2.5415779710
  S         9.2949188323        1.4341697619        9.2428186197
  S         0.7760990883        1.4344558580       13.9787391012
  S        -0.5106938687        4.3015763430        7.2664570626
  O         7.5246962801        3.1316586923        3.3887481393
  O         8.8351945813        0.2815035564       10.0831881908
  O         1.2568783045        2.6060952730       13.1309237658
  O        -0.0519858104        5.4544747875        6.4260580013
  O         2.8123895091        5.4702450708        3.3879902094
  O         9.7536667093        2.5863777712       10.0842730274
  O         5.9735574379        0.2628502139       13.1317089699
  O        -0.9689280664        3.1487915229        6.4256558241
  O         9.1457831544        3.7372516174        1.8083315919
  O        10.3967711020        0.8931730750        8.4262488898
  O        -0.3648568597        1.9944167373       14.7098129057
  O        -1.6131090963        4.8405688990        8.0846995134
  O         1.1897407142        4.8632517087        1.8092077686
  O         8.1942709810        1.9756430580        8.4250608668
  O         7.5966943589        0.8749131017       14.7089906837
  O         0.5911539961        3.7626184465        8.0853507162
  O        -0.6430360460        2.6508632027        3.9280177175
  O        -1.9785138436        5.6389756068       10.6375413074
  O         9.4288133349        3.0753641655       12.5826285409
  O        10.7635318799        0.0999760352        5.8788898508
  O         7.8744927575        0.2168219629        3.9287156352
  O         0.9583220327        2.9617808513       10.6367679685
  O         0.9076299480        5.5279250106       12.5818549451
  O         7.8252275787        2.7699445116        5.8791923699
  H         0.2597062024        2.9366579374        3.6419189291
  H         7.1768988138        0.0798842884       10.3010405938
  H         8.5249468364        2.7950943641       12.8709852943
  H         1.6090538589        5.6571852514        6.2166332988
  H        -1.2806512314        5.6659341614        3.6420871265
  H         0.0541931802        2.7881415281       10.3008543173
  H        10.0639539100        0.0734985402       12.8704476451
  H         8.7278769663        2.9459130629        6.2167936292
  H        -0.7420813084        2.9425766877        4.8634737069
  H        -1.9910001486        5.8851245046       11.5905103691
  H         9.5227704460        2.7849320372       11.6455175850
  H         5.6255253232       11.3212078190        4.9270627366
  H         2.8258675840       11.3954515464        4.8639278077
  H         0.9700226766        2.7184826563       11.5909036029
  H         0.8134328135        5.8187334134       11.6449046175
  H         7.8157831623        3.0171958248        4.9262644150
 Ca         3.6158789695        1.4327887860        2.7079860574
 Ca         8.0077578748        4.3015993766        9.4495698364
 Ca         5.1680230838        4.3026886486       13.7948477638
 Ca         6.4556800943        1.4343651223        7.0668809787
  S         8.0078872418        4.3009660491        2.5415429691
  S         3.6159279808        1.4341677245        9.2429107362
  S         6.4551079720        1.4347767809       13.9787417369
  S         5.1682978357        4.3015670066        7.2664037737
  O         1.8461596203        3.1315661523        3.3894855305
  O         3.1565124686        0.2813667199       10.0832368008
  O         6.9354524382        2.6061914787       13.1305795892
  O         5.6269066007        5.4545321932        6.4260681040
  O         8.4912187812        5.4701488015        3.3887270808
  O         4.0743810213        2.5865079697       10.0843190352
  O         0.2949955748        0.2627468614       13.1313577812
  O         4.7101719497        3.1487280325        6.4256466706
  O         3.4663123720        3.7365231187        1.8080230335
  O         4.7179659202        0.8935423220        8.4263604335
  O         5.3144403375        1.9946877398       14.7102767105
  O         4.0657920059        4.8404278124        8.0846123160
  O         6.8695207521        4.8644816893        1.8087516109
  O         2.5150754445        1.9752662935        8.4251957539
  O         1.9174199242        0.8746701973       14.7094503101
  O         6.2702330542        3.7627352747        8.0852626654
  O         5.0363373004        2.6510644119        3.9279867373
  O         3.7007410708        5.6386148209       10.6372685812
  O         3.7497137975        3.0751363417       12.5827899380
  O         5.0844936217        0.0999510876        5.8796120150
  O         2.1951268185        0.2166308724        3.9286426837
  O         6.6370191085        2.9622998580       10.6365151549
  O         6.5867276568        5.5281907416       12.5820515358
  O         2.1463613123        2.7697087188        5.8798237904
  H         5.9392061220        2.9368813774        3.6418165726
  H         1.4982039224        0.0794544078       10.3007541917
  H         2.8457564541        2.7947792359       12.8711581427
  H         7.2877880170        5.6575835468        6.2170950731
  H         4.3977779777        5.6657236358        3.6420091466
  H         5.7328972100        2.7885908469       10.3005639576
  H         4.3851463147        0.0738106301       12.8706077547
  H         3.0491260587        2.9454998134        6.2172604303
  H         4.9372887040        2.9425810712        4.8634161692
  H         3.6881868186        5.8850148870       11.5901789442
  H         3.8436488115        2.7849805871       11.6456676140
  H        -0.0534843909       11.3213721611        4.9277152029
  H        -2.8534881650       11.3955418997        4.8638505970
  H         6.6488092393        2.7186104728       11.5905505467
  H         6.4925726230        5.8186449369       11.6450694058
  H         2.1368260519        3.0170780572        4.9269155042
 Ca         1.0416998765        7.1686487797        2.7065710033
 Ca         5.4335888424       10.0369264902        9.4497582141
 Ca         2.5943402096       10.0377879500       13.7952460040
 Ca         3.8814969155        7.1691502237        7.0664621444
  S         5.4339578559       10.0358914446        2.5412793367
  S         1.0422857394        7.1695188563        9.2428130981
  S         3.8812689624        7.1700185352       13.9790754492
  S         2.5940891051       10.0369018831        7.2666841937
  O        -0.7285303218        8.8666575863        3.3875287762
  O         0.5829470571        6.0169791521       10.0835633837
  O         4.3623970562        8.3418119751       13.1316254297
  O         3.0527233357       11.1898850242        6.4263210650
  O         5.9174067956       11.2049344319        3.3883048842
  O         1.5015965667        8.3219468345       10.0836417031
  O        -2.2789277366        5.9986133015       13.1319786589
  O         2.1354653936        8.8841077814        6.4261700806
  O         0.8933392506        9.4733889922        1.8084060791
  O         2.1437088771        6.6281695365        8.4259497620
  O         2.7401768660        7.7300060909       14.7098249672
  O         1.4918743932       10.5759738724        8.0850375215
  O         4.2953520308       10.5995019152        1.8087444588
  O        -0.0592009508        7.7104576548        8.4257856018
  O        -0.6561947320        6.6104957040       14.7095514113
  O         3.6964553012        9.4980404552        8.0849702267
  O         2.4617540199        8.3856482971        3.9287212184
  O         1.1256889157       11.3751814651       10.6377835615
  O         1.1762741004        8.8111180023       12.5820206808
  O         2.5109275823        5.8348289361        5.8782946205
  O        -0.3785890981        5.9527147669        3.9287614904
  O         4.0639354147        8.6966698749       10.6371828506
  O         4.0126147919       11.2633606059       12.5815469723
  O        -0.4281021318        8.5056184565        5.8785358091
  H         3.3642034281        8.6718259547        3.6421154705
  H        -1.0750919902        5.8147321306       10.3007085647
  H         0.2725610170        8.5307339008       12.8707233096
  H         4.7134016244       11.3932837033        6.2171184619
  H         1.8241456960       11.4012037883        3.6423142003
  H         3.1597019972        8.5233013276       10.3013380536
  H         1.8111001697        5.8090545777       12.8705888566
  H         0.4745838197        8.6814341050        6.2162266839
  H         2.3625549325        8.6781477177        4.8639210264
  H         6.2614740309        0.1494630808       11.5913513529
  H         1.2702682687        8.5203452487       11.6450043414
  H         2.5207879490        5.5859750812        4.9258593948
  H        -0.2790535981        5.6600100940        4.8638736983
  H         4.0752589292        8.4543761839       11.5915374971
  H         9.0662865180        0.0834707426       11.6446143100
  H        -0.4372333318        8.7521517068        4.9255026716
 Ca         6.7207160296        7.1685702875        2.7075318850
 Ca        -0.2453220152       10.0371994428        9.4497668118
 Ca        -3.0846709255       10.0377794157       13.7949016706
 Ca        -1.7973084397        7.1695098606        7.0664690421
  S        -0.2449624471       10.0365497813        2.5412787479
  S         6.7212726568        7.1695163067        9.2429128515
  S        -1.7977492840        7.1703515284       13.9790803634
  S        -3.0848983622       10.0369118400        7.2666000690
  O         4.9507573933        8.8665235801        3.3882556888
  O         6.2622449862        6.0168383081       10.0836162414
  O        -1.3170309422        8.3419191354       13.1312928781
  O        -2.6263527648       11.1899562578        6.4263061694
  O         0.2379145620       11.2052179787        3.3889757528
  O         7.1802788207        8.3220862926       10.0836916094
  O         3.4005505057        5.9984797341       13.1316333066
  O        -3.5434197825        8.8840588165        6.4261372392
  O         6.5716245932        9.4720721126        1.8079440139
  O         7.8229087760        6.6285581704        8.4260887857
  O        -2.9385392024        7.7303051506       14.7102936753
  O        -4.1872183626       10.5758591129        8.0849003037
  O        -1.3831484392       10.6004487426        1.8083245667
  O         5.6195929628        7.7100799295        8.4259090125
  O         5.0225818757        6.6102766509       14.7099980672
  O        -1.9824601442        9.4981575551        8.0848675209
  O        -3.2168412983        8.3858719218        3.9286352605
  O        -4.5530032017       11.3746907043       10.6375174822
  O         6.8551821314        8.8108626674       12.5822035311
  O         8.1897780198        5.8350636906        5.8789269897
  O         5.3000054620        5.9524568177        3.9287347190
  O        -1.6153236948        8.6970739407       10.6369012272
  O        -1.6663050798       11.2635829551       12.5817162690
  O         5.2509675806        8.5055720095        5.8792374817
  H        -2.3142546600        8.6720773440        3.6419888821
  H         4.6041872056        5.8143272894       10.3004336073
  H         5.9513670524        8.5303952726       12.8709023835
  H        -0.9658263005       11.3936542448        6.2175966223
  H        -3.8553437010       11.4009181340        3.6421950536
  H        -2.5195779898        8.5237334803       10.3010467874
  H         7.4903137083        5.8093776115       12.8707759876
  H         6.1538297722        8.6810542388        6.2166898063
  H        -3.3160394036        8.6780782210        4.8638362924
  H         0.5826965336        0.1493331239       11.5909954392
  H         6.9491307463        8.5204417984       11.6451523435
  H         8.1997793659        5.5860575859        4.9265279072
  H         5.3995388678        5.6599911985        4.8638364580
  H        -1.6039405605        8.4544825154       11.5911821473
  H         3.3874195396        0.0834124780       11.6447653420
  H         5.2417663595        8.7520316049        4.9261682692
     192
 i =       16, E =     -2324.0985541874
 Ca         9.2948663627        1.4326897865        2.7022457417
 Ca         2.3287021481        4.3015879432        9.4514588376
 Ca        -0.5108966274        4.3025834597       13.8013906230
 Ca         0.7764710146        1.4340059753        7.0650140219
  S         2.3285016432        4.3000934993        2.5403408275
  S         9.2949463949        1.4341865885        9.2454400006
  S         0.7760152957        1.4345289390       13.9784383654
  S        -0.5107123260        4.3015943830        7.2664586794
  O         7.5234728241        3.1300795966        3.3837591492
  O         8.8344081200        0.2827154354       10.0855489043
  O         1.2581708288        2.6069234913       13.1338351968
  O        -0.0499996076        5.4525437330        6.4262523496
  O         2.8135263906        5.4713281362        3.3826747631
  O         9.7544994357        2.5852737819       10.0865533646
  O         5.9723898372        0.2621535666       13.1343351479
  O        -0.9709271568        3.1507244361        6.4258951691
  O         9.1466788006        3.7388419110        1.8076430109
  O        10.3970344840        0.8961333756        8.4289541755
  O        -0.3645887736        1.9932884168       14.7097818890
  O        -1.6129602153        4.8401264377        8.0834022496
  O         1.1887795178        4.8612380317        1.8084017863
  O         8.1938855632        1.9725498475        8.4278401141
  O         7.5963181328        0.8761021506       14.7089765134
  O         0.5909618158        3.7630888994        8.0841128792
  O        -0.6444956267        2.6482524763        3.9276232136
  O        -1.9860027529        5.6439259434       10.6433616094
  O         9.4303271742        3.0766437952       12.5897842037
  O        10.7688505325        0.0942738247        5.8729103467
  O         7.8758758114        0.2192750242        3.9282325975
  O         0.9658408090        2.9568147872       10.6424765814
  O         0.9062811346        5.5269174564       12.5888664754
  O         7.8199470106        2.7755483030        5.8732456543
  H         0.2571728506        2.9372348236        3.6368719149
  H         7.1711586011        0.0866166128       10.3098754721
  H         8.5263441675        2.7936469149       12.8780233789
  H         1.6128456630        5.6508943351        6.2085531634
  H        -1.2781561378        5.6652308882        3.6371716203
  H         0.0600348887        2.7813666160       10.3097557897
  H        10.0625361159        0.0750719360       12.8772929959
  H         8.7240959353        2.9523324741        6.2087620506
  H        -0.7425545953        2.9401877668        4.8626887313
  H        -1.9981986673        5.8827867221       11.5982123515
  H         9.5243255999        2.7885567590       11.6518824113
  H         5.6340764876       11.3246460424        4.9186201887
  H         2.8263830512       11.3977729166        4.8630768028
  H         0.9772038533        2.7207152290       11.5981921760
  H         0.8119001463        5.8152385380       11.6511702429
  H         7.8072994826        3.0137226207        4.9181738880
 Ca         3.6158575757        1.4327555822        2.7030077582
 Ca         8.0078453853        4.3017029805        9.4514492492
 Ca         5.1681211458        4.3025729586       13.8012061922
 Ca         6.4557146617        1.4343307644        7.0650069644
  S         8.0078503362        4.3007294897        2.5403222057
  S         3.6159519749        1.4341804224        9.2455169015
  S         6.4550631078        1.4347249683       13.9784386853
  S         5.1682789855        4.3015872453        7.2664303923
  O         1.8446498752        3.1300120706        3.3846784114
  O         3.1557387905        0.2825744055       10.0855941950
  O         6.9370276345        2.6068978745       13.1335934584
  O         5.6288742026        5.4525935330        6.4262697948
  O         8.4926345820        5.4712256518        3.3836027091
  O         4.0751916477        2.5854056226       10.0865890262
  O         0.2935564366        0.2621694034       13.1340882515
  O         4.7081887496        3.1506727584        6.4258966178
  O         3.4670142961        3.7377375572        1.8075749909
  O         4.7182136634        0.8964726770        8.4290507885
  O         5.3147200931        1.9936798489       14.7099787290
  O         4.0659309778        4.8399804152        8.0833339703
  O         6.8684719108        4.8624536219        1.8082442980
  O         2.5146891508        1.9721814088        8.4279662719
  O         1.9170130551        0.8757159918       14.7091738051
  O         6.2700546107        3.7632111296        8.0840369388
  O         5.0347395137        2.6482888501        3.9276523121
  O         3.6932348594        5.6436100170       10.6431185238
  O         3.7513185345        3.0765022469       12.5899349964
  O         5.0898260848        0.0942535174        5.8736648735
  O         2.1966467400        0.2192584887        3.9282208974
  O         6.6445401989        2.9572729062       10.6422681612
  O         6.5852757425        5.5270818820       12.5890480844
  O         2.1410725648        2.7753461496        5.8739239637
  H         5.9363597043        2.9374833575        3.6367471001
  H         1.4924531851        0.0861734985       10.3095867087
  H         2.8473774235        2.7933079958       12.8781593918
  H         7.2915899845        5.6512935714        6.2090519951
  H         4.4005489632        5.6650143679        3.6370680791
  H         5.7387481002        2.7818245590       10.3094649761
  H         4.3835081269        0.0754092076       12.8774402024
  H         3.0453315796        2.9519224352        6.2092707967
  H         4.9368208504        2.9403148775        4.8626809767
  H         3.6810124685        5.8826792592       11.5979021826
  H         3.8451659102        2.7885430083       11.6520126284
  H        -0.0449605066       11.3247601613        4.9193430875
  H        -2.8529842237       11.3977400034        4.8630510247
  H         6.6559797685        2.7208405864       11.5978794276
  H         6.4910762564        5.8152196195       11.6513122457
  H         2.1283556610        3.0136449040        4.9188904931
 Ca         1.0417506328        7.1684842287        2.7018042501
 Ca         5.4336320914       10.0369363025        9.4515581228
 Ca         2.5943608808       10.0378657053       13.8013874312
 Ca         3.8815127937        7.1692635302        7.0646028051
  S         5.4337393900       10.0355862637        2.5402145032
  S         1.0422552088        7.1694594807        9.2453511628
  S         3.8812252843        7.1700755071       13.9785837338
  S         2.5941183551       10.0369414538        7.2667239646
  O        -0.7297412678        8.8651758211        3.3826192157
  O         0.5821554583        6.0181240510       10.0858858784
  O         4.3636465408        8.3426700117       13.1343340050
  O         3.0546746837       11.1879578642        6.4264839225
  O         5.9184925622       11.2060015969        3.3834696816
  O         1.5022589229        8.3206921219       10.0860225790
  O        -2.2800877658        5.9980136465       13.1341682087
  O         2.1335730929        8.8861487985        6.4262606648
  O         0.8943669716        9.4752226997        1.8077696652
  O         2.1440150334        6.6312890095        8.4285366259
  O         2.7404517366        7.7287208843       14.7097806625
  O         1.4921306453       10.5754949591        8.0839278253
  O         4.2944147605       10.5973827255        1.8080126242
  O        -0.0593898027        7.7074613209        8.4282876728
  O        -0.6567018706        6.6114719004       14.7093328885
  O         3.6961472269        9.4984170647        8.0838985444
  O         2.4602148800        8.3835583032        3.9279997401
  O         1.1181691732       11.3801788672       10.6435539789
  O         1.1777352984        8.8122175871       12.5892005729
  O         2.5164310506        5.8291265355        5.8722653017
  O        -0.3769204519        5.9549563036        3.9281784855
  O         4.0713934946        8.6918031968       10.6428406712
  O         4.0110221031       11.2623161879       12.5885022558
  O        -0.4333847468        8.5111637486        5.8725724681
  H         3.3618199312        8.6725172626        3.6370518252
  H        -1.0809426860        5.8215921785       10.3096357819
  H         0.2738708910        8.5291519909       12.8777228790
  H         4.7172327851       11.3868390118        6.2091438639
  H         1.8265794176       11.4004364802        3.6372615379
  H         3.1655844126        8.5164608059       10.3100781769
  H         1.8098325838        5.8106184490       12.8776571802
  H         0.4707277605        8.6879333256        6.2082184003
  H         2.3620843722        8.6756379258        4.8629451211
  H         6.2542100655        0.1471480650       11.5987662944
  H         1.2717980212        8.5240290916       11.6513719329
  H         2.5293072451        5.5894843854        4.9176137974
  H        -0.2785968460        5.6623861676        4.8629631416
  H         4.0825921888        8.4565802468       11.5987674696
  H         9.0648252260        0.0799478274       11.6508272906
  H        -0.4457956455        8.7486412154        4.9173556153
 Ca         6.7207708311        7.1683567819        2.7026533551
 Ca        -0.2452318781       10.0370543959        9.4515591488
 Ca        -3.0846542172       10.0378668369       13.8011999431
 Ca        -1.7972336063        7.1696036292        7.0646077377
  S        -0.2449310753       10.0364556955        2.5402160450
  S         6.7212480312        7.1694591709        9.2454381308
  S        -1.7977529841        7.1702776395       13.9785881165
  S        -3.0848741912       10.0369479607        7.2666546065
  O         4.9491852148        8.8650402869        3.3835620510
  O         6.2614731907        6.0179837622       10.0859319261
  O        -1.3154985220        8.3426528484       13.1341098911
  O        -2.6244220800       11.1880191164        6.4264722268
  O         0.2392378292       11.2063332935        3.3843761024
  O         7.1809332157        8.3208356193       10.0860665196
  O         3.3990905759        5.9979977154       13.1339545525
  O        -3.5452994288        8.8861046210        6.4262287654
  O         6.5724416921        9.4734294543        1.8075992926
  O         7.8232016761        6.6316459367        8.4286589982
  O        -2.9382539035        7.7291383987       14.7099819756
  O        -4.1869806163       10.5753697142        8.0837973335
  O        -1.3840267456       10.5985544453        1.8078925211
  O         5.6194114438        7.7070988795        8.4284052227
  O         5.0220252929        6.6110926037       14.7095189961
  O        -1.9827553413        9.4985477936        8.0838011701
  O        -3.2185015602        8.3835957614        3.9279764882
  O        -4.5605260271       11.3797418185       10.6433371716
  O         6.8567344003        8.8120610077       12.5893728179
  O         8.1952779502        5.8293481536        5.8729235360
  O         5.3017747530        5.9548656654        3.9281935855
  O        -1.6078708977        8.6921560262       10.6426084465
  O        -1.6679708012       11.2624580972       12.5886567551
  O         5.2456891760        8.5111363863        5.8733062954
  H        -2.3169498465        8.6727913777        3.6369039463
  H         4.5983184927        5.8211766197       10.3093655981
  H         5.9529098816        8.5287878311       12.8778612167
  H        -0.9619675449       11.3872058607        6.2096476042
  H        -3.8525825270       11.4001217093        3.6371169842
  H        -2.5136886824        8.5168990220       10.3097882176
  H         7.4887970080        5.8109706844       12.8778043567
  H         6.1499630237        8.6875533563        6.2087262429
  H        -3.3164776486        8.6757029373        4.8629105894
  H         0.5754410922        0.1470214084       11.5984516249
  H         6.9506148463        8.5240523400       11.6515026692
  H         8.2083027773        5.5894939020        4.9183415442
  H         5.3999669871        5.6622411926        4.8629601286
  H        -1.5966221635        8.4566827358       11.5984529304
  H         3.3859848516        0.0799459484       11.6509535252
  H         5.2332022460        8.7485775635        4.9180880279
     192
 i =       17, E =     -2324.0989000305
 Ca         9.2948458337        1.4326708102        2.7030258904
 Ca         2.3287111857        4.3016106036        9.4520916735
 Ca        -0.5107304556        4.3025293380       13.8027917726
 Ca         0.7764229767        1.4340040574        7.0646903003
  S         2.3283926522        4.2998395099        2.5426488236
  S         9.2949459175        1.4341376826        9.2448949614
  S         0.7759183524        1.4345703648       13.9760885860
  S        -0.5107175903        4.3016193158        7.2703503887
  O         7.5246919214        3.1285616319        3.3844474297
  O         8.8324276219        0.2844734465       10.0850340093
  O         1.2569294238        2.6070374715       13.1318334394
  O        -0.0462151335        5.4500245114        6.4303328000
  O         2.8123307635        5.4722499142        3.3833377722
  O         9.7565035548        2.5834789923       10.0859605400
  O         5.9736168651        0.2623223766       13.1321151606
  O        -0.9746123891        3.1532626015        6.4299825704
  O         9.1476188266        3.7410809392        1.8097576652
  O        10.3951543155        0.8957701222        8.4275731863
  O        -0.3640459335        1.9921653435       14.7083838253
  O        -1.6106160827        4.8427799868        8.0869719771
  O         1.1882536195        4.8591459984        1.8103850678
  O         8.1955485999        1.9726687510        8.4266024584
  O         7.5955648792        0.8771547026       14.7076435017
  O         0.5885711400        3.7605141956        8.0878074940
  O        -0.6422330432        2.6431479019        3.9311104518
  O        -1.9912583715        5.6516032915       10.6420976755
  O         9.4278995995        3.0821198894       12.5924586284
  O        10.7736199256        0.0867793342        5.8734697764
  O         7.8734672585        0.2241653309        3.9316492134
  O         0.9712426341        2.9491374193       10.6411419673
  O         0.9085922560        5.5217048438       12.5916785848
  O         7.8151148029        2.7831569192        5.8740448429
  H         0.2595847046        2.9343743152        3.6395606162
  H         7.1660091263        0.0933303857       10.3081013311
  H         8.5229689833        2.7961099555       12.8785596388
  H         1.6168904179        5.6443330879        6.2080414875
  H        -1.2807439049        5.6678138685        3.6397538751
  H         0.0652805012        2.7747008520       10.3078205241
  H        10.0659732194        0.0727911732       12.8776914547
  H         8.7201483143        2.9589675725        6.2084485503
  H        -0.7430177884        2.9396389850        4.8654208633
  H        -2.0019055482        5.8858212515       11.5984951886
  H         9.5258336467        2.7913531106       11.6549643962
  H         5.6367591436       11.3223457391        4.9175945984
  H         2.8268380072       11.3981902361        4.8657798279
  H         0.9809664152        2.7176156292       11.5981489749
  H         0.8105887795        5.8127058036       11.6543650517
  H         7.8046701313        3.0158860138        4.9175292256
 Ca         3.6158339597        1.4327227172        2.7035815153
 Ca         8.0079005122        4.3017453648        9.4520697215
 Ca         5.1682707640        4.3025224025       13.8027701700
 Ca         6.4556800146        1.4343033526        7.0646775054
  S         8.0078756429        4.3004828379        2.5426650834
  S         3.6159437201        1.4341251879        9.2449440176
  S         6.4550962162        1.4347879306       13.9760865592
  S         5.1682769179        4.3016141507        7.2703424137
  O         1.8455237603        3.1286341738        3.3854538816
  O         3.1537505513        0.2843378050       10.0850807512
  O         6.9360116699        2.6069974221       13.1315011220
  O         5.6326254882        5.4500646150        6.4303365203
  O         8.4915191634        5.4721996483        3.3843414697
  O         4.0771943314        2.5835976565       10.0859859686
  O         0.2945429672        0.2623583084       13.1317849646
  O         4.7045347383        3.1532175191        6.4299860060
  O         3.4677544937        3.7396728574        1.8097777549
  O         4.7163039852        0.8960705446        8.4276374313
  O         5.3151460811        1.9923970511       14.7084267002
  O         4.0682673514        4.8426145287        8.0869219408
  O         6.8677052807        4.8599981598        1.8104521076
  O         2.5163711891        1.9723285542        8.4266915328
  O         1.9163604197        0.8769148881       14.7076984430
  O         6.2676835422        3.7606627376        8.0877452408
  O         5.0369917722        2.6432616125        3.9312481874
  O         3.6879727027        5.6513218064       10.6418976590
  O         3.7488702708        3.0819950518       12.5925063911
  O         5.0946106155        0.0867057883        5.8743741315
  O         2.1942400545        0.2240921512        3.9317575809
  O         6.6499500994        2.9495712629       10.6409686918
  O         6.5876097786        5.5218419941       12.5917339328
  O         2.1362299990        2.7830067923        5.8748618755
  H         5.9386199808        2.9346135291        3.6392841807
  H         1.4872989092        0.0928864068       10.3078697581
  H         2.8440986467        2.7958436684       12.8787861253
  H         7.2956341440        5.6447447100        6.2086174014
  H         4.3980824390        5.6676398784        3.6395143899
  H         5.7440020289        2.7751588039       10.3075906609
  H         4.3868408842        0.0730625582       12.8779319424
  H         3.0413826612        2.9585473440        6.2090540272
  H         4.9363000458        2.9398539943        4.8655455607
  H         3.6773433115        5.8857336870       11.5982201227
  H         3.8467400058        2.7913060884       11.6549670032
  H        -0.0422748292       11.3224269752        4.9184582480
  H        -2.8524718658       11.3980763180        4.8658948009
  H         6.6596875528        2.7177159048       11.5978641350
  H         6.4896862367        5.8127210857       11.6543562191
  H         2.1257219767        3.0158611123        4.9183788535
 Ca         1.0419114201        7.1682602696        2.7025966584
 Ca         5.4336008896       10.0369752335        9.4522673457
 Ca         2.5943548915       10.0380867815       13.8027800951
 Ca         3.8814872839        7.1693549939        7.0642858035
  S         5.4335818264       10.0352351792        2.5427052857
  S         1.0422178432        7.1694407042        9.2447220272
  S         3.8811543149        7.1700479528       13.9760633627
  S         2.5941437802       10.0369572082        7.2706424502
  O        -0.7284919236        8.8636345860        3.3834086190
  O         0.5802108078        6.0198817379       10.0852753058
  O         4.3623927455        8.3428586180       13.1323195167
  O         3.0583652441       11.1854076466        6.4305172440
  O         5.9172019207       11.2068558639        3.3844773514
  O         1.5040938805        8.3188806376       10.0854977021
  O        -2.2789326304        5.9983158908       13.1314631701
  O         2.1299587245        8.8887097047        6.4302707326
  O         0.8952685309        9.4774883178        1.8099629974
  O         2.1421573982        6.6310178599        8.4270816772
  O         2.7410279794        7.7275497612       14.7082584411
  O         1.4945887251       10.5781342859        8.0876894952
  O         4.2937511783       10.5950131729        1.8102172837
  O        -0.0574913812        7.7077619636        8.4267153112
  O        -0.6574757134        6.6124478178       14.7078260128
  O         3.6936817509        9.4957539353        8.0877142374
  O         2.4624716918        8.3787075407        3.9312029428
  O         1.1127051051       11.3877473171       10.6421241229
  O         1.1753258513        8.8174292278       12.5920528573
  O         2.5213727914        5.8217331071        5.8727217822
  O        -0.3792602581        5.9597158531        3.9315804751
  O         4.0767909872        8.6841494051       10.6414108642
  O         4.0133414376       11.2572687020       12.5912162962
  O        -0.4381998725        8.5187058074        5.8732529752
  H         3.3643346379        8.6698013732        3.6397060614
  H        -1.0861101693        5.8283755087       10.3077861266
  H         0.2703878436        8.5314765291       12.8781875103
  H         4.7212771301       11.3801878064        6.2087946603
  H         1.8240392842       11.4030003517        3.6399171626
  H         3.1708494754        8.5097045622       10.3080677568
  H         1.8132568261        5.8083463294       12.8779519141
  H         0.4667241902        8.6946587431        6.2078706717
  H         2.3616494523        8.6750831038        4.8655131107
  H         6.2505946057        0.1502140252       11.5986807162
  H         1.2732311726        8.5268080288       11.6545535906
  H         2.5319247259        5.5872365018        4.9167275287
  H        -0.2780100406        5.6628259403        4.8657141178
  H         4.0864015640        8.4534257813       11.5986522494
  H         9.0632780757        0.0773431113       11.6538551360
  H        -0.4484757694        8.7508098227        4.9165795339
 Ca         6.7208915408        7.1680748161        2.7032546331
 Ca        -0.2452179258       10.0371062211        9.4522701045
 Ca        -3.0846463168       10.0380913826       13.8027486961
 Ca        -1.7972537695        7.1696564293        7.0642919465
  S        -0.2449135784       10.0362583836        2.5427186383
  S         6.7212145018        7.1694354133        9.2447831230
  S        -1.7976788235        7.1702997168       13.9760618635
  S        -3.0848528923       10.0369644540        7.2705832730
  O         4.9500875057        8.8635025504        3.3845054060
  O         6.2595292309        6.0197554848       10.0853315413
  O        -1.3165229593        8.3428523589       13.1319906750
  O        -2.6207682795       11.1854593620        6.4304857715
  O         0.2380845119       11.2072866874        3.3855554278
  O         7.1827777379        8.3190102367       10.0855348595
  O         3.3999993227        5.9983116854       13.1311393383
  O        -3.5488810243        8.8886733257        6.4302226691
  O         6.5732982688        9.4755337429        1.8099032880
  O         7.8213174557        6.6313272432        8.4271687868
  O        -2.9378070420        7.7277886868       14.7083078549
  O        -4.1845462653       10.5779800188        8.0875618192
  O        -1.3848042042       10.5960655545        1.8102531259
  O         5.6213363933        7.7074324479        8.4268055560
  O         5.0213502299        6.6122110082       14.7078786573
  O        -1.9852071449        9.4959136066        8.0876209638
  O        -3.2162083020        8.3788052155        3.9312928221
  O        -4.5659999885       11.3873426913       10.6419353337
  O         6.8542862486        8.8172918442       12.5921085161
  O         8.2002244099        5.8219294135        5.8735047377
  O         5.2994142244        5.9595591099        3.9317016331
  O        -1.6024671671        8.6844851465       10.6412162350
  O        -1.6656300472       11.2573948860       12.5912785083
  O         5.2408550208        8.5187178259        5.8741475670
  H        -2.3145638505        8.6700563058        3.6393836540
  H         4.5931407591        5.8279572829       10.3075546436
  H         5.9495194351        8.5311880683       12.8784321706
  H        -0.9579168082       11.3805669447        6.2094116013
  H        -3.8549523494       11.4026851761        3.6396187687
  H        -2.5084165191        8.5101416349       10.3078417153
  H         7.4921037620        5.8086346951       12.8781976562
  H         6.1459553114        8.6942689077        6.2084623399
  H        -3.3169541370        8.6752349446        4.8656148542
  H         0.5718802952        0.1501126895       11.5983891444
  H         6.9521243769        8.5267959184       11.6545448261
  H         8.2109251024        5.5871704740        4.9175855660
  H         5.4005770598        5.6625909417        4.8658327763
  H        -1.5928696605        8.4535044279       11.5983651524
  H         3.3843783272        0.0773699292       11.6538651340
  H         5.2305139879        8.7508029153        4.9174707247
     192
 i =       18, E =     -2324.0992274646
 Ca         9.2948620253        1.4325458023        2.7073422201
 Ca         2.3287501023        4.3016666531        9.4493154439
 Ca        -0.5106023263        4.3024696061       13.8041904609
 Ca         0.7762758549        1.4338756650        7.0687455893
  S         2.3285128946        4.2999060459        2.5451374556
  S         9.2948798092        1.4340324427        9.2474896476
  S         0.7758147114        1.4347043933       13.9741195259
  S        -0.5106784445        4.3016896084        7.2732816535
  O         7.5273338452        3.1268339979        3.3859203550
  O         8.8291876606        0.2865875368       10.0874466888
  O         1.2550927234        2.6071453519       13.1297905098
  O        -0.0408861198        5.4470567855        6.4335651994
  O         2.8099288423        5.4733617739        3.3853313484
  O         9.7598232094        2.5812008526       10.0881912877
  O         5.9755017541        0.2625596448       13.1297121873
  O        -0.9797342946        3.1562859150        6.4332898357
  O         9.1490382017        3.7438339540        1.8125549673
  O        10.3922288746        0.8933430720        8.4285684884
  O        -0.3640344717        1.9902954464       14.7073544688
  O        -1.6067810615        4.8474711061        8.0907572222
  O         1.1876358599        4.8570436289        1.8129496613
  O         8.1981522034        1.9748920947        8.4277939531
  O         7.5952443844        0.8789572622       14.7067256911
  O         0.5846941559        3.7559481904        8.0918100597
  O        -0.6411704012        2.6449505325        3.9321579831
  O        -1.9985531069        5.6561684787       10.6391005560
  O         9.4249976463        3.0836214148       12.5969234597
  O        10.7803757918        0.0829182095        5.8753426132
  O         7.8722319247        0.2220222835        3.9325554045
  O         0.9789028266        2.9432153860       10.6376233840
  O         0.9115988448        5.5201754027       12.5963561331
  O         7.8082861396        2.7874884611        5.8762036511
  H         0.2622280361        2.9344990592        3.6408309666
  H         7.1594288881        0.0985871777       10.3075514300
  H         8.5193482129        2.7959847680       12.8826604841
  H         1.6225591759        5.6389833316        6.2059591385
  H        -1.2835780871        5.6672306910        3.6410256057
  H         0.0719028061        2.7694461966       10.3071962104
  H        10.0696933916        0.0731376760       12.8816813789
  H         8.7145977832        2.9643657787        6.2066166810
  H        -0.7398829914        2.9375883329        4.8675332735
  H        -2.0098527032        5.8875191916       11.5965331720
  H         9.5237372003        2.7965553013       11.6590228658
  H         5.6435966194       11.3218062149        4.9184828553
  H         2.8236262017       11.4000399114        4.8678037083
  H         0.9890412495        2.7159465497       11.5959598832
  H         0.8126363432        5.8077908458       11.6585789961
  H         7.7978038064        3.0161511847        4.9186460817
 Ca         3.6157629896        1.4326457865        2.7077203200
 Ca         8.0079749436        4.3018392213        9.4492953658
 Ca         5.1683988265        4.3024570638       13.8042481141
 Ca         6.4556009329        1.4341969752        7.0687492133
  S         8.0079954285        4.3003101557        2.5451926499
  S         3.6158730500        1.4340164628        9.2475093362
  S         6.4550582123        1.4347701482       13.9741152666
  S         5.1683141071        4.3016849766        7.2732940968
  O         1.8478180240        3.1272047224        3.3868532974
  O         3.1504727982        0.2864714064       10.0875005488
  O         6.9343857213        2.6070043732       13.1294992986
  O         5.6379055718        5.4470934369        6.4335498340
  O         8.4889661167        5.4733246740        3.3862506951
  O         4.0805455609        2.5812920432       10.0882224507
  O         0.2961980629        0.2627054345       13.1294276400
  O         4.6994512791        3.1562321384        6.4332949425
  O         3.4693367575        3.7427661581        1.8125698410
  O         4.7133444642        0.8936070445        8.4285892843
  O         5.3151160670        1.9904361609       14.7072147677
  O         4.0721029834        4.8472706069        8.0907511141
  O         6.8668782701        4.8574055715        1.8131780651
  O         2.5190019795        1.9745784770        8.4278340133
  O         1.9160796012        0.8788056465       14.7066027580
  O         6.2638181755        3.7561461053        8.0917789690
  O         5.0379515702        2.6451812770        3.9322453892
  O         3.6806642064        5.6558540079       10.6389798509
  O         3.7460718398        3.0835834272       12.5969148665
  O         5.1014200218        0.0827224163        5.8764612797
  O         2.1931396661        0.2219145627        3.9326413785
  O         6.6576060898        2.9436973157       10.6375815508
  O         6.5905051869        5.5202059728       12.5963475761
  O         2.1293920836        2.7873996969        5.8771469863
  H         5.9411435701        2.9347186006        3.6405255383
  H         1.4806771653        0.0981502114       10.3073751570
  H         2.8406180226        2.7958242579       12.8828449472
  H         7.3013049971        5.6393988591        6.2066484522
  H         4.3953924475        5.6670968559        3.6407957110
  H         5.7506719066        2.7698954720       10.3070291384
  H         4.3904194326        0.0733077206       12.8818945252
  H         3.0358202684        2.9639454847        6.2073574703
  H         4.9394712318        2.9379257040        4.8676402636
  H         3.6694402957        5.8874775561       11.5963128740
  H         3.8446278115        2.7964694031       11.6589691256
  H        -0.0354536879       11.3218275035        4.9195317038
  H        -2.8557213280       11.3998146839        4.8679073316
  H         6.6677287200        2.7159972671       11.5957732781
  H         6.4917512017        5.8078474157       11.6585103966
  H         2.1188402685        3.0162513326        4.9196372670
 Ca         1.0420567832        7.1680078175        2.7068792982
 Ca         5.4335959591       10.0369508339        9.4494137246
 Ca         2.5943500170       10.0382039419       13.8042329007
 Ca         3.8814109811        7.1694144595        7.0684002070
  S         5.4335805317       10.0350757660        2.5454026854
  S         1.0421869102        7.1694223712        9.2472249712
  S         3.8810606265        7.1703264252       13.9739263506
  S         2.5941621208       10.0369846214        7.2735652283
  O        -0.7258730629        8.8617203068        3.3851700840
  O         0.5769802716        6.0220701321       10.0875457648
  O         4.3605494018        8.3431663827       13.1301682329
  O         3.0635501845       11.1824164647        6.4337450141
  O         5.9146087009       11.2078766723        3.3867412724
  O         1.5072125014        8.3166709216       10.0878062112
  O        -2.2772057525        5.9987418127       13.1287638220
  O         2.1248643652        8.8917122637        6.4334808142
  O         0.8963852474        9.4798955893        1.8127838740
  O         2.1393555671        6.6287078482        8.4280325978
  O         2.7409931547        7.7256128027       14.7071841775
  O         1.4984694533       10.5827375353        8.0916361834
  O         4.2929878384       10.5926329040        1.8131009401
  O        -0.0546467586        7.7101382090        8.4275946140
  O        -0.6578805227        6.6141462901       14.7066250183
  O         3.6897551426        9.4910998611        8.0917248269
  O         2.4636105369        8.3806922392        3.9320689989
  O         1.1054305059       11.3926397641       10.6390723044
  O         1.1723577410        8.8187754579       12.5967553568
  O         2.5281193678        5.8178924404        5.8743516503
  O        -0.3803807098        5.9575491347        3.9324487532
  O         4.0844002816        8.6782096823       10.6377405455
  O         4.0162332873       11.2557914045       12.5960131867
  O        -0.4450200803        8.5229058888        5.8752703851
  H         3.3670968444        8.6700610171        3.6408678537
  H        -1.0928571056        5.8336559505       10.3074793534
  H         0.2666208090        8.5312497738       12.8823190602
  H         4.7269843089       11.3747552403        6.2067061122
  H         1.8211950323       11.4024722052        3.6411801889
  H         3.1774174297        8.5043434025       10.3073541989
  H         1.8170060750        5.8086515859       12.8820073716
  H         0.4611038591        8.7001568471        6.2059519141
  H         2.3648362289        8.6730611993        4.8675437122
  H         6.2425256747        0.1519243308       11.5966316166
  H         1.2710971034        8.5319547863       11.6587609641
  H         2.5388392377        5.5868018527        4.9175186299
  H        -0.2812304410        5.6646889668        4.8677482363
  H         4.0944903427        8.4516601423       11.5963260436
  H         9.0652837667        0.0723663324       11.6581329636
  H        -0.4553544418        8.7511115685        4.9175688249
 Ca         6.7210039517        7.1677504957        2.7073832423
 Ca        -0.2451974511       10.0371156250        9.4494184254
 Ca        -3.0846577482       10.0382214045       13.8042860686
 Ca        -1.7972713607        7.1697331325        7.0683924475
  S        -0.2449303671       10.0358639042        2.5454277472
  S         6.7211898381        7.1694153387        9.2472561753
  S        -1.7976987191        7.1704230980       13.9739167970
  S        -3.0848416408       10.0369852241        7.2735189163
  O         4.9525344517        8.8617002436        3.3861096450
  O         6.2562591066        6.0219690268       10.0876058659
  O        -1.3181555157        8.3430725994       13.1298913249
  O        -2.6156313785       11.1824700672        6.4337081944
  O         0.2354980374       11.2082726781        3.3876762820
  O         7.1859427440        8.3167748789       10.0878448609
  O         3.4014851954        5.9988449272       13.1285020279
  O        -3.5539316806        8.8916681425        6.4334096930
  O         6.5748016317        9.4785884125        1.8127897002
  O         7.8184820008        6.6289736165        8.4280669299
  O        -2.9378710431        7.7257656451       14.7070412292
  O        -4.1806789625       10.5825379180        8.0915354743
  O        -1.3857312366       10.5933128512        1.8132437785
  O         5.6242151403        7.7098351467        8.4276423883
  O         5.0209604308        6.6139735432       14.7065064676
  O        -1.9891286391        9.4913089382        8.0916605220
  O        -3.2151631368        8.3808512711        3.9320890110
  O        -4.5732645925       11.3921767775       10.6390003051
  O         6.8514288078        8.8187411175       12.5967483855
  O         8.2069916635        5.8180206937        5.8752895766
  O         5.2984151390        5.9573208476        3.9325652922
  O        -1.5948525982        8.6785437704       10.6376528616
  O        -1.6628324640       11.2558438521       12.5960220800
  O         5.2340226434        8.5229969434        5.8763375381
  H        -2.3119269738        8.6702900953        3.6405166693
  H         4.5863459859        5.8332523567       10.3073055396
  H         5.9459037122        8.5310680428       12.8825141160
  H        -0.9521927958       11.3751398140        6.2074924813
  H        -3.8575985332       11.4021306475        3.6408699019
  H        -2.5018147075        8.5047684269       10.3071851007
  H         7.4956905737        5.8088452206       12.8822042626
  H         6.1403389682        8.6997617525        6.2066934863
  H        -3.3136786197        8.6733246620        4.8675949096
  H         0.5638405959        0.1518726746       11.5964208503
  H         6.9499657364        8.5318966614       11.6586978576
  H         8.2178212442        5.5866360675        4.9185260735
  H         5.3972972662        5.6643304762        4.8678723528
  H        -1.5848152595        8.4516964207       11.5961323156
  H         3.3863992523        0.0724286816       11.6580876974
  H         5.2236077830        8.7512098898        4.9186314977
     192
 i =       19, E =     -2324.0994010665
 Ca         9.2948775796        1.4321865033        2.7144411046
 Ca         2.3287747070        4.3015781873        9.4463589733
 Ca        -0.5106377836        4.3025893139       13.8042060191
 Ca         0.7761475467        1.4337723937        7.0740359920
  S         2.3288833945        4.3000940745        2.5480021430
  S         9.2948292754        1.4339656496        9.2481418864
  S         0.7756760588        1.4349809679       13.9719644550
  S        -0.5106316799        4.3017670490        7.2786831388
  O         7.5315377736        3.1249678089        3.3892268356
  O         8.8248673406        0.2884779889       10.0881814203
  O         1.2515492981        2.6081614593       13.1269908865
  O        -0.0342446416        5.4444840175        6.4392217288
  O         2.8061245401        5.4746117684        3.3894021740
  O         9.7642185830        2.5792031526       10.0887589713
  O         5.9790133517        0.2620477625       13.1265358340
  O        -0.9860410462        3.1589138022        6.4389577074
  O         9.1503625598        3.7459145699        1.8157048192
  O        10.3888494426        0.8887686520        8.4274741510
  O        -0.3649199523        1.9879661513       14.7059635354
  O        -1.6022217782        4.8543850546        8.0975227118
  O         1.1869047682        4.8549120555        1.8159352420
  O         8.2013806760        1.9793091822        8.4267375341
  O         7.5957750936        0.8814588062       14.7054004494
  O         0.5799913950        3.7492211519        8.0989208944
  O        -0.6375865455        2.6422334062        3.9378860142
  O        -2.0076141023        5.6699487991       10.6304794530
  O         9.4198598948        3.0896236271       12.5955121576
  O        10.7887854012        0.0721513614        5.8824607343
  O         7.8685549738        0.2245527848        3.9381722428
  O         0.9877754890        2.9289151905       10.6289893797
  O         0.9169085894        5.5140904321       12.5949455807
  O         7.7997254844        2.7989003380        5.8835653673
  H         0.2671148268        2.9298170665        3.6484742756
  H         7.1512350654        0.1098347816       10.3004817151
  H         8.5136472304        2.8014900683       12.8807989592
  H         1.6305634557        5.6283213003        6.2114502047
  H        -1.2885776802        5.6713427145        3.6486472895
  H         0.0801382289        2.7581872816       10.3000519236
  H        10.0755172131        0.0679044916       12.8799445146
  H         8.7067085043        2.9750447609        6.2124384803
  H        -0.7383758897        2.9369384167        4.8729493277
  H        -2.0153327362        5.8951392115       11.5898351284
  H         9.5225359576        2.8000924299       11.6591871006
  H         5.6492555917       11.3165579382        4.9239069338
  H         2.8219688262       11.4003619082        4.8731102732
  H         0.9946391498        2.7083058496       11.5892436307
  H         0.8136407232        5.8045226098       11.6587522753
  H         7.7921455055        3.0210296009        4.9241238292
 Ca         3.6157063428        1.4323373695        2.7147875972
 Ca         8.0078644611        4.3016347010        9.4463707029
 Ca         5.1683623147        4.3025650115       13.8042727666
 Ca         6.4555624641        1.4341699163        7.0740709818
  S         8.0082368396        4.3000560553        2.5480658000
  S         3.6158171757        1.4339464634        9.2481296697
  S         6.4549156613        1.4347838810       13.9719625507
  S         5.1683589653        4.3017562145        7.2787025871
  O         1.8519955444        3.1256627685        3.3900029641
  O         3.1461499322        0.2883630147       10.0882321359
  O         6.9308773259        2.6079031456       13.1268300488
  O         5.6444500459        5.4445473100        6.4391969457
  O         8.4848867417        5.4743778654        3.3901984792
  O         4.0849314707        2.5792874951       10.0887853482
  O         0.2996628754        0.2623124069       13.1263800042
  O         4.6932190197        3.1588179689        6.4389615214
  O         3.4709242678        3.7454008719        1.8157097268
  O         4.7099781487        0.8890608655        8.4274763221
  O         5.3142179380        1.9879955454       14.7056904502
  O         4.0766331482        4.8540948840        8.0975298325
  O         6.8661310554        4.8549459132        1.8161921658
  O         2.5222059363        1.9789527848        8.4267523143
  O         1.9166171560        0.8814065732       14.7051382070
  O         6.2591537412        3.7495191576        8.0989005397
  O         5.0414830549        2.6425084411        3.9378856069
  O         3.6715784113        5.6696481256       10.6304747096
  O         3.7409428301        3.0896015917       12.5954573843
  O         5.1098832229        0.0718069519        5.8837529091
  O         2.1895388176        0.2244552190        3.9382308516
  O         6.6665572905        2.9292383805       10.6290001719
  O         6.5957973996        5.5141100383       12.5948953645
  O         2.1208346201        2.7988474171        5.8845749392
  H         5.9460187346        2.9299804690        3.6481794597
  H         1.4724349162        0.1093731039       10.3003474304
  H         2.8349043929        2.8014441041       12.8809795073
  H         7.3093014311        5.6287723101        6.2123203184
  H         4.3904725170        5.6712356637        3.6484299995
  H         5.7589413764        2.7586484040       10.2999273422
  H         4.3962459080        0.0679597254       12.8801498537
  H         3.0279177193        2.9745960228        6.2133456059
  H         4.9410684476        2.9373937887        4.8729839268
  H         3.6639572359        5.8951322553       11.5897284892
  H         3.8434205726        2.8000291532       11.6590706130
  H        -0.0298009283       11.3164691660        4.9251376791
  H        -2.8574063558       11.4000655622        4.8731896018
  H         6.6733196839        2.7083343546       11.5891693804
  H         6.4927618760        5.8045426701       11.6586226094
  H         2.1131639117        3.0213455063        4.9252509724
 Ca         1.0421303239        7.1676124957        2.7138969854
 Ca         5.4336856265       10.0368784941        9.4462376807
 Ca         2.5942302123       10.0383763205       13.8044312962
 Ca         3.8813743322        7.1693836382        7.0736593991
  S         5.4337830213       10.0350050376        2.5483640142
  S         1.0422095937        7.1694478202        9.2478288185
  S         3.8809161517        7.1707731115       13.9717006832
  S         2.5941435289       10.0369902132        7.2789172059
  O        -0.7217856376        8.8595653727        3.3886067595
  O         0.5727019259        6.0240500690       10.0881912782
  O         4.3569644487        8.3443804224       13.1273168879
  O         3.0699697388       11.1798380749        6.4393910598
  O         5.9106000276       11.2088778569        3.3910491285
  O         1.5115028929        8.3147715177       10.0884267816
  O        -2.2738620629        5.9983739584       13.1255431280
  O         2.1184609935        8.8942862671        6.4390953775
  O         0.8974550779        9.4818017934        1.8159363236
  O         2.1361898420        6.6242834298        8.4269960266
  O         2.7400861965        7.7232935667       14.7057866553
  O         1.5030305430       10.5895310895        8.0984914517
  O         4.2921083310       10.5903070463        1.8163061237
  O        -0.0512242998        7.7146763236        8.4263336286
  O        -0.6573411656        6.6166687193       14.7050840931
  O         3.6850505957        9.4842446153        8.0986903086
  O         2.4672269048        8.3781078950        3.9377506165
  O         1.0966069339       11.4064863952       10.6304817363
  O         1.1671435679        8.8248054328       12.5954341910
  O         2.5365094685        5.8072632985        5.8812907827
  O        -0.3840632257        5.9599700731        3.9380943956
  O         4.0931180493        8.6639762688       10.6290578580
  O         4.0215592057       11.2497005056       12.5947728839
  O        -0.4535768281        8.5342917217        5.8825217796
  H         3.3720467705        8.6654320882        3.6484104930
  H        -1.1011810317        5.8448135558       10.3006174580
  H         0.2608592689        8.5367278225       12.8805684818
  H         4.7349211126       11.3640853819        6.2122893788
  H         1.8162117733       11.4066532342        3.6489720469
  H         3.1855443273        8.4929570175       10.3001388429
  H         1.8228011150        5.8033719647       12.8802077577
  H         0.4531883327        8.7109576309        6.2116484168
  H         2.3664374525        8.6724477366        4.8729496236
  H         6.2369460093        0.1595728408       11.5899382053
  H         1.2699008489        8.5354030232       11.6590064717
  H         2.5445365892        5.5817400377        4.9227605171
  H        -0.2828323581        5.6650823974        4.8731206233
  H         4.1000946171        8.4438866542       11.5894927777
  H         9.0662215840        0.0690402649       11.6584615107
  H        -0.4610338580        8.7559887238        4.9229099181
 Ca         6.7210689016        7.1672652466        2.7144033907
 Ca        -0.2452424092       10.0369212653        9.4462426916
 Ca        -3.0847799924       10.0383996977       13.8044985279
 Ca        -1.7972257225        7.1697723699        7.0736321629
  S        -0.2449502531       10.0353378444        2.5483835734
  S         6.7212172716        7.1694359907        9.2478274857
  S        -1.7978455546        7.1706151122       13.9716884000
  S        -3.0848619119       10.0369887532        7.2788633194
  O         4.9568173846        8.8596918997        3.3892503158
  O         6.2519765907        6.0239529566       10.0882459424
  O        -1.3217147639        8.3441874494       13.1271706619
  O        -2.6092947968       11.1799317013        6.4393487119
  O         0.2313656764       11.2090549914        3.3917074162
  O         7.1902405647        8.3148676292       10.0884542528
  O         3.4047915962        5.9985772154       13.1254208951
  O        -3.5602465051        8.8942087142        6.4389976327
  O         6.5761663704        9.4810351270        1.8159662493
  O         7.8153352532        6.6245727395        8.4270072117
  O        -2.9387810810        7.7233507762       14.7055053743
  O        -4.1761673429       10.5892272835        8.0983751170
  O        -1.3866524722       10.5907736984        1.8164354243
  O         5.6276204088        7.7143336046        8.4263655906
  O         5.0214934519        6.6165732577       14.7048371445
  O        -1.9938025423        9.4845525398        8.0986281336
  O        -3.2116188474        8.3782659029        3.9376756844
  O        -4.5821269228       11.4060453495       10.6305283238
  O         6.8462300260        8.8247900463       12.5953812838
  O         8.2153950160        5.8073014520        5.8823732558
  O         5.2948287134        5.9597651802        3.9382005407
  O        -1.5860754439        8.6641692749       10.6290244850
  O        -1.6575233781       11.2497353199       12.5947414302
  O         5.2254545858        8.5344848340        5.8836988850
  H        -2.3070204092        8.6656032798        3.6480360713
  H         4.5779743885        5.8443922431       10.3004682311
  H         5.9401322532        8.5366631303       12.8807583001
  H        -0.9442291877       11.3645059002        6.2133162040
  H        -3.8624808682       11.4062621568        3.6486245096
  H        -2.4936619135        8.4933875955       10.3000069402
  H         7.5014870482        5.8034595489       12.8803992768
  H         6.1324311789        8.7105219103        6.2125759422
  H        -3.3119605824        8.6727837299        4.8729084477
  H         0.5582586900        0.1595532188       11.5898531132
  H         6.9487591362        8.5353702738       11.6588834695
  H         8.2235048759        5.5814467688        4.9239262445
  H         5.3956434893        5.6646177219        4.8732315792
  H        -1.5792159562        8.4439028610       11.5894042713
  H         3.3873546529        0.0690802669       11.6583585945
  H         5.2179038459        8.7562516298        4.9241205241
     192
 i =       20, E =     -2324.0997865107
 Ca         9.2948461990        1.4319487668        2.7182444559
 Ca         2.3286841954        4.3013417634        9.4433708083
 Ca        -0.5107904323        4.3027685185       13.8059273473
 Ca         0.7761225575        1.4338293843        7.0811278598
  S         2.3293236906        4.3003128181        2.5478041651
  S         9.2948208509        1.4339169822        9.2516834267
  S         0.7756514553        1.4351614646       13.9739349525
  S        -0.5106388551        4.3017744299        7.2781468492
  O         7.5328308724        3.1248878740        3.3903788851
  O         8.8206953863        0.2896370979       10.0914036658
  O         1.2507378320        2.6083487844       13.1285941356
  O        -0.0291320646        5.4432786285        6.4392365064
  O         2.8050263490        5.4745350460        3.3910611674
  O         9.7684361987        2.5779874022       10.0918576175
  O         5.9797924759        0.2622086729       13.1280192574
  O        -0.9909942355        3.1601124985        6.4388819899
  O         9.1502017709        3.7452962135        1.8157468443
  O        10.3858564870        0.8824904260        8.4289636534
  O        -0.3654780994        1.9881143371       14.7076257068
  O        -1.5984734103        4.8612478437        8.0994326853
  O         1.1875295900        4.8554423697        1.8159664997
  O         8.2044003668        1.9854828171        8.4281930245
  O         7.5961458048        0.8814722364       14.7071550952
  O         0.5760603153        3.7424108695        8.1010430207
  O        -0.6378377716        2.6473753830        3.9343762880
  O        -2.0094386265        5.6681223406       10.6320585030
  O         9.4191571823        3.0882768846       12.5983949797
  O        10.7933986290        0.0731029471        5.8847834130
  O         7.8688279758        0.2192963394        3.9346847987
  O         0.9898000585        2.9306790020       10.6312601559
  O         0.9175311751        5.5153285793       12.5978320563
  O         7.7949395918        2.7986088609        5.8858760618
  H         0.2679315656        2.9313544401        3.6470744282
  H         7.1473057480        0.1097278705       10.2996741783
  H         8.5130938459        2.8015053368       12.8847901802
  H         1.6354013533        5.6284756074        6.2129397824
  H        -1.2894155662        5.6695672452        3.6471434167
  H         0.0842908311        2.7582882858       10.2993612264
  H        10.0761530054        0.0678978289       12.8841814303
  H         8.7018745171        2.9749163280        6.2139849301
  H        -0.7359670371        2.9363843487        4.8714644845
  H        -2.0195298889        5.8997093682       11.5891689239
  H         9.5189559442        2.8014453368       11.6617292373
  H         5.6537158849       11.3139981673        4.9268909936
  H         2.8194836910       11.4007291340        4.8716553710
  H         0.9986324721        2.7036100508       11.5891970443
  H         0.8171985097        5.8031875824       11.6613635390
  H         7.7877510040        3.0233172249        4.9268047757
 Ca         3.6157078214        1.4320963200        2.7185626623
 Ca         8.0077685619        4.3013940605        9.4433963882
 Ca         5.1681965290        4.3027411216       13.8059504642
 Ca         6.4555230078        1.4341887786        7.0811858894
  S         8.0084357640        4.2998403482        2.5478455576
  S         3.6158033439        1.4338963305        9.2516482722
  S         6.4548510925        1.4348732479       13.9739341271
  S         5.1683541963        4.3017583042        7.2781357098
  O         1.8535480269        3.1258109819        3.3909644151
  O         3.1419762654        0.2895072943       10.0914279432
  O         6.9299209747        2.6080616912       13.1284215857
  O         5.6494878873        5.4433817178        6.4391970524
  O         8.4836093427        5.4739484501        3.3917194294
  O         4.0891358277        2.5780872827       10.0918544181
  O         0.3005807844        0.2625030722       13.1278516850
  O         4.6883324911        3.1599730034        6.4388609287
  O         3.4708949025        3.7451318370        1.8157006846
  O         4.7070227765        0.8828479736        8.4289678591
  O         5.3136353304        1.9879770701       14.7074448415
  O         4.0803181540        4.8608558655        8.0993803658
  O         6.8667474764        4.8552132535        1.8160842682
  O         2.5251761997        1.9850557864        8.4282055073
  O         1.9170219416        0.8815870015       14.7069740277
  O         6.2552823481        3.7428131282        8.1009799056
  O         5.0412323083        2.6477483646        3.9343455691
  O         3.6697482512        5.6678512081       10.6321065155
  O         3.7401821278        3.0881557007       12.5983266630
  O         5.1145254875        0.0726613235        5.8859984836
  O         2.1897971972        0.2191249154        3.9347515422
  O         6.6686125563        2.9309801543       10.6312625884
  O         6.5964917977        5.5154644569       12.5977726520
  O         2.1160624284        2.7985074913        5.8867673975
  H         5.9469392501        2.9313712888        3.6467444763
  H         1.4684950515        0.1093161826       10.2995963950
  H         2.8341878503        2.8015660140       12.8849884031
  H         7.3141784137        5.6289324295        6.2138752385
  H         4.3895961257        5.6695215216        3.6468508045
  H         5.7631202861        2.7586884687       10.2992881316
  H         4.3970384250        0.0678434044       12.8843872194
  H         3.0230451924        2.9744677424        6.2149051418
  H         4.9434053662        2.9368224160        4.8714818763
  H         3.6597036343        5.8997271226       11.5891419272
  H         3.8398765251        2.8014368187       11.6615727028
  H        -0.0253401670       11.3137860829        4.9280810803
  H        -2.8597499421       11.4004870514        4.8717578998
  H         6.6773549718        2.7036180283       11.5891474210
  H         6.4962728183        5.8031436381       11.6611937172
  H         2.1087702885        3.0238286602        4.9278985715
 Ca         1.0420820520        7.1674241770        2.7176187225
 Ca         5.4336068623       10.0367577210        9.4432216457
 Ca         2.5940849212       10.0384612260       13.8063169548
 Ca         3.8813989661        7.1693523362        7.0807548961
  S         5.4340683642       10.0349784037        2.5481098935
  S         1.0422527267        7.1695141510        9.2513936576
  S         3.8807992316        7.1710157905       13.9737328553
  S         2.5940938021       10.0369565458        7.2782825120
  O        -0.7206301989        8.8592319055        3.3896426306
  O         0.5685041679        6.0253103125       10.0913725466
  O         4.3560593892        8.3446517945       13.1290327956
  O         3.0749823644       11.1786048436        6.4392891815
  O         5.9094321497       11.2085185030        3.3926614214
  O         1.5157231607        8.3136925160       10.0915484818
  O        -2.2732124360        5.9986070689       13.1270775554
  O         2.1133709961        8.8954114222        6.4390510466
  O         0.8971271146        9.4811169589        1.8159341816
  O         2.1333421557        6.6180682413        8.4286596243
  O         2.7395541702        7.7235999232       14.7074997777
  O         1.5067693731       10.5963949612        8.1003153231
  O         4.2925802549       10.5907076806        1.8164080241
  O        -0.0481582253        7.7209413003        8.4277748208
  O        -0.6568843823        6.6168712534       14.7068037047
  O         3.6811695232        9.4773967059        8.1006197284
  O         2.4669146855        8.3832372639        3.9343036434
  O         1.0947654483       11.4044863190       10.6320984496
  O         1.1664764760        8.8235355170       12.5983285340
  O         2.5410453676        5.8083069794        5.8835822084
  O        -0.3838811786        5.9546271161        3.9346347623
  O         4.0951206070        8.6656126269       10.6313000643
  O         4.0223438705       11.2510024903       12.5977995837
  O        -0.4583330924        8.5340550266        5.8848482386
  H         3.3728376174        8.6668539205        3.6469895185
  H        -1.1049888923        5.8446100834       10.2995974228
  H         0.2603286799        8.5368926200       12.8846751510
  H         4.7397063206       11.3642789738        6.2138212483
  H         1.8153776341       11.4049530706        3.6476583874
  H         3.1895783200        8.4930931682       10.2994717559
  H         1.8233128256        5.8033745644       12.8841902397
  H         0.4484303122        8.7108332351        6.2131686161
  H         2.3689874044        8.6719584288        4.8715001850
  H         6.2329505095        0.1641715329       11.5893439110
  H         1.2662582690        8.5367088149       11.6616063300
  H         2.5490120459        5.5793404882        4.9255520446
  H        -0.2852671298        5.6654947183        4.8716981362
  H         4.1039794120        8.4391283147       11.5894086728
  H         9.0696928866        0.0676382756       11.6612196327
  H        -0.4654296803        8.7582762860        4.9255836584
 Ca         6.7210166977        7.1670447767        2.7181032730
 Ca        -0.2453208054       10.0367919580        9.4432405321
 Ca        -3.0849208232       10.0384776059       13.8063402379
 Ca        -1.7972288871        7.1696876858        7.0807370693
  S        -0.2449684408       10.0349473258        2.5481163969
  S         6.7212587341        7.1694984849        9.2513694403
  S        -1.7980035981        7.1707922713       13.9737218794
  S        -3.0849058328       10.0369599815        7.2781911608
  O         4.9583629599        8.8594767385        3.3900783564
  O         6.2477816419        6.0251975420       10.0914038693
  O        -1.3227776526        8.3444514751       13.1288636002
  O        -2.6043450150       11.1787481285        6.4392230859
  O         0.2301117162       11.2083898083        3.3931268695
  O         7.1944561131        8.3138010981       10.0915441659
  O         3.4056000139        5.9988212838       13.1269220165
  O        -3.5652558442        8.8952994826        6.4389228914
  O         6.5759852852        9.4806788294        1.8158806808
  O         7.8125306069        6.6184213080        8.4286773753
  O        -2.9393401093        7.7234957805       14.7073218959
  O        -4.1725070093       10.5959712935        8.1001240160
  O        -1.3862703565       10.5909607120        1.8163758225
  O         5.6306401629        7.7205306618        8.4278105483
  O         5.0219914564        6.6169377375       14.7066507616
  O        -1.9976258809        9.4778075715        8.1005074054
  O        -3.2119504797        8.3834602734        3.9342224782
  O        -4.5839896111       11.4040686008       10.6321506920
  O         6.8454973603        8.8234132394       12.5982625624
  O         8.2199438565        5.8083102741        5.8846087644
  O         5.2950307441        5.9543770284        3.9347718293
  O        -1.5840412153        8.6658009095       10.6312764018
  O        -1.6566960404       11.2511253888       12.5977588412
  O         5.2206730798        8.5342873424        5.8859177820
  H        -2.3061675438        8.6668949712        3.6465330944
  H         4.5741541144        5.8442317382       10.2994808024
  H         5.9394288964        8.5369347163       12.8848939069
  H        -0.9393890422       11.3647003886        6.2149291171
  H        -3.8633865907       11.4045995209        3.6472273421
  H        -2.4895930273        8.4934610779       10.2993984926
  H         7.5021805314        5.8033580606       12.8844100490
  H         6.1276322003        8.7103897930        6.2140987387
  H        -3.3095214298        8.6722328406        4.8714597922
  H         0.5542288265        0.1641705902       11.5893022487
  H         6.9451688114        8.5367388860       11.6614415732
  H         8.2279667978        5.5789434740        4.9266954222
  H         5.3933593030        5.6650658494        4.8718476855
  H        -1.5752907579        8.4391230456       11.5893517600
  H         3.3907991362        0.0676329519       11.6610822161
  H         5.2135385955        8.7586665092        4.9267346194
     192
 i =       21, E =     -2324.1001112886
 Ca         9.2948776816        1.4312838682        2.7222707228
 Ca         2.3286478337        4.3012366320        9.4427437421
 Ca        -0.5110938191        4.3032944143       13.8096221630
 Ca         0.7762195353        1.4340398109        7.0883843912
  S         2.3297683892        4.2999942881        2.5467297728
  S         9.2949130170        1.4338691400        9.2553353652
  S         0.7756187307        1.4355547778       13.9788377598
  S        -0.5106967638        4.3017196802        7.2791529977
  O         7.5342159921        3.1243060660        3.3911859026
  O         8.8116620599        0.2922840201       10.0947438307
  O         1.2495052864        2.6093673756       13.1336809354
  O        -0.0188475815        5.4403836848        6.4405955518
  O         2.8040357198        5.4741324674        3.3920165503
  O         9.7775358122        2.5753605933       10.0950712096
  O         5.9809641406        0.2621495315       13.1325577399
  O        -1.0011415444        3.1629564203        6.4399725327
  O         9.1508129890        3.7448783404        1.8153863702
  O        10.3803139173        0.8700183691        8.4298600862
  O        -0.3669611314        1.9885765420       14.7111479958
  O        -1.5916980475        4.8741361045        8.1043062191
  O         1.1879650003        4.8557705710        1.8156412176
  O         8.2102303738        1.9978488585        8.4289851533
  O         7.5972335777        0.8814569171       14.7107792992
  O         0.5687404787        3.7292832732        8.1063644674
  O        -0.6376856262        2.6509653579        3.9332755439
  O        -2.0155213774        5.6703320968       10.6352492229
  O         9.4179573646        3.0898902145       12.6008141218
  O        10.8031127437        0.0676527864        5.8891824126
  O         7.8685165986        0.2157910928        3.9339522195
  O         0.9969001896        2.9280612372       10.6352215816
  O         0.9186780638        5.5137039726       12.6001686379
  O         7.7848464539        2.8053973581        5.8901614469
  H         0.2686782618        2.9301338938        3.6467678439
  H         7.1385172813        0.1147216060       10.2991150735
  H         8.5124317125        2.8058763943       12.8889673833
  H         1.6459424860        5.6235991095        6.2191933420
  H        -1.2898726066        5.6703931858        3.6470235520
  H         0.0937144737        2.7531395838       10.2996196300
  H        10.0767166042        0.0636534364       12.8884857083
  H         8.6913181125        2.9800201786        6.2200282828
  H        -0.7347763486        2.9365511062        4.8714884267
  H        -2.0236174460        5.9098589353       11.5895876551
  H         9.5165313851        2.8016995467       11.6646471847
  H         5.6624181758       11.3072348387        4.9314723618
  H         2.8184441189       11.4002249561        4.8719730085
  H         1.0021814225        2.6934839881       11.5907255133
  H         0.8194739346        5.8029334965       11.6643167896
  H         7.7793651536        3.0296340281        4.9307448322
 Ca         3.6157861466        1.4315123008        2.7226369282
 Ca         8.0079299494        4.3013611199        9.4427406671
 Ca         5.1679066542        4.3032436788       13.8094994693
 Ca         6.4556400166        1.4342593113        7.0884489184
  S         8.0086487994        4.2991632509        2.5467484652
  S         3.6158817897        1.4338463268        9.2553072692
  S         6.4546333441        1.4351214675       13.9788308691
  S         5.1682907621        4.3017090610        7.2790519570
  O         1.8553072756        3.1256070486        3.3919037454
  O         3.1330094313        0.2920913645       10.0947484501
  O         6.9284676715        2.6089556779       13.1335358409
  O         5.6596809929        5.4405680673        6.4405120068
  O         8.4825159341        5.4729600980        3.3928433361
  O         4.0981479599        2.5755227768       10.0950409090
  O         0.3019865227        0.2625644527       13.1324255859
  O         4.6783013469        3.1627497125        6.4398786606
  O         3.4717157537        3.7452232375        1.8152627657
  O         4.7015556454        0.8705565275        8.4298803209
  O         5.3121229211        1.9883102405       14.7111328939
  O         4.0869709167        4.8736079805        8.1041121621
  O         6.8669765547        4.8549940295        1.8155735017
  O         2.5308879638        1.9972264475        8.4290254656
  O         1.9181503224        0.8817006668       14.7107656956
  O         6.2480358732        3.7298025229        8.1061819146
  O         5.0412566264        2.6511361204        3.9332249421
  O         3.6636234795        5.6701107675       10.6352367170
  O         3.7390167035        3.0898630705       12.6008570750
  O         5.1242749984        0.0670492902        5.8901746329
  O         2.1896891453        0.2157447852        3.9338949724
  O         6.6756514553        2.9284060068       10.6352504477
  O         6.5976075707        5.5137091072       12.6002518097
  O         2.1060495199        2.8051930566        5.8907754394
  H         5.9477043789        2.9298766163        3.6465568717
  H         1.4597560517        0.1144111218       10.2990953907
  H         2.8333637968        2.8060356791       12.8889574859
  H         7.3247903817        5.6240456732        6.2201506290
  H         4.3891721930        5.6704378908        3.6468120938
  H         5.7725325402        2.7534282787       10.2995783712
  H         4.3977810183        0.0634843423       12.8885078474
  H         3.0124624748        2.9795794638        6.2208830258
  H         4.9445663455        2.9369599546        4.8714259746
  H         3.6555881973        5.9098937834       11.5895716889
  H         3.8372964183        2.8017535602       11.6646105240
  H        -0.0167988127       11.3067330109        4.9325108441
  H        -2.8607583518       11.4000681020        4.8719283491
  H         6.6810213974        2.6934554471       11.5907087208
  H         6.4987033533        5.8028303772       11.6643058083
  H         2.1004892273        3.0304900557        4.9316954069
 Ca         1.0419698470        7.1670845311        2.7215055970
 Ca         5.4333880140       10.0365326937        9.4428008398
 Ca         2.5939336608       10.0386920381       13.8102563200
 Ca         3.8815819877        7.1694884018        7.0880572118
  S         5.4343877248       10.0342850473        2.5468645660
  S         1.0425217354        7.1696551201        9.2550863911
  S         3.8806645399        7.1716484119       13.9787632827
  S         2.5939253117       10.0368803938        7.2791638734
  O        -0.7195442869        8.8583107438        3.3899948163
  O         0.5594295073        6.0281021697       10.0945978767
  O         4.3546975692        8.3458563411       13.1341935801
  O         3.0851576119       11.1756163650        6.4403765915
  O         5.9083079657       11.2075525727        3.3936236289
  O         1.5249102015        8.3112523576       10.0948460075
  O        -2.2721501633        5.9986690196       13.1318825787
  O         2.1029875895        8.8981867868        6.4402141975
  O         0.8974440596        9.4804657071        1.8153331539
  O         2.1281558812        6.6058388923        8.4298270943
  O         2.7380492925        7.7241754514       14.7112709334
  O         1.5135154124       10.6094080743        8.1050607625
  O         4.2927440587       10.5906914747        1.8161137607
  O        -0.0421864048        7.7334253934        8.4285844858
  O        -0.6557678668        6.6170400508       14.7103709599
  O         3.6739750447        9.4644228678        8.1056389249
  O         2.4670294086        8.3865825985        3.9333914773
  O         1.0886596356       11.4066089600       10.6355356701
  O         1.1653176204        8.8252459515       12.6007410512
  O         2.5507845771        5.8030097783        5.8879505043
  O        -0.3839964428        5.9512922838        3.9337520291
  O         4.1023316847        8.6626515003       10.6351554025
  O         4.0234379500       11.2492057133       12.6004734992
  O        -0.4685225914        8.5409823340        5.8891965453
  H         3.3734860416        8.6652944422        3.6465938182
  H        -1.1135853172        5.8496322024       10.2989546145
  H         0.2597068574        8.5415432081       12.8890500692
  H         4.7501111636       11.3593922471        6.2201746295
  H         1.8146666370       11.4058624182        3.6473728353
  H         3.1989101408        8.4880181069       10.2997998071
  H         1.8238669809        5.7991459778       12.8884725221
  H         0.4379179049        8.7159437035        6.2190954065
  H         2.3702431452        8.6721847489        4.8716355270
  H         6.2288584160        0.1742846207       11.5901129520
  H         1.2637761904        8.5369516289       11.6645976582
  H         2.5578051511        5.5729196062        4.9298399163
  H        -0.2865497886        5.6649537457        4.8717905234
  H         4.1073828093        8.4289619839       11.5908636882
  H         9.0721959094        0.0673713929       11.6646135332
  H        -0.4738434751        8.7645179252        4.9295475721
 Ca         6.7209298373        7.1666457906        2.7220082120
 Ca        -0.2453641239       10.0366454068        9.4428087258
 Ca        -3.0850947586       10.0387129495       13.8101432729
 Ca        -1.7970457414        7.1696903471        7.0880920723
  S        -0.2449038419       10.0340822183        2.5468727649
  S         6.7215207957        7.1696426331        9.2550742558
  S        -1.7983429271        7.1712805597       13.9787479466
  S        -3.0850728808       10.0368789081        7.2789704018
  O         4.9599312352        8.8587265619        3.3905715640
  O         6.2387759013        6.0279166164       10.0945944825
  O        -1.3243702056        8.3455442359       13.1340786012
  O        -2.5942462748       11.1758478823        6.4402719243
  O         0.2288603739       11.2070838798        3.3942335609
  O         7.2035738371        8.3114223753       10.0948227055
  O         3.4069027739        5.9989764389       13.1318043747
  O        -3.5755067162        8.8979986546        6.4399996670
  O         6.5766461782        9.4806237698        1.8151873547
  O         7.8074242092        6.6063803396        8.4298695352
  O        -2.9408578759        7.7239774397       14.7112747506
  O        -4.1658967796       10.6088210953        8.1046954029
  O        -1.3863815552       10.5905517850        1.8159242003
  O         5.6365111381        7.7328247046        8.4286372988
  O         5.0231399272        6.6172055322       14.7103982777
  O        -2.0047369696        9.4649622091        8.1054059871
  O        -3.2120609426        8.3865829123        3.9332618770
  O        -4.5900684900       11.4062687196       10.6355487524
  O         6.8443875296        8.8252464592       12.6008015094
  O         8.2296796352        5.8029770868        5.8887966629
  O         5.2950986471        5.9511401210        3.9338512898
  O        -1.5768628181        8.6628912250       10.6351673675
  O        -1.6556118014       11.2492307140       12.6005177396
  O         5.2104997543        8.5412834583        5.8899919313
  H        -2.3056011060        8.6651374933        3.6462234879
  H         4.5655598221        5.8493529705       10.2989519716
  H         5.9386579057        8.5416728063       12.8890443876
  H        -0.9288881019       11.3597783817        6.2212643095
  H        -3.8640739354       11.4055731126        3.6470989311
  H        -2.4802501012        8.4882783039       10.2997675035
  H         7.5029088700        5.7990382359       12.8884698396
  H         6.1170712978        8.7155113555        6.2199415181
  H        -3.3083349853        8.6723614585        4.8714985776
  H         0.5500509246        0.1742934702       11.5901000992
  H         6.9425299212        8.5370464520       11.6645728623
  H         8.2366245974        5.5722635598        4.9308872915
  H         5.3921813751        5.6645821175        4.8718770560
  H        -1.5717794788        8.4289300779       11.5908516503
  H         3.3934253518        0.0673147194       11.6645706633
  H         5.2052966721        8.7651215267        4.9304890434
     192
 i =       22, E =     -2324.1002875228
 Ca         9.2950494999        1.4308942978        2.7203411221
 Ca         2.3286217964        4.3012403328        9.4444638397
 Ca        -0.5111895567        4.3035744975       13.8108870701
 Ca         0.7764110564        1.4341825344        7.0871383772
  S         2.3298175859        4.2998618789        2.5457434979
  S         9.2950474774        1.4339446972        9.2544555303
  S         0.7755786955        1.4356611452       13.9811859713
  S        -0.5107698660        4.3016383338        7.2793951573
  O         7.5331432279        3.1238717817        3.3894624900
  O         8.8098474389        0.2927589444       10.0938073726
  O         1.2498334381        2.6100742762       13.1368010915
  O        -0.0183604386        5.4400622878        6.4403751688
  O         2.8052108628        5.4742184269        3.3903805680
  O         9.7795102268        2.5750158540       10.0942497300
  O         5.9805069642        0.2618754615       13.1354950775
  O        -1.0018402572        3.1631234094        6.4397406124
  O         9.1509607171        3.7444235033        1.8146240409
  O        10.3798872673        0.8686621201        8.4293007161
  O        -0.3675144029        1.9889593917       14.7125981752
  O        -1.5927480753        4.8725816445        8.1042522596
  O         1.1875985323        4.8555192098        1.8149490176
  O         8.2108779236        1.9992260925        8.4284111875
  O         7.5976816372        0.8812704617       14.7121063885
  O         0.5698053606        3.7308368310        8.1061559568
  O        -0.6384289693        2.6485280470        3.9349639672
  O        -2.0168716646        5.6713159048       10.6384345134
  O         9.4194763307        3.0896832271       12.5994397449
  O        10.8051103621        0.0657376827        5.8884777025
  O         7.8692989624        0.2182575569        3.9357671032
  O         0.9985239378        2.9263039651       10.6384329910
  O         0.9171466523        5.5139876813       12.5987527604
  O         7.7828100960        2.8075979659        5.8891546154
  H         0.2665664586        2.9297068520        3.6466745981
  H         7.1372953041        0.1165032762       10.3016794347
  H         8.5142259916        2.8071368179       12.8882284907
  H         1.6482568715        5.6211646298        6.2196206325
  H        -1.2876465257        5.6708582370        3.6469045083
  H         0.0948807010        2.7512162914       10.3019966961
  H        10.0748430322        0.0624361453       12.8878572188
  H         8.6889877047        2.9826016909        6.2202292584
  H        -0.7359765446        2.9377736178        4.8719659181
  H        -2.0238027191        5.9092577850       11.5930435563
  H         9.5177605792        2.7995348607       11.6635029635
  H         5.6642608513       11.3066563622        4.9308344489
  H         2.8197395646       11.3989596342        4.8724905305
  H         1.0025910605        2.6943102123       11.5946035947
  H         0.8182229666        5.8050842986       11.6631824645
  H         7.7776750934        3.0302416329        4.9297212438
 Ca         3.6159620623        1.4311691953        2.7207694788
 Ca         8.0078399230        4.3013542559        9.4444428821
 Ca         5.1678069614        4.3035241618       13.8107302124
 Ca         6.4557187884        1.4343740251        7.0872251203
  S         8.0086944014        4.2990005160        2.5457795479
  S         3.6160113058        1.4339251806        9.2544618227
  S         6.4545466337        1.4353322744       13.9811841963
  S         5.1682206044        4.3016286426        7.2793023051
  O         1.8543575233        3.1252971256        3.3902504131
  O         3.1312362419        0.2925429495       10.0938194259
  O         6.9287635111        2.6096614633       13.1366118261
  O         5.6602419037        5.4402423757        6.4403242332
  O         8.4837395454        5.4728989136        3.3912459607
  O         4.1000863637        2.5751958680       10.0942325906
  O         0.3015677154        0.2622833436       13.1353130535
  O         4.6775618765        3.1629382997        6.4396480337
  O         3.4717318572        3.7445728868        1.8145791439
  O         4.7011186759        0.8691453170        8.4293675953
  O         5.3115319596        1.9887234863       14.7126374264
  O         4.0859637465        4.8721845098        8.1040497322
  O         6.8666662079        4.8549190016        1.8149807996
  O         2.5315477153        1.9986865823        8.4284990858
  O         1.9186375802        0.8814978077       14.7121464268
  O         6.2490240598        3.7312061162        8.1060065020
  O         5.0405702753        2.6486945312        3.9349973429
  O         3.6623203004        5.6710854718       10.6383865307
  O         3.7404465075        3.0896112896       12.5994550961
  O         5.1262315312        0.0651959970        5.8893145421
  O         2.1903799578        0.2181749330        3.9357670809
  O         6.6772604068        2.9267596860       10.6384089276
  O         6.5961723982        5.5140498347       12.5987992249
  O         2.1040239764        2.8073557344        5.8897041347
  H         5.9456464923        2.9293793092        3.6463983681
  H         1.4585681267        0.1161897802       10.3016485216
  H         2.8350997096        2.8072873606       12.8882883397
  H         7.3271089428        5.6216078489        6.2205115629
  H         4.3913530248        5.6709317688        3.6466482521
  H         5.7736822068        2.7515210983       10.3019528633
  H         4.3959609634        0.0622739421       12.8879275838
  H         3.0101497077        2.9821462826        6.2209871535
  H         4.9432570849        2.9380867779        4.8719826421
  H         3.6553291479        5.9092550155       11.5929781205
  H         3.8385704319        2.7996466091       11.6634374068
  H        -0.0150258920       11.3060818599        4.9317416268
  H        -2.8593441586       11.3989114909        4.8725194681
  H         6.6814526911        2.6943027128       11.5944963696
  H         6.4973944710        5.8049158569       11.6631327730
  H         2.0988692266        3.0311082256        4.9305877397
 Ca         1.0420700930        7.1668243159        2.7195157010
 Ca         5.4333588610       10.0365949403        9.4445521003
 Ca         2.5938801597       10.0389095873       13.8115458888
 Ca         3.8817536519        7.1696515267        7.0866570058
  S         5.4344559334       10.0341617129        2.5457815348
  S         1.0426569871        7.1697244179        9.2542362634
  S         3.8806409898        7.1716090185       13.9811678192
  S         2.5938932973       10.0368636068        7.2794556745
  O        -0.7206253428        8.8578784458        3.3881447555
  O         0.5575843012        6.0285432114       10.0936513772
  O         4.3549629419        8.3464815796       13.1373990538
  O         3.0857931627       11.1753543884        6.4402098276
  O         5.9094726102       11.2075361421        3.3919221616
  O         1.5269577961        8.3108579030       10.0940661294
  O        -2.2725060588        5.9983842816       13.1347911978
  O         2.1023759129        8.8984359194        6.4399983413
  O         0.8976839743        9.4801470165        1.8145318671
  O         2.1277157999        6.6044613166        8.4293224270
  O         2.7375700531        7.7245835546       14.7127410745
  O         1.5124354804       10.6078661265        8.1049488128
  O         4.2923935964       10.5904494621        1.8152502367
  O        -0.0415722483        7.7347822143        8.4280883758
  O        -0.6552534809        6.6169293498       14.7118492480
  O         3.6750494009        9.4660901990        8.1055510897
  O         2.4661879615        8.3841681797        3.9351055852
  O         1.0869965392       11.4077058030       10.6386063750
  O         1.1668614526        8.8250524493       12.5993711657
  O         2.5529665069        5.8009934459        5.8874001351
  O        -0.3832594138        5.9536601744        3.9356994232
  O         4.1040057623        8.6606227545       10.6383807862
  O         4.0220003834       11.2494777867       12.5989366408
  O        -0.4706038463        8.5432862063        5.8882285033
  H         3.3713300521        8.6647105274        3.6465316341
  H        -1.1146422654        5.8515223847       10.3013438180
  H         0.2615272866        8.5428548017       12.8882899564
  H         4.7523797325       11.3569094123        6.2206856481
  H         1.8168508862       11.4061958916        3.6473580230
  H         3.2000729974        8.4861383654       10.3021744756
  H         1.8219827240        5.7980127090       12.8877210059
  H         0.4355710259        8.7185101147        6.2193346721
  H         2.3689699190        8.6733645815        4.8721267967
  H         6.2287688674        0.1736431523       11.5935556025
  H         1.2650153714        8.5348322471       11.6634708740
  H         2.5596369693        5.5724517784        4.9292707826
  H        -0.2851110854        5.6636996400        4.8724507729
  H         4.1078227786        8.4298462542       11.5948384944
  H         9.0708936506        0.0695666845       11.6633691991
  H        -0.4756369891        8.7650163840        4.9285576377
 Ca         6.7210652045        7.1663862039        2.7200426563
 Ca        -0.2454538251       10.0366974210        9.4445559109
 Ca        -3.0851326184       10.0389281545       13.8113843560
 Ca        -1.7969699835        7.1698248591        7.0867432064
  S        -0.2448688037       10.0339645951        2.5457989431
  S         6.7216440955        7.1697125458        9.2542634863
  S        -1.7984169238        7.1713737866       13.9811605116
  S        -3.0851071632       10.0368645749        7.2792684637
  O         4.9588908023        8.8584038286        3.3887509535
  O         6.2369744301        6.0283394232       10.0936754867
  O        -1.3241422519        8.3461894488       13.1372331808
  O        -2.5935508485       11.1755672132        6.4401136604
  O         0.2299797724       11.2070127800        3.3925295870
  O         7.2055723904        8.3110432871       10.0940640952
  O         3.4065909598        5.9986661586       13.1346477529
  O        -3.5761774223        8.8982551193        6.4398096825
  O         6.5767331446        9.4799910871        1.8144541793
  O         7.8069795773        6.6049530129        8.4294295450
  O        -2.9413948752        7.7244124458       14.7128120702
  O        -4.1669075318       10.6074466230        8.1045981332
  O        -1.3866714589       10.5905405768        1.8151559554
  O         5.6371412254        7.7342683530        8.4281785072
  O         5.0237194228        6.6170906804       14.7119313097
  O        -2.0037370120        9.4664840233        8.1053442579
  O        -3.2128464213        8.3841649344        3.9350476359
  O        -4.5917062031       11.4073121749       10.6385471545
  O         6.8458240082        8.8249970016       12.5993998226
  O         8.2318186400        5.8010348711        5.8881252973
  O         5.2957828857        5.9534650923        3.9358182330
  O        -1.5751971045        8.6609460590       10.6383427770
  O        -1.6569803559       11.2495360115       12.5989675010
  O         5.2084438337        8.5435811499        5.8889136064
  H        -2.3077358673        8.6645346805        3.6460775891
  H         4.5645466136        5.8512323407       10.3012880969
  H         5.9404089286        8.5429741603       12.8883710032
  H        -0.9266199211       11.3572837352        6.2216550429
  H        -3.8619546260       11.4059665460        3.6469904829
  H        -2.4790999585        8.4864141675       10.3021344582
  H         7.5010890965        5.7979050723       12.8878078146
  H         6.1147331320        8.7180796202        6.2200796728
  H        -3.3097537636        8.6734328593        4.8720722961
  H         0.5499369017        0.1736235488       11.5934463436
  H         6.9438312283        8.5349929091       11.6634092265
  H         8.2384031928        5.5717235465        4.9302303615
  H         5.3937038020        5.6634098708        4.8725710782
  H        -1.5713088684        8.4298424287       11.5947505576
  H         3.3920926248        0.0694507421       11.6633159629
  H         5.2035980294        8.7656152152        4.9293630205
     192
 i =       23, E =     -2324.1004778679
 Ca         9.2953319750        1.4298764930        2.7201819904
 Ca         2.3284238247        4.3010750077        9.4457164751
 Ca        -0.5114424623        4.3042596164       13.8127415036
 Ca         0.7767674223        1.4343615895        7.0898018375
  S         2.3300404374        4.2991578290        2.5463018925
  S         9.2953090049        1.4340319286        9.2526712014
  S         0.7753821138        1.4362286699       13.9850860612
  S        -0.5109018483        4.3015558915        7.2825150812
  O         7.5325773457        3.1219210774        3.3886495410
  O         8.8020068172        0.2958976938       10.0919006947
  O         1.2492052168        2.6123231400       13.1422606023
  O        -0.0137978752        5.4380370980        6.4432602448
  O         2.8060673615        5.4744645959        3.3899030057
  O         9.7878693581        2.5720483359       10.0923773182
  O         5.9808246671        0.2613408149       13.1402131001
  O        -1.0066751841        3.1649327225        6.4426763652
  O         9.1514748980        3.7440045321        1.8153865466
  O        10.3763670175        0.8622401272        8.4272966538
  O        -0.3682803235        1.9889936770       14.7158275204
  O        -1.5917662652        4.8739873382        8.1075131272
  O         1.1872964912        4.8545085531        1.8160479852
  O         8.2148994846        2.0056807796        8.4262966997
  O         7.5979131156        0.8818995519       14.7151251163
  O         0.5686790444        3.7292593444        8.1092386637
  O        -0.6391289286        2.6463412053        3.9390032231
  O        -2.0241714094        5.6762499541       10.6422937942
  O         9.4212408707        3.0887632148       12.5975882512
  O        10.8139672549        0.0588679228        5.8901128553
  O         7.8699724988        0.2203331983        3.9400124612
  O         1.0063344058        2.9192830887       10.6424309754
  O         0.9154388296        5.5149860324       12.5968746479
  O         7.7738254918        2.8156037418        5.8902321644
  H         0.2647364725        2.9289957832        3.6479989380
  H         7.1308772637        0.1220823532       10.3054572488
  H         8.5155526227        2.8099367853       12.8871337341
  H         1.6572041835        5.6136594921        6.2223792939
  H        -1.2855051537        5.6712755225        3.6485378038
  H         0.1013050801        2.7450397592       10.3060916134
  H        10.0733554568        0.0599413261       12.8867161029
  H         8.6801192103        2.9905235462        6.2223241279
  H        -0.7374833225        2.9402553480        4.8746101936
  H        -2.0277922757        5.9093439205       11.5983281041
  H         9.5190925497        2.7962412259       11.6618252596
  H         5.6714591152       11.3036065184        4.9321136800
  H         2.8214591789       11.3961455316        4.8751648208
  H         1.0068988558        2.6948358021       11.6008443297
  H         0.8168025203        5.8086262087       11.6615976693
  H         7.7708979438        3.0329996969        4.9300669676
 Ca         3.6162259046        1.4303027228        2.7206998796
 Ca         8.0075456530        4.3011897987        9.4456811679
 Ca         5.1675692000        4.3041917853       13.8125016647
 Ca         6.4558158810        1.4344149591        7.0897434053
  S         8.0088917339        4.2981836464        2.5463624184
  S         3.6162770287        1.4340215268        9.2527478109
  S         6.4543219607        1.4359652483       13.9850965374
  S         5.1680749634        4.3015475563        7.2824616589
  O         1.8538624843        3.1238177978        3.3897116251
  O         3.1233921735        0.2956790078       10.0919401109
  O         6.9281004287        2.6118180556       13.1420008178
  O         5.6649772299        5.4381756891        6.4432702918
  O         8.4846266259        5.4727154385        3.3910044127
  O         4.1084624448        2.5722268479       10.0924109290
  O         0.3019341484        0.2618290098       13.1399385270
  O         4.6726042379        3.1648091654        6.4425857331
  O         3.4722372890        3.7441983802        1.8154270928
  O         4.6975182192        0.8625447433        8.4273923441
  O         5.3107178204        1.9888254955       14.7158009146
  O         4.0870234820        4.8738155883        8.1073476068
  O         6.8663668576        4.8540223917        1.8162202480
  O         2.5356781575        2.0053860995        8.4264392749
  O         1.9189215908        0.8820868235       14.7150892820
  O         6.2477365129        3.7293828364        8.1091914379
  O         5.0398233240        2.6464286038        3.9390689240
  O         3.6550507810        5.6759410864       10.6421596983
  O         3.7421668263        3.0887233493       12.5976079221
  O         5.1350016787        0.0584616029        5.8906212119
  O         2.1910652529        0.2203313234        3.9399982630
  O         6.6850581495        2.9199148407       10.6423394220
  O         6.5944974257        5.5150043905       12.5969323277
  O         2.0951128197        2.8152546590        5.8906101219
  H         5.9438458872        2.9284597135        3.6477825999
  H         1.4521970620        0.1217627454       10.3053989161
  H         2.8363979931        2.8101269442       12.8871940112
  H         7.3360833099        5.6140902464        6.2231591426
  H         4.3934895779        5.6714792582        3.6483311963
  H         5.7800830645        2.7453891031       10.3060253777
  H         4.3945086466        0.0597332104       12.8867916515
  H         3.0013165247        2.9900495735        6.2229447429
  H         4.9416538456        2.9404534170        4.8746489819
  H         3.6512760127        5.9093202313       11.5981241463
  H         3.8399044103        2.7964249736       11.6617722308
  H        -0.0079630176       11.3028364400        4.9327465228
  H        -2.8575284574       11.3962520763        4.8751910195
  H         6.6858413573        2.6948400819       11.6005996816
  H         6.4959723126        5.8083737466       11.6615721028
  H         2.0921979374        3.0340118880        4.9307643211
 Ca         1.0422811125        7.1660275736        2.7190968918
 Ca         5.4331565240       10.0363941738        9.4458224717
 Ca         2.5936920980       10.0395125871       13.8136147927
 Ca         3.8820601153        7.1699112260        7.0897453987
  S         5.4346345045       10.0332479232        2.5462294303
  S         1.0429503389        7.1698223468        9.2524653353
  S         3.8804949193        7.1721596077       13.9850920533
  S         2.5937967616       10.0368916364        7.2826581995
  O        -0.7212997745        8.8558027200        3.3870978441
  O         0.5497386487        6.0316238579       10.0916516972
  O         4.3542606815        8.3487851470       13.1428759249
  O         3.0905368172       11.1734555607        6.4432268950
  O         5.9101400448       11.2073160087        3.3915500136
  O         1.5353192827        8.3078717008       10.0922622966
  O        -2.2720671068        5.9980162984       13.1394620607
  O         2.0977193083        8.9003686172        6.4429355167
  O         0.8982194165        9.4798301631        1.8152469652
  O         2.1242300177        6.5980637366        8.4273913090
  O         2.7368412948        7.7245734130       14.7160894508
  O         1.5133570345       10.6093231066        8.1081382595
  O         4.2921489610       10.5894052640        1.8161481282
  O        -0.0374676582        7.7412466422        8.4259602290
  O        -0.6550237248        6.6176085090       14.7149466209
  O         3.6738707710        9.4646773918        8.1088588792
  O         2.4652905086        8.3820672309        3.9391169928
  O         1.0793141632       11.4131189429       10.6425089251
  O         1.1685911446        8.8241533637       12.5976090195
  O         2.5621085388        5.7938833976        5.8892158961
  O        -0.3823338922        5.9557258084        3.9400337061
  O         4.1119063666        8.6530688890       10.6423564507
  O         4.0203151868       11.2503544537       12.5969466095
  O        -0.4796833462        8.5515050359        5.8893655901
  H         3.3694562997        8.6636367245        3.6479017794
  H        -1.1208882634        5.8573637744       10.3050862559
  H         0.2628071720        8.5457895464       12.8872012706
  H         4.7612800091       11.3493003719        6.2235437345
  H         1.8187694712       11.4063582257        3.6488942706
  H         3.2064890454        8.4799686635       10.3063505900
  H         1.8205325770        5.7957081657       12.8865048099
  H         0.4266611992        8.7264891972        6.2213983905
  H         2.3673485784        8.6758218297        4.8747574865
  H         6.2246317983        0.1736002147       11.5990483287
  H         1.2663484133        8.5315802756       11.6618804644
  H         2.5669601085        5.5697584464        4.9306064861
  H        -0.2832623533        5.6608171235        4.8752384248
  H         4.1120895995        8.4304240937       11.6012068416
  H         9.0695148460        0.0732402477       11.6617125954
  H        -0.4825566360        8.7675346136        4.9289080836
 Ca         6.7213086844        7.1655330841        2.7196330269
 Ca        -0.2457598287       10.0365036579        9.4457877497
 Ca        -3.0853265540       10.0395569915       13.8133586816
 Ca        -1.7968763579        7.1699597004        7.0897458365
  S        -0.2447744242       10.0331584750        2.5462487255
  S         6.7219314762        7.1698230666        9.2525726442
  S        -1.7985966899        7.1720197988       13.9850968831
  S        -3.0852118043       10.0368954697        7.2825101561
  O         4.9582196436        8.8565310959        3.3878659902
  O         6.2291045876        6.0314300722       10.0917187388
  O        -1.3248778581        8.3484507558       13.1426670252
  O        -2.5886468753       11.1735988035        6.4431483121
  O         0.2305913238       11.2066420509        3.3923149956
  O         7.2139252366        8.3080642648       10.0923239220
  O         3.4070868253        5.9983266314       13.1392520629
  O        -3.5809821430        8.9002295373        6.4427913450
  O         6.5772851777        9.4794717346        1.8152284768
  O         7.8034231944        6.5983809968        8.4275648664
  O        -2.9421879875        7.7244889680       14.7160943506
  O        -4.1658640060       10.6091691548        8.1078591756
  O        -1.3869761391       10.5897396541        1.8161469025
  O         5.6413547731        7.7409662640        8.4260803534
  O         5.0240195317        6.6177164501       14.7149455653
  O        -2.0050605303        9.4648338248        8.1087506690
  O        -3.2138066429        8.3819658647        3.9390705974
  O        -4.5993412805       11.4126006162       10.6423661433
  O         6.8475155875        8.8241377470       12.5976493225
  O         8.2408725511        5.7941284485        5.8897120072
  O         5.2967176674        5.9555477080        3.9401340462
  O        -1.5672998373        8.6535097484       10.6422558511
  O        -1.6586201551       11.2503862150       12.5969848403
  O         5.1994267164        8.5517943259        5.8898130728
  H        -2.3096786502        8.6633932133        3.6474784877
  H         4.5583391091        5.8570761491       10.3050215913
  H         5.9416711230        8.5459362139       12.8872767692
  H        -0.9176989656       11.3496352890        6.2243067239
  H        -3.8600324832       11.4062732180        3.6485675157
  H        -2.4727035405        8.4802775917       10.3062931552
  H         7.4996577991        5.7955566887       12.8865945608
  H         6.1058352833        8.7260813216        6.2219601613
  H        -3.3115363374        8.6757133346        4.8747297122
  H         0.5457315458        0.1735735851       11.5987788597
  H         6.9451677825        8.5318208954       11.6618403327
  H         8.2456108281        5.5687929144        4.9314297099
  H         5.3956637487        5.6606196194        4.8753518363
  H        -1.5669636379        8.4304467688       11.6010108206
  H         3.3907057724        0.0730395299       11.6616771409
  H         5.1968896229        8.7682019872        4.9294365179
     192
 i =       24, E =     -2324.1005403784
 Ca         9.2954352815        1.4295411667        2.7199194820
 Ca         2.3282999839        4.3008616552        9.4463091596
 Ca        -0.5115268498        4.3044987465       13.8111049811
 Ca         0.7770517287        1.4346846109        7.0893783311
  S         2.3299393684        4.2987145348        2.5474604460
  S         9.2954016517        1.4339991416        9.2506261284
  S         0.7753088952        1.4365450099       13.9851232044
  S        -0.5109414022        4.3015266576        7.2828693338
  O         7.5316194815        3.1214807595        3.3890173977
  O         8.8016161619        0.2965179837       10.0900196719
  O         1.2497604202        2.6130948040       13.1427651656
  O        -0.0160117703        5.4385894026        6.4437469326
  O         2.8070340115        5.4739320332        3.3904287808
  O         9.7883312835        2.5714376396       10.0904550863
  O         5.9802239222        0.2614378671       13.1404819927
  O        -1.0046500618        3.1643755418        6.4431770405
  O         9.1512599668        3.7434463934        1.8161942549
  O        10.3768411954        0.8637074765        8.4260514326
  O        -0.3678039136        1.9893065935       14.7163256252
  O        -1.5930201402        4.8711687546        8.1070935980
  O         1.1874310923        4.8544057166        1.8170245355
  O         8.2145536424        2.0041421199        8.4251022511
  O         7.5973082083        0.8820867971       14.7155323154
  O         0.5700896972        3.7320037921        8.1085438856
  O        -0.6401005794        2.6468616590        3.9396066987
  O        -2.0246200085        5.6751508241       10.6432321009
  O         9.4228577608        3.0865679326       12.5960634652
  O        10.8136885305        0.0600582967        5.8891950351
  O         7.8707754744        0.2197558056        3.9407160319
  O         1.0066988607        2.9198379603       10.6429971283
  O         0.9139316920        5.5172335463       12.5952804242
  O         7.7740368906        2.8149494379        5.8892629930
  H         0.2636401551        2.9305173183        3.6478566283
  H         7.1314003219        0.1208719322       10.3082409924
  H         8.5170245344        2.8079843822       12.8854213731
  H         1.6572695491        5.6137688431        6.2216807773
  H        -1.2843591132        5.6696337211        3.6485747034
  H         0.1005656558        2.7458580441       10.3093046770
  H        10.0718389944        0.0620625373       12.8848056954
  H         8.6801813320        2.9905507796        6.2212659191
  H        -0.7386641926        2.9413892918        4.8749993439
  H        -2.0281665162        5.9046429834       11.6006678354
  H         9.5205174068        2.7939869955       11.6598490556
  H         5.6714888429       11.3050222450        4.9312473303
  H         2.8228165058       11.3948310985        4.8755999648
  H         1.0072420191        2.6999623470       11.6030136099
  H         0.8153167502        5.8111021375       11.6595748823
  H         7.7708805677        3.0313289997        4.9289283651
 Ca         3.6163001238        1.4300407716        2.7204602388
 Ca         8.0074180152        4.3010030054        9.4462499208
 Ca         5.1674883532        4.3044264092       13.8108689183
 Ca         6.4561824265        1.4347801067        7.0893224983
  S         8.0088841334        4.2978313402        2.5475189939
  S         3.6164058257        1.4340021440        9.2507125458
  S         6.4542742113        1.4363367815       13.9851378430
  S         5.1680299080        4.3015220981        7.2828731425
  O         1.8528223657        3.1234373319        3.3902130444
  O         3.1228817199        0.2963740936       10.0900549465
  O         6.9287264852        2.6125454060       13.1424560191
  O         5.6628836342        5.4386647107        6.4437936878
  O         8.4856848524        5.4721317565        3.3916610932
  O         4.1090987189        2.5715517487       10.0905170255
  O         0.3012722060        0.2619663039       13.1401496333
  O         4.6745090509        3.1643115385        6.4431335061
  O         3.4720154371        3.7436359580        1.8162647612
  O         4.6979117672        0.8638644597        8.4260818508
  O         5.3112059314        1.9892361937       14.7162513412
  O         4.0858438496        4.8710924494        8.1070271531
  O         6.8665344438        4.8540311263        1.8172276401
  O         2.5354741451        2.0040153202        8.4251977504
  O         1.9183059007        0.8821825055       14.7154390452
  O         6.2490777121        3.7320469553        8.1085780666
  O         5.0388721914        2.6469188985        3.9396702241
  O         3.6545846985        5.6747965072       10.6430679325
  O         3.7438175327        3.0865821102       12.5961030711
  O         5.1346689773        0.0597704836        5.8896375279
  O         2.1918872659        0.2198089240        3.9406829470
  O         6.6854132218        2.9205054601       10.6428956662
  O         6.5929557725        5.5171944036       12.5953505354
  O         2.0953869492        2.8144988812        5.8896345259
  H         5.9427806253        2.9299593176        3.6477294696
  H         1.4527080774        0.1205164333       10.3081370410
  H         2.8379381791        2.8081443208       12.8854648240
  H         7.3361029536        5.6141708451        6.2223868060
  H         4.3946082727        5.6699096677        3.6484785904
  H         5.7793347251        2.7462559026       10.3091857632
  H         4.3929282851        0.0618894455       12.8848701594
  H         3.0014216246        2.9901092103        6.2218265183
  H         4.9404827028        2.9415760673        4.8750411191
  H         3.6509131468        5.9046369011       11.6003956653
  H         3.8413214710        2.7941363750       11.6598322897
  H        -0.0079326872       11.3042862594        4.9317857982
  H        -2.8562315571       11.3949718631        4.8756067875
  H         6.6861967398        2.6999536256       11.6027283402
  H         6.4944992482        5.8108793086       11.6595772634
  H         2.0921620040        3.0323106371        4.9296124661
 Ca         1.0424140547        7.1656651529        2.7187093612
 Ca         5.4330501445       10.0362301102        9.4465570934
 Ca         2.5935899433       10.0398280935       13.8120328733
 Ca         3.8824985299        7.1702538383        7.0891631166
  S         5.4345624355       10.0327421636        2.5474189496
  S         1.0429833138        7.1696810490        9.2504416356
  S         3.8804844513        7.1724853616       13.9850779881
  S         2.5937904944       10.0369165255        7.2830779472
  O        -0.7222658397        8.8554138907        3.3875023141
  O         0.5493242416        6.0321794571       10.0898545368
  O         4.3548993590        8.3495992266       13.1433577287
  O         3.0883906592       11.1740597104        6.4438061356
  O         5.9110867116       11.2066433221        3.3921794558
  O         1.5357149001        8.3071740543       10.0903412430
  O        -2.2725696055        5.9982014552       13.1396648732
  O         2.0999008939        8.8998504721        6.4434374855
  O         0.8980802530        9.4793531932        1.8160788021
  O         2.1245274277        6.5993898260        8.4260272942
  O         2.7372923252        7.7248226527       14.7165419727
  O         1.5120390275       10.6065181362        8.1076834369
  O         4.2924238826       10.5893973162        1.8171023585
  O        -0.0378550083        7.7396450193        8.4248098323
  O        -0.6556889867        6.6177297430       14.7153362514
  O         3.6751781244        9.4674283596        8.1083767242
  O         2.4642741515        8.3825755625        3.9396903425
  O         1.0788824146       11.4121527479       10.6434224244
  O         1.1701920334        8.8219739486       12.5960951750
  O         2.5618953455        5.7949059723        5.8884025753
  O        -0.3813277269        5.9552240136        3.9406987982
  O         4.1123679581        8.6534934833       10.6429078033
  O         4.0186922376       11.2525229850       12.5952804211
  O        -0.4795639281        8.5509208253        5.8884631563
  H         3.3683594527        8.6650476347        3.6478246865
  H        -1.1204234225        5.8561883585       10.3079227647
  H         0.2642379146        8.5438739377       12.8854225909
  H         4.7613686942       11.3493880420        6.2227696779
  H         1.8198532868       11.4045658782        3.6487756494
  H         3.2058218606        8.4807862436       10.3096427834
  H         1.8190875104        5.7979292948       12.8847241210
  H         0.4266565457        8.7265169017        6.2203118854
  H         2.3660865036        8.6769643959        4.8751299622
  H         6.2241091078        0.1687904727       11.6013770027
  H         1.2677750499        8.5293425874       11.6599078170
  H         2.5671216258        5.5712881029        4.9298714480
  H        -0.2818615240        5.6594687409        4.8756526332
  H         4.1124252082        8.4356060081       11.6034244907
  H         9.0681062621        0.0758128272       11.6596364518
  H        -0.4825785711        8.7657462597        4.9277959738
 Ca         6.7214331585        7.1651310130        2.7192351737
 Ca        -0.2458719506       10.0363661393        9.4465382807
 Ca        -3.0854332505       10.0398874741       13.8117819787
 Ca        -1.7963832638        7.1703374238        7.0892126616
  S        -0.2447322464       10.0328488757        2.5474357143
  S         6.7219833148        7.1696942136        9.2505569261
  S        -1.7985868628        7.1724189618       13.9850870643
  S        -3.0852212827       10.0369150671        7.2829976085
  O         4.9571208955        8.8560614420        3.3883507380
  O         6.2285500369        6.0320614447       10.0899146719
  O        -1.3241536878        8.3492424466       13.1431124834
  O        -2.5906768283       11.1741274445        6.4437722217
  O         0.2315833426       11.2060813550        3.3930398666
  O         7.2144642486        8.3073132052       10.0904234724
  O         3.4065103085        5.9985296102       13.1394114232
  O        -3.5789359286        8.8997691621        6.4433479382
  O         6.5771300033        9.4788515622        1.8160834623
  O         7.8036291983        6.5995437046        8.4261521497
  O        -2.9417371725        7.7248499697       14.7164941746
  O        -4.1670855419       10.6064625240        8.1075312750
  O        -1.3866811237       10.5898609836        1.8171390165
  O         5.6410838395        7.7395092262        8.4248753240
  O         5.0233522905        6.6177351801       14.7152741615
  O        -2.0038155074        9.4674973700        8.1083589572
  O        -3.2148201568        8.3824390310        3.9396325283
  O        -4.5997847773       11.4115879750       10.6432722840
  O         6.8491520747        8.8220121667       12.5961555799
  O         8.2405953100        5.7952780438        5.8888498636
  O         5.2977256804        5.9550653963        3.9407853225
  O        -1.5668556374        8.6539590763       10.6427928912
  O        -1.6602675105       11.2525116057       12.5953314633
  O         5.1995857536        8.5511446186        5.8888890235
  H        -2.3107793270        8.6648448093        3.6475283270
  H         4.5587959838        5.8558756173       10.3078380859
  H         5.9431773020        8.5439808052       12.8854811171
  H        -0.9176662014       11.3496789457        6.2233907706
  H        -3.8589588195       11.4045542116        3.6485667733
  H        -2.4733867548        8.4811340520       10.3095440997
  H         7.4981357900        5.7978138678       12.8847972981
  H         6.1058571628        8.7261565451        6.2208083973
  H        -3.3127862731        8.6768221611        4.8750996215
  H         0.5452090168        0.1687982645       11.6010551347
  H         6.9465852451        8.5295499593       11.6599023633
  H         8.2457866966        5.5702921645        4.9306519281
  H         5.3970203802        5.6592842494        4.8757488099
  H        -1.5666236310        8.4356245337       11.6031877349
  H         3.3893044304        0.0756365982       11.6596271934
  H         5.1968681079        8.7663543955        4.9282782601
     192
 i =       25, E =     -2324.1005855711
 Ca         9.2955470020        1.4289809887        2.7222411720
 Ca         2.3282770915        4.3007056722        9.4461952191
 Ca        -0.5116495059        4.3049249257       13.8099344930
 Ca         0.7772484373        1.4349628767        7.0904322151
  S         2.3300800069        4.2984170260        2.5487368890
  S         9.2954985679        1.4339121032        9.2500779287
  S         0.7751879968        1.4370487152       13.9854108635
  S        -0.5109814007        4.3015235680        7.2838706726
  O         7.5314863356        3.1209169462        3.3900618304
  O         8.7997108222        0.2976049717       10.0895753240
  O         1.2499966024        2.6137867365       13.1431713274
  O        -0.0151927904        5.4381438335        6.4449481918
  O         2.8073481369        5.4731609291        3.3921645822
  O         9.7902434801        2.5702576971       10.0899772962
  O         5.9799002173        0.2620016029       13.1405078528
  O        -1.0055027904        3.1648510962        6.4443363517
  O         9.1511592451        3.7427827775        1.8172044946
  O        10.3754817475        0.8614781472        8.4252016223
  O        -0.3676325540        1.9898767830       14.7168306538
  O        -1.5917045568        4.8728795647        8.1087284231
  O         1.1877600831        4.8543221042        1.8181552661
  O         8.2160553503        2.0062193926        8.4243001171
  O         7.5969025581        0.8822854547       14.7159714933
  O         0.5688245648        3.7302715671        8.1100716449
  O        -0.6407501304        2.6481804455        3.9394070653
  O        -2.0262644124        5.6750866845       10.6438997199
  O         9.4232540680        3.0858596440       12.5954793092
  O        10.8153442310        0.0599625537        5.8900135818
  O         7.8712777845        0.2183350396        3.9406244384
  O         1.0082395421        2.9190881968       10.6436214116
  O         0.9136580304        5.5179567162       12.5946009017
  O         7.7723022432        2.8161381469        5.8900455707
  H         0.2635543462        2.9314509637        3.6486808630
  H         7.1294669032        0.1210043418       10.3090125412
  H         8.5174178598        2.8069062409       12.8847286071
  H         1.6595239822        5.6128857724        6.2226853316
  H        -1.2843236984        5.6683016054        3.6494609567
  H         0.1022258084        2.7453960727       10.3102704412
  H        10.0714857278        0.0634158591       12.8841130282
  H         8.6782023566        2.9916574477        6.2219774271
  H        -0.7392652804        2.9420291306        4.8751190367
  H        -2.0300186125        5.9035609329       11.6017887801
  H         9.5213295128        2.7928764657       11.6592360527
  H         5.6725646167       11.3042278858        4.9319966834
  H         2.8234595157       11.3938034652        4.8757593516
  H         1.0091391380        2.7014662468       11.6042805798
  H         0.8144002884        5.8125347506       11.6589147165
  H         7.7697860089        3.0316098790        4.9292388410
 Ca         3.6163970175        1.4295636999        2.7227865534
 Ca         8.0073695557        4.3008644081        9.4461314681
 Ca         5.1673602968        4.3048409432       13.8097138671
 Ca         6.4563854224        1.4350746595        7.0904199204
  S         8.0090329009        4.2972986514        2.5487907632
  S         3.6165266261        1.4339209998        9.2501197607
  S         6.4541716720        1.4368078483       13.9854280249
  S         5.1679925924        4.3015202587        7.2839196105
  O         1.8527190311        3.1230666281        3.3912191694
  O         3.1208689007        0.2975373068       10.0895853861
  O         6.9290007458        2.6131636468       13.1428249812
  O         5.6637278846        5.4381905056        6.4450227894
  O         8.4860108896        5.4711310648        3.3933768795
  O         4.1111626893        2.5703006507       10.0900258616
  O         0.3009050518        0.2626040580       13.1401369288
  O         4.6736148381        3.1648161998        6.4443334684
  O         3.4719001383        3.7431007441        1.8173275670
  O         4.6965386198        0.8615645982        8.4251879573
  O         5.3113910951        1.9898000446       14.7167533475
  O         4.0871853526        4.8728269893        8.1087110184
  O         6.8669339072        4.8538815200        1.8183786556
  O         2.5370361863        2.0061691136        8.4243471649
  O         1.9178894395        0.8823886250       14.7158631038
  O         6.2478022847        3.7303032452        8.1101465518
  O         5.0382905190        2.6482972693        3.9395103476
  O         3.6529316990        5.6747147507       10.6437695067
  O         3.7441811639        3.0858410878       12.5954782576
  O         5.1362734799        0.0597486880        5.8904128181
  O         2.1923293421        0.2183647743        3.9406468376
  O         6.6869834652        2.9197920541       10.6435191144
  O         6.5927175594        5.5179573135       12.5946188759
  O         2.0937209826        2.8155272789        5.8903937403
  H         5.9427945581        2.9308041102        3.6485746452
  H         1.4507366197        0.1206292916       10.3088859656
  H         2.8383123931        2.8071005786       12.8848262109
  H         7.3383101648        5.6132738853        6.2233935720
  H         4.3945703759        5.6686918649        3.6493915112
  H         5.7810277547        2.7458169715       10.3101461763
  H         4.3925819337        0.0632167187       12.8842091518
  H         2.9994698879        2.9912306135        6.2225338275
  H         4.9398459203        2.9422149086        4.8752161297
  H         3.6490231834        5.9035913276       11.6015294880
  H         3.8421904557        2.7930079249       11.6591767066
  H        -0.0068017180       11.3035007555        4.9324902535
  H        -2.8555346260       11.3939996664        4.8758399562
  H         6.6880928457        2.7014187092       11.6039784720
  H         6.4935300167        5.8123140263       11.6588581227
  H         2.0910170376        3.0326616235        4.9299604055
 Ca         1.0425760628        7.1650759454        2.7208306912
 Ca         5.4330546136       10.0361097466        9.4465759870
 Ca         2.5934117251       10.0403147112       13.8109821881
 Ca         3.8828042352        7.1705636252        7.0899718972
  S         5.4346467198       10.0322577937        2.5487383962
  S         1.0430498092        7.1695462110        9.2499047679
  S         3.8803899533        7.1730059372       13.9853329498
  S         2.5937397612       10.0369220485        7.2840986046
  O        -0.7224473393        8.8547531896        3.3885701225
  O         0.5473982438        6.0332580231       10.0894682859
  O         4.3551762294        8.3504144690       13.1438583427
  O         3.0891809727       11.1736181296        6.4450291575
  O         5.9114055712       11.2055740708        3.3940707471
  O         1.5375783158        8.3059481627       10.0898917480
  O        -2.2728888672        5.9989117086       13.1395635618
  O         2.0991039781        8.9003138074        6.4445934524
  O         0.8979222922        9.4787131201        1.8171236102
  O         2.1231062585        6.5971091828        8.4251237614
  O         2.7374707445        7.7254288097       14.7169729482
  O         1.5132754192       10.6082304408        8.1092810390
  O         4.2927514339       10.5892589963        1.8183033226
  O        -0.0363561776        7.7417329224        8.4240104811
  O        -0.6560760403        6.6179757459       14.7157372781
  O         3.6738469663        9.4657105361        8.1100115349
  O         2.4635966681        8.3838665080        3.9395137678
  O         1.0772770333       11.4121251823       10.6440284920
  O         1.1705881906        8.8213296339       12.5955054534
  O         2.5636027850        5.7946703392        5.8892819227
  O        -0.3808311854        5.9537614210        3.9406547976
  O         4.1139555294        8.6525586655       10.6435385531
  O         4.0184198894       11.2532795753       12.5945731192
  O        -0.4813561932        8.5522395513        5.8892681009
  H         3.3682810164        8.6658443970        3.6486718991
  H        -1.1224167293        5.8562547531       10.3086065370
  H         0.2646022255        8.5428941488       12.8847253124
  H         4.7636074303       11.3484994716        6.2237333635
  H         1.8199240266       11.4031218734        3.6497917797
  H         3.2074955042        8.4803173387       10.3106014110
  H         1.8187095427        5.7993920931       12.8839669526
  H         0.4246524568        8.7276390746        6.2210154691
  H         2.3654588276        8.6776578962        4.8752667646
  H         6.2222727419        0.1676248038       11.6024551579
  H         1.2685783750        8.5281962777       11.6593112890
  H         2.5683025138        5.5706960452        4.9306335464
  H        -0.2810069962        5.6584843961        4.8758793728
  H         4.1143519487        8.4371209754       11.6047372232
  H         9.0671178895        0.0772791502       11.6589650658
  H        -0.4837040601        8.7659255372        4.9280659182
 Ca         6.7216105653        7.1644562657        2.7213432366
 Ca        -0.2458757071       10.0362595488        9.4466134766
 Ca        -3.0856052062       10.0403857431       13.8107466119
 Ca        -1.7960795196        7.1706592484        7.0901249836
  S        -0.2446757847       10.0322648209        2.5487521393
  S         6.7220496901        7.1695569793        9.2499764840
  S        -1.7986663675        7.1729440160       13.9853454116
  S        -3.0852654899       10.0369183734        7.2840654668
  O         4.9570046325        8.8553615335        3.3892668666
  O         6.2265015880        6.0332135216       10.0895136607
  O        -1.3238404077        8.3500267539       13.1435812220
  O        -2.5898596674       11.1736535036        6.4450276259
  O         0.2319161830       11.2050010060        3.3947828813
  O         7.2164548627        8.3060190479       10.0899474458
  O         3.4061476129        5.9992762935       13.1392710693
  O        -3.5797830434        8.9002609221        6.4445500370
  O         6.5769971822        9.4782315875        1.8171561626
  O         7.8021756259        6.5971784778        8.4252161283
  O        -2.9415570681        7.7254703745       14.7169217918
  O        -4.1658133445       10.6081911100        8.1091893308
  O        -1.3863115192       10.5897663884        1.8183480932
  O         5.6426232334        7.7416629238        8.4240201983
  O         5.0229652588        6.6179688050       14.7156609227
  O        -2.0051534838        9.4657571393        8.1100344947
  O        -3.2154459394        8.3837619604        3.9394916729
  O        -4.6014227518       11.4115247741       10.6438881687
  O         6.8495099041        8.8213264392       12.5955233983
  O         8.2422326323        5.7951644044        5.8897046853
  O         5.2981905141        5.9535706930        3.9407943954
  O        -1.5652570656        8.6530513138       10.6434303465
  O        -1.6605225947       11.2532933215       12.5945865481
  O         5.1978342725        8.5524016358        5.8896587593
  H        -2.3108073449        8.6656241106        3.6483931348
  H         4.5567789430        5.8559256508       10.3084742658
  H         5.9435216885        8.5430256938       12.8848477873
  H        -0.9154739813       11.3487601516        6.2243148123
  H        -3.8589525702       11.4031895046        3.6495633611
  H        -2.4716959530        8.4806793916       10.3105042138
  H         7.4977693450        5.7992555210       12.8840999491
  H         6.1038732496        8.7273097653        6.2215148744
  H        -3.3134696420        8.6774599136        4.8752906996
  H         0.5433685960        0.1676882805       11.6021238043
  H         6.9474498458        8.5283958042       11.6592566686
  H         8.2470195569        5.5696220879        4.9314231808
  H         5.3979123349        5.6583045146        4.8760343837
  H        -1.5647023693        8.4371098748       11.6044907510
  H         3.3882845807        0.0771182825       11.6589156697
  H         5.1956950142        8.7665289415        4.9285333611
     192
 i =       26, E =     -2324.1006109598
 Ca         9.2955960627        1.4284192565        2.7245102781
 Ca         2.3282005588        4.3005226686        9.4454910097
 Ca        -0.5117315348        4.3054737113       13.8083760764
 Ca         0.7772158435        1.4349492261        7.0910228758
  S         2.3302168731        4.2977491517        2.5493720921
  S         9.2955073650        1.4338270415        9.2502056093
  S         0.7750641899        1.4377636832       13.9854098125
  S        -0.5109716519        4.3016198378        7.2842006314
  O         7.5313000156        3.1203124980        3.3906117013
  O         8.7994157540        0.2978252004       10.0896380328
  O         1.2507721956        2.6145226331       13.1434320500
  O        -0.0148962133        5.4379667516        6.4452692204
  O         2.8076542866        5.4718454813        3.3933843481
  O         9.7905306918        2.5698322510       10.0900774354
  O         5.9790183448        0.2629599342       13.1403510976
  O        -1.0057120172        3.1652033154        6.4446990718
  O         9.1512265588        3.7419445223        1.8176555107
  O        10.3750591801        0.8607929759        8.4252187413
  O        -0.3676029802        1.9909018163       14.7167457384
  O        -1.5909424604        4.8740754487        8.1094249314
  O         1.1883114924        4.8545906687        1.8189404095
  O         8.2165868235        2.0068322744        8.4241798891
  O         7.5966019421        0.8822350115       14.7157759173
  O         0.5681212134        3.7290648468        8.1107014571
  O        -0.6410618066        2.6497823066        3.9392018932
  O        -2.0272167327        5.6736358250       10.6442054113
  O         9.4236541221        3.0854264997       12.5949502564
  O        10.8154789054        0.0609687081        5.8902798912
  O         7.8714891609        0.2165071416        3.9405829831
  O         1.0091877661        2.9195596991       10.6438783283
  O         0.9133665790        5.5185026731       12.5939492152
  O         7.7718801088        2.8166167278        5.8904147441
  H         0.2633721518        2.9327648115        3.6490426835
  H         7.1280892908        0.1207073382       10.3097153769
  H         8.5182477107        2.8049143404       12.8841988473
  H         1.6603801890        5.6129361813        6.2233661838
  H        -1.2841145157        5.6663587366        3.6501623802
  H         0.1033593958        2.7453838481       10.3113919554
  H        10.0706503597        0.0658720794       12.8833975777
  H         8.6776752706        2.9919424246        6.2221162533
  H        -0.7400664112        2.9422714546        4.8753326068
  H        -2.0317231379        5.9022942255       11.6020618947
  H         9.5223706201        2.7922077016       11.6588422661
  H         5.6730647869       11.3039608460        4.9323278624
  H         2.8242968815       11.3930979195        4.8760750361
  H         1.0106830314        2.7032145136       11.6047600579
  H         0.8133092057        5.8135876954       11.6584606343
  H         7.7694580799        3.0312292551        4.9291189703
 Ca         3.6164625943        1.4290928370        2.7251042054
 Ca         8.0073489649        4.3007210587        9.4454441165
 Ca         5.1672922852        4.3053655431       13.8081257726
 Ca         6.4562684906        1.4350281855        7.0909297362
  S         8.0092402668        4.2965015252        2.5494145346
  S         3.6165461613        1.4338291860        9.2502015643
  S         6.4541074836        1.4374379060       13.9854248574
  S         5.1679968264        4.3016219624        7.2842796035
  O         1.8524471468        3.1226224106        3.3918377273
  O         3.1204919967        0.2978102779       10.0896289700
  O         6.9297783060        2.6138357243       13.1430510544
  O         5.6640010555        5.4380047114        6.4453631196
  O         8.4864231184        5.4696255988        3.3946688004
  O         4.1115503211        2.5698261051       10.0900887476
  O         0.3000122990        0.2636294407       13.1399509233
  O         4.6733926840        3.1651828294        6.4447371240
  O         3.4719813375        3.7424734837        1.8177772117
  O         4.6961113793        0.8608436990        8.4251777159
  O         5.3114739019        1.9908105386       14.7166307679
  O         4.0879540157        4.8740125912        8.1094506832
  O         6.8674984813        4.8539402500        1.8191229000
  O         2.5375985116        2.0068011952        8.4241908532
  O         1.9175384819        0.8823537469       14.7156291566
  O         6.2471147598        3.7291301209        8.1107825966
  O         5.0379469964        2.6499103389        3.9392961278
  O         3.6519231517        5.6732181837       10.6440723994
  O         3.7446322131        3.0854290042       12.5949548338
  O         5.1363877552        0.0608577964        5.8906709660
  O         2.1925649887        0.2166213391        3.9405796372
  O         6.6879493975        2.9203044606       10.6438070145
  O         6.5923648284        5.5184569274       12.5939857568
  O         2.0933760876        2.8157953994        5.8907472694
  H         5.9426643979        2.9320559088        3.6490816008
  H         1.4492968411        0.1203248410       10.3095379485
  H         2.8391633227        2.8051209331       12.8842335864
  H         7.3391328999        5.6133176607        6.2240756446
  H         4.3946938598        5.6668555320        3.6501915804
  H         5.7822090791        2.7458185695       10.3112328618
  H         4.3917296864        0.0656663654       12.8834515974
  H         2.9989726053        2.9915167967        6.2227069018
  H         4.9391302208        2.9424927958        4.8754168585
  H         3.6473568624        5.9023722056       11.6017943173
  H         3.8432091684        2.7922752548       11.6588055391
  H        -0.0062133817       11.3033189986        4.9328306441
  H        -2.8547805098       11.3933056101        4.8761232051
  H         6.6896434512        2.7031226124       11.6044752317
  H         6.4924838398        5.8134197022       11.6584370329
  H         2.0906176805        3.0323352822        4.9299100267
 Ca         1.0426399370        7.1645304096        2.7229122002
 Ca         5.4329724444       10.0358025723        9.4460385853
 Ca         2.5933138129       10.0408482900       13.8095151621
 Ca         3.8826798699        7.1706269260        7.0908840075
  S         5.4347959446       10.0313823315        2.5494225757
  S         1.0430378304        7.1694507100        9.2500050140
  S         3.8802935451        7.1738700594       13.9853226075
  S         2.5936881474       10.0369764528        7.2844319798
  O        -0.7226483432        8.8541093314        3.3890784341
  O         0.5471124466        6.0334389476       10.0894700228
  O         4.3560411817        8.3513401018       13.1441762436
  O         3.0893790846       11.1733902582        6.4453609499
  O         5.9117759797       11.2039301341        3.3955010650
  O         1.5378679485        8.3055017113       10.0899833408
  O        -2.2737656661        6.0000466939       13.1393793751
  O         2.0988748392        8.9006078520        6.4449294599
  O         0.8978711835        9.4777967570        1.8175975046
  O         2.1226586252        6.5964331353        8.4250755597
  O         2.7374546248        7.7264531967       14.7168889408
  O         1.5139093216       10.6093801667        8.1099512288
  O         4.2932805092       10.5893886270        1.8192424241
  O        -0.0358773360        7.7423271101        8.4238863155
  O        -0.6563889647        6.6179579529       14.7154775852
  O         3.6730930237        9.4645134016        8.1106635404
  O         2.4632799515        8.3853807860        3.9393588705
  O         1.0765292570       11.4107976176       10.6444438790
  O         1.1709833812        8.8209677442       12.5949291978
  O         2.5638270618        5.7954766572        5.8895788300
  O        -0.3805399741        5.9521283572        3.9404948771
  O         4.1149991713        8.6529018350       10.6438074852
  O         4.0180469389       11.2538225584       12.5939644817
  O        -0.4818154829        8.5529192761        5.8896339269
  H         3.3681024388        8.6670325774        3.6490526069
  H        -1.1239595137        5.8558560899       10.3093098432
  H         0.2654115144        8.5410126151       12.8842214614
  H         4.7644062098       11.3485840365        6.2244434029
  H         1.8200977791       11.4011569198        3.6503876622
  H         3.2087010571        8.4802497922       10.3117542482
  H         1.8178860024        5.8019321733       12.8832977078
  H         0.4241339029        8.7279715315        6.2211347672
  H         2.3646207998        8.6779845749        4.8754946556
  H         6.2205473119        0.1663005183       11.6028610983
  H         1.2696621696        8.5274559726       11.6589068928
  H         2.5687688219        5.5705649703        4.9308981588
  H        -0.2801701334        5.6577624808        4.8760223195
  H         4.1158986322        8.4388556449       11.6052368135
  H         9.0660111757        0.0783722017       11.6585874204
  H        -0.4839978676        8.7655146347        4.9278572284
 Ca         6.7217142902        7.1638239272        2.7234527718
 Ca        -0.2458897473       10.0360065791        9.4461400387
 Ca        -3.0857199200       10.0409451559       13.8092619146
 Ca        -1.7963075068        7.1706703533        7.0908779917
  S        -0.2444931667       10.0314983665        2.5494240710
  S         6.7220210999        7.1694472920        9.2500320912
  S        -1.7987058833        7.1737380242       13.9853329881
  S        -3.0853012041       10.0369752178        7.2844350795
  O         4.9567602232        8.8545432311        3.3897425366
  O         6.2260972410        6.0334403128       10.0894912659
  O        -1.3229735206        8.3509317730       13.1438970409
  O        -2.5896635867       11.1734153685        6.4453884462
  O         0.2323964012       11.2034690819        3.3961866937
  O         7.2168195214        8.3055265431       10.0899860471
  O         3.4052591475        6.0004365849       13.1390902144
  O        -3.5800220038        8.9005700272        6.4449384165
  O         6.5770654390        9.4774726131        1.8175747669
  O         7.8016852070        6.5964554279        8.4251252878
  O        -2.9415145692        7.7265118283       14.7167893694
  O        -4.1651647630       10.6093140632        8.1098989569
  O        -1.3858450416       10.5898028098        1.8192038974
  O         5.6431140850        7.7422673476        8.4238521771
  O         5.0225892233        6.6179230110       14.7153545338
  O        -2.0058729361        9.4645879229        8.1107023859
  O        -3.2157971296        8.3852521422        3.9393158006
  O        -4.6021993594       11.4101524523       10.6443212363
  O         6.8499798656        8.8209998079       12.5949652685
  O         8.2423976113        5.7961489241        5.8900165027
  O         5.2984660511        5.9519698740        3.9406606124
  O        -1.5642143882        8.6534161329       10.6437354488
  O        -1.6609246392       11.2538224443       12.5939625101
  O         5.1973806395        8.5530086212        5.8900218803
  H        -2.3109713245        8.6668305699        3.6489074870
  H         4.5551690119        5.8555376345       10.3091779747
  H         5.9443726765        8.5411405474       12.8842626177
  H        -0.9146955488       11.3488220793        6.2249890894
  H        -3.8588039977       11.4012495016        3.6502925536
  H        -2.4704710428        8.4806197143       10.3116350976
  H         7.4969079261        5.8018072975       12.8833477129
  H         6.1033653986        8.7276757995        6.2216249403
  H        -3.3142515767        8.6777504450        4.8755007237
  H         0.5416317824        0.1664201225       11.6025369713
  H         6.9484843351        8.5276032443       11.6588856499
  H         8.2475710239        5.5694467945        4.9317692670
  H         5.3987171660        5.6575373767        4.8761921677
  H        -1.5631744743        8.4388061228       11.6050186897
  H         3.3871910455        0.0782723707       11.6585337049
  H         5.1953570518        8.7660832030        4.9283483563
     192
 i =       27, E =     -2324.1006279031
 Ca         9.2957961285        1.4275233803        2.7260990627
 Ca         2.3280208749        4.3001258327        9.4445659191
 Ca        -0.5118704484        4.3062809731       13.8074742260
 Ca         0.7773033190        1.4350752572        7.0911769605
  S         2.3304465557        4.2971420262        2.5495214620
  S         9.2955412949        1.4337391550        9.2503692762
  S         0.7748803374        1.4386072962       13.9855569543
  S        -0.5109738203        4.3016610271        7.2843438120
  O         7.5310950262        3.1193609648        3.3903013516
  O         8.7992241424        0.2978121648       10.0896037357
  O         1.2517200704        2.6153603635       13.1440555261
  O        -0.0143344820        5.4377997743        6.4455486681
  O         2.8082219819        5.4703780524        3.3943254534
  O         9.7906504890        2.5696619882       10.0901208641
  O         5.9778314368        0.2642999526       13.1402713831
  O        -1.0062475212        3.1655215747        6.4448882597
  O         9.1513354638        3.7408863221        1.8177727366
  O        10.3750548280        0.8605839170        8.4253281269
  O        -0.3675904805        1.9923287729       14.7166938995
  O        -1.5905155534        4.8748534767        8.1097651598
  O         1.1888166240        4.8546825261        1.8191867547
  O         8.2167667812        2.0069193186        8.4241390047
  O         7.5962390018        0.8820221207       14.7154933001
  O         0.5677049778        3.7283291754        8.1110611114
  O        -0.6414594784        2.6503149995        3.9393271298
  O        -2.0282111775        5.6725449566       10.6447368119
  O         9.4240940944        3.0853211040       12.5945129997
  O        10.8155067076        0.0617399378        5.8903879982
  O         7.8717131802        0.2157047664        3.9409365511
  O         1.0102681914        2.9193634733       10.6443574128
  O         0.9131278337        5.5188829952       12.5932937042
  O         7.7714811979        2.8177495494        5.8905462545
  H         0.2629473028        2.9336796444        3.6498342284
  H         7.1266392836        0.1207713870       10.3101907167
  H         8.5190963912        2.8033339318       12.8838211554
  H         1.6610117049        5.6127917576        6.2240368158
  H        -1.2837273334        5.6646182452        3.6510650680
  H         0.1045443912        2.7449933342       10.3121114509
  H        10.0698162158        0.0681516259       12.8829077562
  H         8.6773207363        2.9924900670        6.2222742187
  H        -0.7407841570        2.9425733487        4.8755492244
  H        -2.0333560864        5.9017406639       11.6024085237
  H         9.5237614680        2.7917720960       11.6586731946
  H         5.6731261191       11.3031105548        4.9326738980
  H         2.8251827018       11.3922351072        4.8764412944
  H         1.0121067473        2.7043998826       11.6054707840
  H         0.8118264347        5.8144435055       11.6581526217
  H         7.7694425474        3.0312194102        4.9288440456
 Ca         3.6166330837        1.4283410265        2.7267655217
 Ca         8.0072004694        4.3003336363        9.4445159551
 Ca         5.1671481544        4.3061533512       13.8071987007
 Ca         6.4563753782        1.4352148398        7.0910843818
  S         8.0095507825        4.2956534494        2.5495761986
  S         3.6165952497        1.4337381354        9.2503515445
  S         6.4539461085        1.4382149247       13.9855759373
  S         5.1680026502        4.3016697132        7.2844541462
  O         1.8521639117        3.1219234983        3.3915517133
  O         3.1202682804        0.2978159997       10.0895760999
  O         6.9307625224        2.6145881226       13.1436400607
  O         5.6645296597        5.4378450123        6.4456643071
  O         8.4870971395        5.4679212904        3.3956304515
  O         4.1117171895        2.5696429433       10.0901069157
  O         0.2987766671        0.2650572247       13.1398294701
  O         4.6728752613        3.1655050056        6.4449715427
  O         3.4719878852        3.7415285078        1.8179318945
  O         4.6961092522        0.8606168111        8.4252858037
  O         5.3115207730        1.9921937551       14.7166089526
  O         4.0883767496        4.8747568666        8.1098217469
  O         6.8681001763        4.8538865375        1.8194357267
  O         2.5378063869        2.0068924679        8.4241387125
  O         1.9171387014        0.8821824448       14.7153705045
  O         6.2467337252        3.7284341217        8.1111469403
  O         5.0376149869        2.6505176153        3.9394765509
  O         3.6509033060        5.6720971435       10.6446368855
  O         3.7450538025        3.0852822678       12.5944782240
  O         5.1363795683        0.0617117067        5.8907637219
  O         2.1927428184        0.2158043308        3.9409509011
  O         6.6890540140        2.9201956903       10.6443095219
  O         6.5921596678        5.5188816023       12.5932885835
  O         2.0930674755        2.8166629014        5.8908851748
  H         5.9423425176        2.9328942611        3.6498985688
  H         1.4477639006        0.1203722234       10.3099590493
  H         2.8399932827        2.8035573164       12.8838639081
  H         7.3396961899        5.6131554214        6.2247475407
  H         4.3949873062        5.6652452438        3.6511630719
  H         5.7834604033        2.7454426720       10.3119149662
  H         4.3909026023        0.0679383777       12.8829569053
  H         2.9986554743        2.9920675045        6.2228841809
  H         4.9384085163        2.9428295394        4.8756992171
  H         3.6456857132        5.9018474052       11.6021664032
  H         3.8446366128        2.7917903811       11.6586067010
  H        -0.0060702525       11.3025659903        4.9331720285
  H        -2.8539021290       11.3925049916        4.8765216545
  H         6.6910780202        2.7042673375       11.6051878122
  H         6.4909548370        5.8142972260       11.6580863057
  H         2.0905433498        3.0323854249        4.9297278776
 Ca         1.0428108924        7.1637068859        2.7243168599
 Ca         5.4327482098       10.0354256005        9.4450312536
 Ca         2.5931523727       10.0416625391       13.8086761366
 Ca         3.8826750361        7.1708114322        7.0909174823
  S         5.4350501993       10.0305032464        2.5496027065
  S         1.0430290447        7.1693493433        9.2501700311
  S         3.8801303930        7.1747651303       13.9854726817
  S         2.5936216043       10.0369801948        7.2846002888
  O        -0.7228770634        8.8531051204        3.3887925465
  O         0.5468765131        6.0333983785       10.0894018836
  O         4.3570329105        8.3523476325       13.1449450932
  O         3.0898508474       11.1731930094        6.4456857945
  O         5.9124272764       11.2021071133        3.3965942944
  O         1.5380182519        8.3052964683       10.0900283222
  O        -2.2749199514        6.0016128854       13.1391228179
  O         2.0983288113        8.9008427818        6.4451536201
  O         0.8979328848        9.4767964922        1.8176454691
  O         2.1226135690        6.5962281698        8.4251509474
  O         2.7374864235        7.7279324534       14.7168061815
  O         1.5142114788       10.6100855341        8.1102894025
  O         4.2937906159       10.5893353575        1.8196543552
  O        -0.0357296221        7.7424787511        8.4238714803
  O        -0.6567228886        6.6178322917       14.7151660525
  O         3.6726076447        9.4637920488        8.1110888317
  O         2.4628455954        8.3858990708        3.9395029368
  O         1.0755909498       11.4097691851       10.6449745642
  O         1.1714620158        8.8208936456       12.5944625724
  O         2.5639819831        5.7959539268        5.8896823222
  O        -0.3803884415        5.9513317249        3.9408302792
  O         4.1161624257        8.6524420739       10.6443210101
  O         4.0177921437       11.2541691174       12.5933408412
  O        -0.4823134365        8.5542546872        5.8897958664
  H         3.3676973426        8.6677913214        3.6498669158
  H        -1.1255107941        5.8557838393       10.3095932486
  H         0.2662572088        8.5395470464       12.8838449728
  H         4.7649694642       11.3484421232        6.2251414281
  H         1.8205338856       11.3993586121        3.6513779731
  H         3.2099221715        8.4797778992       10.3124918368
  H         1.8170510237        5.8042934435       12.8827981498
  H         0.4237375484        8.7285718536        6.2212405327
  H         2.3638754563        8.6783526736        4.8756951080
  H         6.2191037864        0.1657164332       11.6032463585
  H         1.2710823902        8.5269336133       11.6587570931
  H         2.5688299068        5.5698994905        4.9311160155
  H        -0.2791617231        5.6569534809        4.8763359365
  H         4.1173388298        8.4400333680       11.6060397681
  H         9.0644312177        0.0792994790       11.6583391488
  H        -0.4839836138        8.7654739681        4.9275448983
 Ca         6.7219293192        7.1628960818        2.7249020101
 Ca        -0.2460970896       10.0356350917        9.4451799345
 Ca        -3.0858747781       10.0417686614       13.8083951597
 Ca        -1.7962488334        7.1709357148        7.0910012294
  S        -0.2442412806       10.0306036586        2.5496017984
  S         6.7220125435        7.1693420222        9.2501776982
  S        -1.7988580700        7.1746332627       13.9854882120
  S        -3.0853443976       10.0369778447        7.2846293287
  O         4.9565473959        8.8533909276        3.3892943220
  O         6.2258169680        6.0334215717       10.0894019113
  O        -1.3219516262        8.3519312567       13.1446452757
  O        -2.5892043135       11.1732143375        6.4457299769
  O         0.2331183650       11.2017602959        3.3971033398
  O         7.2170023810        8.3052997637       10.0900051505
  O         3.4040517967        6.0020219695       13.1387999936
  O        -3.5805473680        8.9008025606        6.4452035608
  O         6.5771219467        9.4764497975        1.8176539403
  O         7.8016244507        6.5962278664        8.4251923334
  O        -2.9414739869        7.7279673400       14.7167540200
  O        -4.1648527175       10.6099879804        8.1102572834
  O        -1.3853045206       10.5898020728        1.8196392689
  O         5.6432697705        7.7424221191        8.4238210930
  O         5.0222383071        6.6178078266       14.7150838849
  O        -2.0063011908        9.4639046319        8.1111193378
  O        -3.2161843053        8.3857771742        3.9394887038
  O        -4.6031820923       11.4090510635       10.6448522706
  O         6.8504280315        8.8208772256       12.5944576577
  O         8.2424511090        5.7968007426        5.8901103565
  O         5.2986048878        5.9511422180        3.9410228965
  O        -1.5630507712        8.6530181927       10.6442798749
  O        -1.6611716915       11.2541982551       12.5933054258
  O         5.1969026861        8.5542806710        5.8901928382
  H        -2.3113380929        8.6676228739        3.6497437849
  H         4.5535542061        5.8554605796       10.3093998647
  H         5.9452011062        8.5396779894       12.8839182453
  H        -0.9141689284       11.3486504714        6.2256433894
  H        -3.8584248323       11.3994753256        3.6512894163
  H        -2.4692126565        8.4801536009       10.3123464434
  H         7.4960868286        5.8041737722       12.8828789535
  H         6.1029852459        8.7283230823        6.2217226644
  H        -3.3150200215        8.6780673664        4.8757436303
  H         0.5401626229        0.1658812394       11.6029049411
  H         6.9499457166        8.5270636106       11.6586943207
  H         8.2477051996        5.5687006750        4.9320493045
  H         5.3996881343        5.6566994422        4.8765297605
  H        -1.5617536178        8.4399537520       11.6058383190
  H         3.3855905809        0.0792517657       11.6582593642
  H         5.1953037253        8.7659718768        4.9280558918
     192
 i =       28, E =     -2324.1006496947
 Ca         9.2961731074        1.4259429448        2.7273904464
 Ca         2.3278622207        4.2997577772        9.4445225608
 Ca        -0.5121317864        4.3078393308       13.8068936805
 Ca         0.7775813985        1.4353889288        7.0907609702
  S         2.3308862889        4.2956407242        2.5493712659
  S         9.2956585407        1.4335791572        9.2505125122
  S         0.7744936907        1.4402734615       13.9859219796
  S        -0.5110458216        4.3017553569        7.2844928682
  O         7.5306725060        3.1173147378        3.3892956409
  O         8.7989414569        0.2975801126       10.0893341339
  O         1.2533315986        2.6169875979       13.1453439623
  O        -0.0134097358        5.4375741942        6.4458326034
  O         2.8092500089        5.4676342084        3.3953399181
  O         9.7908086466        2.5695898696       10.0900345330
  O         5.9756864532        0.2669979241       13.1401399661
  O        -1.0071050731        3.1660024228        6.4449923944
  O         9.1518254105        3.7391360619        1.8174767440
  O        10.3754158899        0.8605495916        8.4254026944
  O        -0.3676049620        1.9948717845       14.7169911449
  O        -1.5904312137        4.8754763646        8.1099456616
  O         1.1898770722        4.8548030970        1.8193066599
  O         8.2168633583        2.0067998766        8.4239630936
  O         7.5953888843        0.8815946616       14.7152778967
  O         0.5673877004        3.7277253343        8.1113392769
  O        -0.6418859172        2.6504455171        3.9399564813
  O        -2.0297312965        5.6709070837       10.6455716036
  O         9.4250524865        3.0853810752       12.5941050194
  O        10.8151555442        0.0629242312        5.8902529641
  O         7.8719834909        0.2150490078        3.9419766041
  O         1.0120225718        2.9183698203       10.6452087987
  O         0.9124923237        5.5192765366       12.5924900339
  O         7.7709035819        2.8201858861        5.8904053263
  H         0.2622801019        2.9344384756        3.6508320539
  H         7.1244599161        0.1210789059       10.3105630493
  H         8.5205339212        2.8014955963       12.8833726181
  H         1.6616900939        5.6124488267        6.2251687300
  H        -1.2829315039        5.6621975561        3.6525632313
  H         0.1063330422        2.7440039053       10.3131375683
  H        10.0683254532        0.0714696001       12.8820747627
  H         8.6769296700        2.9936068910        6.2223708386
  H        -0.7422022759        2.9429320693        4.8760526256
  H        -2.0353845192        5.9017516635       11.6027738465
  H         9.5261036790        2.7913274239       11.6587346516
  H         5.6727816344       11.3010773408        4.9332327847
  H         2.8268761477       11.3908538177        4.8771852783
  H         1.0137180339        2.7056406203       11.6067910892
  H         0.8093781374        5.8157057844       11.6579744200
  H         7.7699974520        3.0316231624        4.9281728152
 Ca         3.6169734507        1.4270074005        2.7282236970
 Ca         8.0070700176        4.2999994496        9.4444619406
 Ca         5.1669058871        4.3076521050       13.8065221061
 Ca         6.4566606246        1.4356226222        7.0906246492
  S         8.0101786602        4.2938495551        2.5494395274
  S         3.6167264905        1.4335753268        9.2504823773
  S         6.4536200939        1.4397419970       13.9859541283
  S         5.1679307699        4.3017689279        7.2846471180
  O         1.8515079259        3.1203217310        3.3907049559
  O         3.1199876070        0.2975954736       10.0892980110
  O         6.9323822360        2.6160705720       13.1448733314
  O         5.6653803249        5.4376368453        6.4459813825
  O         8.4883200508        5.4648308993        3.3967574030
  O         4.1118899599        2.5695629556       10.0900064336
  O         0.2966153493        0.2678959102       13.1396162223
  O         4.6720519602        3.1659814134        6.4451268862
  O         3.4722854521        3.7399727929        1.8176775291
  O         4.6964843262        0.8605748531        8.4253733100
  O         5.3115932139        1.9946879991       14.7169059354
  O         4.0884504740        4.8753419822        8.1100542781
  O         6.8692938697        4.8537203578        1.8196566095
  O         2.5379233581        2.0067705032        8.4239585230
  O         1.9161995792        0.8818069475       14.7151366221
  O         6.2464534795        3.7278791400        8.1114383660
  O         5.0372138138        2.6507189414        3.9401522657
  O         3.6493166093        5.6703895732       10.6454818104
  O         3.7460159082        3.0853103845       12.5940482497
  O         5.1360076867        0.0630279673        5.8905768892
  O         2.1929610078        0.2151919455        3.9419655739
  O         6.6908322605        2.9193845358       10.6451981129
  O         6.5915130511        5.5192791600       12.5924855146
  O         2.0926722056        2.8186108901        5.8907211715
  H         5.9417895306        2.9335309331        3.6510152062
  H         1.4454684305        0.1206529715       10.3102160625
  H         2.8414104159        2.8017354893       12.8833638379
  H         7.3403019997        5.6128079169        6.2258632830
  H         4.3956211627        5.6630380392        3.6527283872
  H         5.7853520267        2.7444790621       10.3128701205
  H         4.3894293843        0.0712472685       12.8820877413
  H         2.9983348410        2.9931521261        6.2230350034
  H         4.9370656372        2.9432715927        4.8762515671
  H         3.6436278941        5.9018971303       11.6025284444
  H         3.8470009777        2.7912608621       11.6586643031
  H        -0.0063241570       11.3007214813        4.9336874672
  H        -2.8522658274       11.3912256830        4.8772595834
  H         6.6927260929        2.7054510183       11.6065002136
  H         6.4885010851        5.8156044433       11.6579182860
  H         2.0910074543        3.0328940133        4.9291820896
 Ca         1.0430829219        7.1622877791        2.7253549613
 Ca         5.4325297983       10.0349568861        9.4447495622
 Ca         2.5928939242       10.0431730644       13.8082001166
 Ca         3.8829222759        7.1711569719        7.0904021369
  S         5.4355930165       10.0285983116        2.5494811933
  S         1.0431056954        7.1691889266        9.2502924597
  S         3.8797887692        7.1766149956       13.9858434107
  S         2.5934109975       10.0369869242        7.2847834099
  O        -0.7232630447        8.8510996570        3.3877503893
  O         0.5464959209        6.0331522940       10.0890399359
  O         4.3587225072        8.3543044298       13.1464114281
  O         3.0906076196       11.1728943899        6.4460428749
  O         5.9136008503       11.1988144268        3.3978727323
  O         1.5382212564        8.3051838021       10.0899366134
  O        -2.2770069192        6.0046818710       13.1387741422
  O         2.0974107386        8.9011901214        6.4452816193
  O         0.8982634636        9.4750542943        1.8172913711
  O         2.1229296893        6.5962031766        8.4251556561
  O         2.7374530615        7.7304511637       14.7171546526
  O         1.5141060740       10.6106364457        8.1104406415
  O         4.2948588487       10.5891274007        1.8199925215
  O        -0.0356866896        7.7423983895        8.4237055782
  O        -0.6575774626        6.6174991285       14.7148930815
  O         3.6721409497        9.4631617232        8.1114454670
  O         2.4623610909        8.3860429322        3.9401353808
  O         1.0741870932       11.4083122412       10.6459048833
  O         1.1724758017        8.8209632613       12.5940187044
  O         2.5639127788        5.7966038942        5.8895298880
  O        -0.3801279474        5.9508130256        3.9417515765
  O         4.1181231578        8.6510070677       10.6451823337
  O         4.0170979414       11.2545625839       12.5925739471
  O        -0.4830352876        8.5571158955        5.8896830177
  H         3.3670824038        8.6682533167        3.6508778566
  H        -1.1278575913        5.8559346491       10.3098324353
  H         0.2676917470        8.5378997426       12.8834052794
  H         4.7655097995       11.3481224911        6.2263944637
  H         1.8213326863       11.3968668495        3.6528502826
  H         3.2118247597        8.4785930444       10.3136245022
  H         1.8155592572        5.8077588386       12.8819618748
  H         0.4232865313        8.7297649837        6.2213362822
  H         2.3623908770        8.6788318561        4.8761463057
  H         6.2172125501        0.1656116285       11.6037935439
  H         1.2734903075        8.5263338584       11.6588522111
  H         2.5684214117        5.5681401530        4.9314355004
  H        -0.2774026609        5.6555863702        4.8768848522
  H         4.1189583796        8.4412762411       11.6074728283
  H         9.0618725165        0.0806723605       11.6582516213
  H        -0.4834659241        8.7658590536        4.9268004890
 Ca         6.7223006103        7.1613074474        2.7260324070
 Ca        -0.2463330629       10.0351235195        9.4446308381
 Ca        -3.0861535899       10.0433206968       13.8078326631
 Ca        -1.7960009042        7.1713454812        7.0905059145
  S        -0.2436774951       10.0289097261        2.5494659134
  S         6.7220674848        7.1691735113        9.2502753814
  S        -1.7991541765        7.1764111519       13.9858661048
  S        -3.0855280438       10.0369951287        7.2848218237
  O         4.9560777868        8.8510604988        3.3881356264
  O         6.2254143847        6.0331854639       10.0890277373
  O        -1.3202761589        8.3538803199       13.1461279358
  O        -2.5884512199       11.1729263029        6.4460902549
  O         0.2344297255       11.1987612857        3.3982508751
  O         7.2171912588        8.3051709914       10.0898819193
  O         3.4019551835        6.0051043103       13.1384535016
  O        -3.5814098360        8.9011286511        6.4453824755
  O         6.5775235717        9.4746988897        1.8173031444
  O         7.8019272072        6.5961976166        8.4252051960
  O        -2.9414395990        7.7304836330       14.7170964428
  O        -4.1649315157       10.6105023650        8.1104523303
  O        -1.3842778198       10.5896777466        1.8199656943
  O         5.6433006154        7.7423408880        8.4236317537
  O         5.0212976809        6.6174477029       14.7147995596
  O        -2.0067082954        9.4633170664        8.1114478931
  O        -3.2166486135        8.3858953681        3.9401274828
  O        -4.6046207228       11.4074802783       10.6457980675
  O         6.8514637190        8.8209427604       12.5940088081
  O         8.2422420873        5.7978035515        5.8899588674
  O         5.2987959110        5.9505757289        3.9419821691
  O        -1.5610996998        8.6517011945       10.6451800884
  O        -1.6618624307       11.2546267575       12.5925127766
  O         5.1961874215        8.5570621016        5.8900647488
  H        -2.3119437177        8.6681760468        3.6508304977
  H         4.5510910572        5.8556187588       10.3095801516
  H         5.9466473122        8.5380121595       12.8834253858
  H        -0.9136487418       11.3482962464        6.2267852592
  H        -3.8576794483       11.3969774169        3.6528152245
  H        -2.4672654570        8.4789769234       10.3134323429
  H         7.4945898530        5.8076669934       12.8819897156
  H         6.1025366468        8.7295733274        6.2217809652
  H        -3.3164913837        8.6784477820        4.8762202779
  H         0.5381881582        0.1658381936       11.6034249141
  H         6.9523438174        8.5264260162       11.6587911410
  H         8.2473981223        5.5668118457        4.9325070057
  H         5.4014079547        5.6552709067        4.8771163517
  H        -1.5601629365        8.4411621010       11.6072937302
  H         3.3830086227        0.0807099992       11.6581595449
  H         5.1957483773        8.7662117514        4.9272938738
     192
 i =       29, E =     -2324.1006726580
 Ca         9.2968436199        1.4237561690        2.7279376341
 Ca         2.3275077370        4.2991536005        9.4438973680
 Ca        -0.5125535063        4.3099152165       13.8073242978
 Ca         0.7779521142        1.4359542164        7.0901921200
  S         2.3315333436        4.2938844429        2.5491305575
  S         9.2958287088        1.4334786881        9.2506473758
  S         0.7739093623        1.4422504009       13.9861844473
  S        -0.5112099480        4.3018107558        7.2848268937
  O         7.5306389348        3.1144278696        3.3877062768
  O         8.7984514832        0.2974473891       10.0890722800
  O         1.2545709648        2.6191778685       13.1468773660
  O        -0.0124680316        5.4373266947        6.4463492013
  O         2.8102733052        5.4646629480        3.3964685571
  O         9.7912380139        2.5694596394       10.0901160859
  O         5.9736139066        0.2703062434       13.1395477086
  O        -1.0080607830        3.1664702628        6.4451945983
  O         9.1527187983        3.7373648480        1.8171824383
  O        10.3759747150        0.8605509738        8.4256305662
  O        -0.3678146768        1.9974094127       14.7175048509
  O        -1.5906009678        4.8759212817        8.1100565456
  O         1.1909042538        4.8542459456        1.8192282657
  O         8.2169154000        2.0066685686        8.4238296478
  O         7.5942162841        0.8814870845       14.7152233962
  O         0.5670475813        3.7273088003        8.1116848155
  O        -0.6423387425        2.6500568263        3.9408387309
  O        -2.0312099398        5.6698343116       10.6461961307
  O         9.4260528298        3.0856246677       12.5941210724
  O        10.8148483802        0.0640362632        5.8903180995
  O         7.8721813042        0.2147881364        3.9434432352
  O         1.0141501001        2.9160624886       10.6458390155
  O         0.9119260022        5.5196768555       12.5919404906
  O         7.7698954221        2.8238741538        5.8903555719
  H         0.2617822237        2.9344176208        3.6519475865
  H         7.1222770108        0.1219067113       10.3103521792
  H         8.5217956108        2.8004985194       12.8832671445
  H         1.6623619565        5.6117450971        6.2265045709
  H        -1.2822410479        5.6600320387        3.6541411155
  H         0.1082142245        2.7423116442       10.3138186082
  H        10.0669560033        0.0745265833       12.8815120396
  H         8.6764313547        2.9953146717        6.2225051578
  H        -0.7431956198        2.9429882999        4.8766777630
  H        -2.0375263992        5.9029372101       11.6027775933
  H         9.5280896379        2.7913909923       11.6590977432
  H         5.6727015329       11.2985120757        4.9342636199
  H         2.8283848977       11.3895305055        4.8781509061
  H         1.0152968038        2.7061287202       11.6080723995
  H         0.8071466111        5.8166562295       11.6579510329
  H         7.7702957863        3.0321336512        4.9274720261
 Ca         3.6175417828        1.4251574744        2.7289784709
 Ca         8.0067646769        4.2994893463        9.4438158375
 Ca         5.1664854277        4.3096652640       13.8068582978
 Ca         6.4570690030        1.4362891395        7.0900290951
  S         8.0110499181        4.2917638417        2.5492211201
  S         3.6169104056        1.4334690033        9.2506216598
  S         6.4530787170        1.4416196888       13.9862355608
  S         5.1677670223        4.3018373782        7.2850176714
  O         1.8511762782        3.1179223343        3.3892455667
  O         3.1195290601        0.2974361145       10.0890173207
  O         6.9336756773        2.6180988416       13.1463347560
  O         5.6662579192        5.4374162372        6.4465184343
  O         8.4895157678        5.4615541352        3.3979531029
  O         4.1122947136        2.5694430475       10.0900884257
  O         0.2944948092        0.2713343444       13.1389322445
  O         4.6711506072        3.1664411561        6.4453677195
  O         3.4728952735        3.7383511412        1.8174263402
  O         4.6970678073        0.8606151524        8.4255953368
  O         5.3114496006        1.9971474117       14.7174649657
  O         4.0882651794        4.8757528968        8.1102141484
  O         6.8704842786        4.8528465302        1.8197181135
  O         2.5379777474        2.0066126758        8.4238365145
  O         1.9149661962        0.8817894208       14.7150941288
  O         6.2461327658        3.7275004817        8.1118130205
  O         5.0368504877        2.6504491986        3.9411044185
  O         3.6477776466        5.6692709084       10.6461219674
  O         3.7469910133        3.0855017500       12.5940353899
  O         5.1357100946        0.0642324499        5.8905755205
  O         2.1930912502        0.2149538538        3.9433928552
  O         6.6929699251        2.9173262203       10.6458579497
  O         6.5909823166        5.5197300976       12.5919164651
  O         2.0918985083        2.8216629964        5.8906312762
  H         5.9414458411        2.9333616987        3.6521718662
  H         1.4432196360        0.1214829729       10.3099660806
  H         2.8426231685        2.8007614759       12.8832243326
  H         7.3409002243        5.6121343290        6.2272230780
  H         4.3961852015        5.6610969852        3.6543884735
  H         5.7873291482        2.7428131366       10.3134954286
  H         4.3880947096        0.0742763344       12.8814838021
  H         2.9979224607        2.9947796603        6.2232166073
  H         4.9361147576        2.9434379814        4.8769577696
  H         3.6414277471        5.9031055188       11.6025374376
  H         3.8490270434        2.7912446473       11.6590078468
  H        -0.0063363227       11.2983756039        4.9346324402
  H        -2.8508052853       11.3900469522        4.8782202227
  H         6.6943477306        2.7058840202       11.6077514912
  H         6.4862211383        5.8165680248       11.6578687478
  H         2.0912450525        3.0335471331        4.9286195544
 Ca         1.0435957624        7.1603447290        2.7256498198
 Ca         5.4321761167       10.0344523322        9.4444536182
 Ca         2.5924547815       10.0452365259       13.8087387877
 Ca         3.8833158238        7.1716684498        7.0896464449
  S         5.4363921608       10.0263985972        2.5492544797
  S         1.0432662027        7.1690868529        9.2503750989
  S         3.8792388295        7.1786466177       13.9861139952
  S         2.5931357036       10.0369535341        7.2851375044
  O        -0.7232790412        8.8483714701        3.3862770355
  O         0.5459590593        6.0330348598       10.0887116079
  O         4.3599381722        8.3567471645       13.1481499131
  O         3.0914632592       11.1725355691        6.4465924602
  O         5.9147122397       11.1953999916        3.3991219246
  O         1.5386872408        8.3050110830       10.0899825626
  O        -2.2789916794        6.0083229867       13.1379107448
  O         2.0963512274        8.9015574741        6.4454919774
  O         0.8990560129        9.4734435968        1.8168668149
  O         2.1234872051        6.5962046610        8.4253190447
  O         2.7372745281        7.7329771609       14.7176777049
  O         1.5137778315       10.6110074907        8.1105020005
  O         4.2959519205       10.5881717416        1.8200952344
  O        -0.0356287153        7.7423321576        8.4235120626
  O        -0.6587419858        6.6175086754       14.7147785516
  O         3.6716350056        9.4626879748        8.1119080307
  O         2.4618676704        8.3856752630        3.9409794757
  O         1.0726547677       11.4073188208       10.6465080899
  O         1.1735774054        8.8211320476       12.5940453555
  O         2.5639597300        5.7970886668        5.8895323406
  O        -0.3799892879        5.9506216406        3.9431555158
  O         4.1205176079        8.6480915225       10.6458009522
  O         4.0164690590       11.2549463380       12.5920620937
  O        -0.4843164018        8.5613074785        5.8897427425
  H         3.3666660858        8.6678885340        3.6520020568
  H        -1.1300607738        5.8566879554       10.3094576029
  H         0.2689515880        8.5371248716       12.8832864590
  H         4.7660024660       11.3474531177        6.2278748020
  H         1.8220549295       11.3946179441        3.6544793936
  H         3.2138560956        8.4766653679       10.3143722379
  H         1.8142038644        5.8109714043       12.8813839989
  H         0.4226644720        8.7315522491        6.2213988876
  H         2.3613360621        8.6790512730        4.8766750026
  H         6.2151676109        0.1665544726       11.6038444601
  H         1.2755119938        8.5262610238       11.6592686578
  H         2.5682869466        5.5658679316        4.9321553216
  H        -0.2757813491        5.6542599232        4.8777360655
  H         4.1206538722        8.4418167000       11.6088837908
  H         9.0595447887        0.0817442529       11.6583177631
  H        -0.4832018421        8.7664182350        4.9261086217
 Ca         6.7229477016        7.1591328463        2.7264334419
 Ca        -0.2466049109       10.0347349358        9.4445254443
 Ca        -3.0865661215       10.0454018127       13.8082848621
 Ca        -1.7956128967        7.1718856350        7.0897448493
  S        -0.2428934448       10.0269259907        2.5492281884
  S         6.7222031927        7.1690794245        9.2503620081
  S        -1.7996952016        7.1784980262       13.9861428418
  S        -3.0858121996       10.0369443547        7.2851627228
  O         4.9560214875        8.8479678835        3.3864849048
  O         6.2248896590        6.0330576297       10.0886949207
  O        -1.3190402330        8.3563591181       13.1478316606
  O        -2.5876404447       11.1725737468        6.4466412871
  O         0.2356424909       11.1956797524        3.3993133740
  O         7.2175953660        8.3050206654       10.0899311893
  O         3.3999233907        6.0087090083       13.1375481017
  O        -3.5824710552        8.9014824384        6.4455764222
  O         6.5783398243        9.4729127426        1.8169492199
  O         7.8024841741        6.5962365814        8.4253955062
  O        -2.9416337584        7.7329582035       14.7176855333
  O        -4.1652555520       10.6108372865        8.1105369522
  O        -1.3832004365       10.5889495987        1.8201249205
  O         5.6433260372        7.7422529192        8.4234424928
  O         5.0201334186        6.6174772208       14.7147442758
  O        -2.0071838747        9.4628569345        8.1118834647
  O        -3.2170996729        8.3855076863        3.9409707575
  O        -4.6061816823       11.4064081209       10.6463979740
  O         6.8525090358        8.8210842780       12.5939994906
  O         8.2421175770        5.7986780924        5.8899364976
  O         5.2989093969        5.9503332933        3.9433924700
  O        -1.5587248657        8.6489649285       10.6458162156
  O        -1.6624977425       11.2550809013       12.5919908142
  O         5.1948952509        8.5612002586        5.8900916460
  H        -2.3123690111        8.6679440868        3.6519729527
  H         4.5487818277        5.8563783885       10.3091479471
  H         5.9478725422        8.5372113619       12.8833204309
  H        -0.9131561511       11.3476247202        6.2281404513
  H        -3.8569953684       11.3946781580        3.6544414255
  H        -2.4651884468        8.4770588359       10.3141453995
  H         7.4932643216        5.8109031177       12.8814138948
  H         6.1018889447        8.7314097537        6.2217888993
  H        -3.3175473533        8.6785425540        4.8767780527
  H         0.5361392716        0.1668868992       11.6034459075
  H         6.9544164732        8.5263242081       11.6591688977
  H         8.2473752147        5.5643843676        4.9333579930
  H         5.4029405059        5.6538643868        4.8779691841
  H        -1.5584625096        8.4417141840       11.6086915057
  H         3.3806719680        0.0818365377       11.6582155764
  H         5.1959729179        8.7665851282        4.9265416144
     192
 i =       30, E =     -2324.1007105995
 Ca         9.2983986226        1.4188818141        2.7282924235
 Ca         2.3267474562        4.2980910239        9.4434849862
 Ca        -0.5135530155        4.3145961751       13.8091041200
 Ca         0.7787900403        1.4370516193        7.0890780402
  S         2.3330532725        4.2896235411        2.5488099375
  S         9.2962894451        1.4333147761        9.2508619649
  S         0.7723995746        1.4466206752       13.9866143995
  S        -0.5116859469        4.3019173527        7.2855798047
  O         7.5311546549        3.1077956498        3.3846961182
  O         8.7972273341        0.2972823884       10.0884753438
  O         1.2560741883        2.6242915688       13.1500215513
  O        -0.0108850071        5.4369499354        6.4475135937
  O         2.8119525571        5.4585331982        3.3986529583
  O         9.7923614932        2.5691817034       10.0902855272
  O         5.9700734852        0.2772188429       13.1379570468
  O        -1.0097609686        3.1672550711        6.4456526890
  O         9.1552005649        3.7340246223        1.8166416262
  O        10.3770253080        0.8604357469        8.4260134216
  O        -0.3688463750        2.0020221870       14.7187877515
  O        -1.5911913998        4.8765587201        8.1101917089
  O         1.1931320324        4.8524181644        1.8193138951
  O         8.2174151674        2.0067097940        8.4233964476
  O         7.5915220286        0.8819742431       14.7153945887
  O         0.5661463397        3.7266531619        8.1124921567
  O        -0.6430678191        2.6489990334        3.9423438787
  O        -2.0338147194        5.6678565692       10.6466923671
  O         9.4279548107        3.0862329174       12.5946156054
  O        10.8141714652        0.0666496561        5.8907413253
  O         7.8724598741        0.2145383094        3.9462901188
  O         1.0187041068        2.9097360885       10.6465501192
  O         0.9108142855        5.5203959694       12.5911890771
  O         7.7670943663        2.8328202346        5.8907186472
  H         0.2612213987        2.9332563915        3.6536252598
  H         7.1183892659        0.1241150483       10.3094594205
  H         8.5239820113        2.7999008301       12.8836402327
  H         1.6637002215        5.6100256074        6.2292503740
  H        -1.2809986951        5.6561953064        3.6570874171
  H         0.1118270050        2.7382576944       10.3150098887
  H        10.0643511533        0.0799916380       12.8807310635
  H         8.6751759773        2.9993502692        6.2224224227
  H        -0.7447387328        2.9425487367        4.8777884288
  H        -2.0413381723        5.9065576233       11.6018077373
  H         9.5312079774        2.7921666018       11.6599194272
  H         5.6729379597       11.2931277822        4.9369281845
  H         2.8311501149       11.3870279864        4.8799925272
  H         1.0181093472        2.7064921693       11.6104157821
  H         0.8033920889        5.8182426960       11.6579409927
  H         7.7707158677        3.0328661191        4.9261067528
 Ca         3.6188652796        1.4209741170        2.7297811070
 Ca         8.0060817349        4.2986445158        9.4433917343
 Ca         5.1655336783        4.3141762757       13.8084159817
 Ca         6.4579671231        1.4375898533        7.0887898045
  S         8.0130558513        4.2869410359        2.5489170093
  S         3.6173945699        1.4332969396        9.2508346669
  S         6.4516580148        1.4457969623       13.9866876829
  S         5.1672829257        4.3019646254        7.2858517842
  O         1.8510156053        3.1120587356        3.3863470417
  O         3.1184367426        0.2972116838       10.0884050649
  O         6.9352768450        2.6229444090       13.1494021091
  O         5.6677275931        5.4370942610        6.4477448382
  O         8.4914899001        5.4550095751        3.4001563250
  O         4.1133498230        2.5691742983       10.0902860597
  O         0.2909401179        0.2784184006       13.1372558408
  O         4.6695430107        3.1672190642        6.4458770176
  O         3.4747844714        3.7353223340        1.8169359529
  O         4.6982000967        0.8605845384        8.4259781525
  O         5.3105672602        2.0016519669       14.7187723951
  O         4.0876412020        4.8763450667        8.1104518695
  O         6.8729968697        4.8502841675        1.8200089215
  O         2.5384530783        2.0065975167        8.4234328218
  O         1.9121690933        0.8824443240       14.7152399533
  O         6.2452497823        3.7269175560        8.1127128285
  O         5.0362692165        2.6496150406        3.9426976844
  O         3.6450407166        5.6671945121       10.6466192356
  O         3.7488537261        3.0860064077       12.5945042876
  O         5.1350926366        0.0669727736        5.8908399673
  O         2.1932131082        0.2147525758        3.9461552945
  O         6.6974869770        2.9115606707       10.6466396569
  O         6.5898968658        5.5204904269       12.5911814852
  O         2.0896784773        2.8291460706        5.8908116105
  H         5.9411843057        2.9318994514        3.6539765214
  H         1.4392165399        0.1236828061       10.3089602060
  H         2.8446957346        2.8002199485       12.8835129833
  H         7.3420999080        5.6104943486        6.2299878739
  H         4.3971692819        5.6576916865        3.6573999598
  H         5.7910827372        2.7388495289       10.3145658740
  H         4.3855831115        0.0796886580       12.8806591979
  H         2.9968916069        2.9985685496        6.2232291529
  H         4.9347497857        2.9432709886        4.8781662276
  H         3.6374988102        5.9067543637       11.6015388185
  H         3.8521979359        2.7918815595       11.6598157658
  H        -0.0060041609       11.2934588059        4.9370605967
  H        -2.8481442973       11.3878665313        4.8800571046
  H         6.6972834962        2.7061587885       11.6100298246
  H         6.4824269489        5.8181600186       11.6578683724
  H         2.0915800513        3.0346088438        4.9274706855
 Ca         1.0447822777        7.1560711459        2.7255885551
 Ca         5.4313017964       10.0333072077        9.4442616789
 Ca         2.5914932857       10.0497797284       13.8108759362
 Ca         3.8842716655        7.1729863102        7.0882483913
  S         5.4383120747       10.0214700665        2.5489387327
  S         1.0437658655        7.1689566007        9.2504724308
  S         3.8777975109        7.1831397501       13.9865727900
  S         2.5923915661       10.0368768174        7.2860231210
  O        -0.7226635706        8.8423568393        3.3834833623
  O         0.5447458092        6.0329040596       10.0879525537
  O         4.3613356255        8.3621996775       13.1514688324
  O         3.0928467412       11.1719371593        6.4479109573
  O         5.9165521215       11.1887408746        3.4013720826
  O         1.5399079174        8.3046864317       10.0901023436
  O        -2.2823705785        6.0156246634       13.1360645390
  O         2.0944790651        8.9021822765        6.4459473727
  O         0.9012087329        9.4703706862        1.8161894025
  O         2.1245760150        6.5961357912        8.4255243706
  O         2.7362373858        7.7374447883       14.7190478961
  O         1.5128340983       10.6114864187        8.1106293062
  O         4.2982893341       10.5853883353        1.8203826291
  O        -0.0350588072        7.7424491901        8.4229305843
  O        -0.6613894483        6.6182822027       14.7148664563
  O         3.6703660425        9.4619215066        8.1130179452
  O         2.4611324939        8.3846024361        3.9424080130
  O         1.0699584669       11.4057391907       10.6471469278
  O         1.1755394401        8.8217109880       12.5945148993
  O         2.5640443475        5.7983151294        5.8898900735
  O        -0.3797094020        5.9505529607        3.9458676456
  O         4.1257384050        8.6404268576       10.6464395934
  O         4.0152651734       11.2556045454       12.5913470527
  O        -0.4876614193        8.5712771162        5.8902971748
  H         3.3663128654        8.6660229527        3.6537010246
  H        -1.1340141985        5.8588464340       10.3083988289
  H         0.2711074774        8.5369322792       12.8836632764
  H         4.7669897812       11.3457890271        6.2309165230
  H         1.8232798769       11.3906519758        3.6574479946
  H         3.2178908935        8.4720359706       10.3157155549
  H         1.8116328786        5.8167233767       12.8805240295
  H         0.4210749371        8.7357626258        6.2213994221
  H         2.3596809443        8.6790179010        4.8775828798
  H         6.2114508325        0.1697005246       11.6032357552
  H         1.2787636460        8.5266533310       11.6601539678
  H         2.5684273153        5.5610446894        4.9341933133
  H        -0.2728808583        5.6517136848        4.8793342303
  H         4.1237139601        8.4422193634       11.6114447317
  H         9.0556204590        0.0836118737       11.6584623614
  H        -0.4830570616        8.7673911652        4.9248131326
 Ca         6.7244348262        7.1543473449        2.7265300509
 Ca        -0.2474800931       10.0337226159        9.4443767464
 Ca        -3.0875934080       10.0500407600       13.8102235858
 Ca        -1.7945923029        7.1733147113        7.0883870176
  S        -0.2410348861       10.0226347020        2.5488902903
  S         6.7226740726        7.1689592012        9.2504952427
  S        -1.8011353293        7.1830040471       13.9865942206
  S        -3.0865224254       10.0368527806        7.2860198252
  O         4.9565578431        8.8411732753        3.3834896472
  O         6.2237136458        6.0328941015       10.0879476238
  O        -1.3176578039        8.3619077776       13.1512164169
  O        -2.5863058214       11.1719841561        6.4479107842
  O         0.2376610931       11.1897405549        3.4013502647
  O         7.2186813966        8.3047510337       10.0900836990
  O         3.3965543835        6.0159054681       13.1357799006
  O        -3.5843403982        8.9020812711        6.4460307962
  O         6.5806634192        9.4694822543        1.8163653137
  O         7.8035932521        6.5962542611        8.4256502276
  O        -2.9426174399        7.7374651350       14.7190557060
  O        -4.1661752785       10.6112596101        8.1106787134
  O        -1.3809765153       10.5866939132        1.8204725288
  O         5.6438544815        7.7423170471        8.4228619844
  O         5.0174313483        6.6181767921       14.7148444713
  O        -2.0083754565        9.4621090744        8.1129625246
  O        -3.2177406521        8.3844028203        3.9423796466
  O        -4.6088991160       11.4046285513       10.6470006912
  O         6.8544706564        8.8216296417       12.5944807556
  O         8.2418566192        5.8007193171        5.8902166573
  O         5.2990834461        5.9501269124        3.9461466558
  O        -1.5535840732        8.6416727263       10.6465185715
  O        -1.6636593066       11.2558445869       12.5912558575
  O         5.1914679817        8.5711458671        5.8905476828
  H        -2.3127652108        8.6663973049        3.6536588482
  H         4.5446243420        5.8585468711       10.3080105195
  H         5.9500026582        8.5369615240       12.8836361482
  H        -0.9121216595       11.3459895167        6.2309443843
  H        -3.8558233775       11.3905453594        3.6573529414
  H        -2.4611095798        8.4724888017       10.3153983446
  H         7.4907336774        5.8167146082       12.8805003990
  H         6.1002276701        8.7356741839        6.2216292488
  H        -3.3191930094        8.6782427614        4.8777403987
  H         0.5323277135        0.1702068910       11.6027126571
  H         6.9576673814        8.5267053426       11.6600622608
  H         8.2476768323        5.5592154271        4.9356407704
  H         5.4057084831        5.6511409786        4.8796055889
  H        -1.5553836429        8.4421583728       11.6112510243
  H         3.3766956110        0.0838011271       11.6583335770
  H         5.1960880847        8.7671363989        4.9250443261
     192
 i =       31, E =     -2324.1007595068
 Ca         9.2999815406        1.4150527755        2.7274866271
 Ca         2.3260856060        4.2972240808        9.4434297415
 Ca        -0.5145487218        4.3182362745       13.8112622971
 Ca         0.7794794940        1.4380268789        7.0883559735
  S         2.3344260664        4.2865082365        2.5487723938
  S         9.2967120046        1.4333359247        9.2508760929
  S         0.7709628106        1.4496682613       13.9865940734
  S        -0.5122197911        4.3019275338        7.2860691558
  O         7.5325277161        3.1031355995        3.3830661300
  O         8.7966994203        0.2972258614       10.0880675526
  O         1.2555156342        2.6280575725       13.1516481262
  O        -0.0105627328        5.4369438091        6.4483386196
  O         2.8126518066        5.4548439554        3.4000309623
  O         9.7929775443        2.5690799255       10.0905692706
  O         5.9686501593        0.2814912619       13.1365903261
  O        -1.0103379182        3.1674844851        6.4457724906
  O         9.1573794946        3.7318939829        1.8165918840
  O        10.3778756234        0.8605785897        8.4263354345
  O        -0.3699585997        2.0047536350       14.7196401349
  O        -1.5920769371        4.8764333895        8.1099941021
  O         1.1943947806        4.8498852752        1.8194449674
  O         8.2179133910        2.0067190468        8.4230012917
  O         7.5895883113        0.8834703438       14.7156665937
  O         0.5653698335        3.7266570176        8.1130665484
  O        -0.6432950888        2.6478739974        3.9429487600
  O        -2.0344037664        5.6668900981       10.6462015740
  O         9.4289571979        3.0868117879       12.5954193083
  O        10.8132916668        0.0689331784        5.8912870629
  O         7.8723794466        0.2146448078        3.9481485601
  O         1.0217250095        2.9035558915       10.6460961546
  O         0.9102382030        5.5209501248       12.5910267139
  O         7.7647961062        2.8401041361        5.8914934516
  H         0.2614315658        2.9310366419        3.6541367053
  H         7.1168423962        0.1258766245       10.3080104098
  H         8.5248059614        2.8013365664       12.8844310976
  H         1.6641432198        5.6089413180        6.2310519329
  H        -1.2805491997        5.6544546628        3.6585825106
  H         0.1136435761        2.7350714677       10.3153292349
  H        10.0630278139        0.0825786449       12.8805746612
  H         8.6743607732        3.0024116185        6.2221535058
  H        -0.7448392590        2.9414749688        4.8782812806
  H        -2.0431582872        5.9103609438       11.6000629413
  H         9.5318372587        2.7936218872       11.6604892164
  H         5.6733002116       11.2896965015        4.9392424735
  H         2.8324322781       11.3856877368        4.8811791992
  H         1.0192889511        2.7059068204       11.6113211410
  H         0.8020001930        5.8186796157       11.6578495346
  H         7.7707127662        3.0328317860        4.9254240097
 Ca         3.6201588132        1.4176002868        2.7292702349
 Ca         8.0054678963        4.2979296432        9.4432821846
 Ca         5.1645501037        4.3177367574       13.8104563447
 Ca         6.4587266194        1.4386816436        7.0880176760
  S         8.0147652918        4.2836376787        2.5488710588
  S         3.6178470315        1.4333065379        9.2508627305
  S         6.4502683455        1.4488199940       13.9866688436
  S         5.1667514737        4.3020073133        7.2863975060
  O         1.8519233112        3.1074981112        3.3845363841
  O         3.1180200958        0.2970808642       10.0879801607
  O         6.9348210580        2.6266736117       13.1510599975
  O         5.6680047919        5.4371350927        6.4486036087
  O         8.4923792764        5.4513197648        3.4013934093
  O         4.1139013656        2.5690963143       10.0905964553
  O         0.2895072899        0.2826783022       13.1359092231
  O         4.6690430224        3.1674607281        6.4460146345
  O         3.4765807652        3.7333671868        1.8168579039
  O         4.6991176733        0.8608122377        8.4262691034
  O         5.3095129152        2.0043068304       14.7196542067
  O         4.0867191131        4.8761983368        8.1103088665
  O         6.8743985169        4.8472402077        1.8201946420
  O         2.5389323382        2.0065422376        8.4230656206
  O         1.9102286958        0.8840790776       14.7155173889
  O         6.2444564373        3.7269579282        8.1133839260
  O         5.0362044138        2.6486356548        3.9433328987
  O         3.6443608141        5.6661921924       10.6461306096
  O         3.7498076429        3.0865282044       12.5953177282
  O         5.1343284469        0.0692339331        5.8913072601
  O         2.1930444457        0.2148902362        3.9479257740
  O         6.7004668218        2.9057968122       10.6462195681
  O         6.5893666466        5.5210812128       12.5910363999
  O         2.0877750745        2.8354909188        5.8914079868
  H         5.9416285769        2.9295162849        3.6545237083
  H         1.4376700838        0.1254458587       10.3074826539
  H         2.8454172263        2.8016885788       12.8842513105
  H         7.3424816584        5.6095069449        6.2318056454
  H         4.3975214447        5.6561405677        3.6589380815
  H         5.7929394731        2.7357641452       10.3148621538
  H         4.3843151758        0.0822462583       12.8804456783
  H         2.9963089939        3.0013319453        6.2229526905
  H         4.9348055072        2.9424374663        4.8786898803
  H         3.6355830575        5.9105312707       11.5997792552
  H         3.8528296599        2.7932635302       11.6603940256
  H        -0.0056498215       11.2903567927        4.9391865483
  H        -2.8469861849       11.3867606298        4.8812199817
  H         6.6985236413        2.7055508674       11.6108837012
  H         6.4810049988        5.8185517517       11.6577753684
  H         2.0916140091        3.0347578599        4.9268087855
 Ca         1.0459948521        7.1526563517        2.7246963487
 Ca         5.4305627746       10.0324396459        9.4444671042
 Ca         2.5904997742       10.0533308384       13.8132478911
 Ca         3.8849721319        7.1739168527        7.0872327542
  S         5.4400025423       10.0181377629        2.5488801332
  S         1.0443165438        7.1690211641        9.2504027800
  S         3.8763651135        7.1860116682       13.9865843072
  S         2.5916741588       10.0367679120        7.2866159709
  O        -0.7213247644        8.8382436042        3.3820852169
  O         0.5443426707        6.0328974536       10.0874484113
  O         4.3606189926        8.3658333654       13.1531097296
  O         3.0930570927       11.1717903596        6.4488608214
  O         5.9173248389       11.1851064804        3.4025192199
  O         1.5406322183        8.3045774951       10.0903770671
  O        -2.2837091923        6.0198444079       13.1347391964
  O         2.0937613986        8.9023413879        6.4460543348
  O         0.9032420581        9.4686144634        1.8160506248
  O         2.1255479834        6.5963355682        8.4257323364
  O         2.7351924782        7.7400884369       14.7199243151
  O         1.5117155003       10.6112671320        8.1104258882
  O         4.2996702140       10.5822240687        1.8204966684
  O        -0.0343857300        7.7425325900        8.4223921833
  O        -0.6632895617        6.6199694132       14.7151102764
  O         3.6692403254        9.4617488318        8.1138800839
  O         2.4610043768        8.3834455159        3.9429541148
  O         1.0690500477       11.4049628094       10.6465900882
  O         1.1765938896        8.8222675373       12.5953347415
  O         2.5637109378        5.7997427714        5.8905100531
  O        -0.3797991333        5.9508013291        3.9476482187
  O         4.1291760849        8.6333912996       10.6459194029
  O         4.0146362683       11.2560301089       12.5912019414
  O        -0.4903261899        8.5790624340        5.8912732998
  H         3.3667229679        8.6634027029        3.6542434188
  H        -1.1353921277        5.8607026340       10.3068074026
  H         0.2719216823        8.5385845497       12.8843959553
  H         4.7671652480       11.3447321024        6.2328792100
  H         1.8237009202       11.3889062449        3.6589906200
  H         3.2200579601        8.4683632090       10.3160577371
  H         1.8103774031        5.8194230807       12.8803106503
  H         0.4199512494        8.7389925681        6.2212263842
  H         2.3595678906        8.6782638065        4.8779136569
  H         6.2096809980        0.1731437470       11.6015949577
  H         1.2794216633        8.5278775796       11.6607976778
  H         2.5687748636        5.5579039226        4.9362124558
  H        -0.2715327759        5.6503347728        4.8804016273
  H         4.1251706428        8.4415825489       11.6124159859
  H         9.0541579861        0.0842371048       11.6584803923
  H        -0.4833178424        8.7677383269        4.9243600662
 Ca         6.7259638250        7.1505568317        2.7256913513
 Ca        -0.2481664024       10.0330099096        9.4446888616
 Ca        -3.0886065940       10.0536327446       13.8125083688
 Ca        -1.7938715465        7.1742898051        7.0874390811
  S        -0.2394563614       10.0197335842        2.5488305886
  S         6.7231926777        7.1690379078        9.2504519268
  S        -1.8026050244        7.1860735873       13.9865980963
  S        -3.0872442925       10.0367286749        7.2865561879
  O         4.9579649626        8.8366003956        3.3820120334
  O         6.2233674413        6.0328563638       10.0874629982
  O        -1.3183605591        8.3656813265       13.1528194772
  O        -2.5860954387       11.1718343630        6.4488118533
  O         0.2384777233       11.1865163167        3.4024251323
  O         7.2192949552        8.3046994736       10.0903832264
  O         3.3952087350        6.0199715642       13.1344385543
  O        -3.5850763187        8.9022084806        6.4460987907
  O         6.5828030759        9.4673170014        1.8163121720
  O         7.8046142479        6.5965389523        8.4259241481
  O        -2.9437304245        7.7401259552       14.7199924773
  O        -4.1672729003       10.6110321626        8.1104805139
  O        -1.3796471975       10.5840575225        1.8206563210
  O         5.6444720361        7.7423477047        8.4223149634
  O         5.0156210308        6.6198537050       14.7151507344
  O        -2.0094695644        9.4619565533        8.1137785219
  O        -3.2178412274        8.3832165558        3.9428774931
  O        -4.6097766481       11.4037504254       10.6464187535
  O         6.8554458302        8.8221500733       12.5953056185
  O         8.2413152311        5.8026681958        5.8907294172
  O         5.2989681274        5.9503159173        3.9479325811
  O        -1.5501653695        8.6348344017       10.6459980681
  O        -1.6642947983       11.2563212410       12.5911315789
  O         5.1886892568        8.5790135059        5.8914398965
  H        -2.3124338177        8.6640485367        3.6541630391
  H         4.5431338109        5.8603983411       10.3064035780
  H         5.9507514739        8.5385587464       12.8843993626
  H        -0.9118698289       11.3450130867        6.2327588096
  H        -3.8553978949       11.3885914505        3.6588317866
  H        -2.4589515983        8.4688860796       10.3157603164
  H         7.4895282546        5.8194626065       12.8802868665
  H         6.0990163689        8.7388799851        6.2213439705
  H        -3.3192515382        8.6773055389        4.8780737538
  H         0.5305111421        0.1737601413       11.6009826527
  H         6.9583536259        8.5279582190       11.6606877160
  H         8.2480909850        5.5558612720        4.9377709417
  H         5.4069306750        5.6496109388        4.8806643658
  H        -1.5539440793        8.4416227189       11.6122166974
  H         3.3752592867        0.0844519065       11.6583661683
  H         5.1958466292        8.7671504572        4.9244010126
     192
 i =       32, E =     -2324.1008271736
 Ca         9.3058032419        1.4024781636        2.7248297766
 Ca         2.3236944378        4.2944672349        9.4441192819
 Ca        -0.5184078339        4.3302140612       13.8180215262
 Ca         0.7818590170        1.4412496271        7.0868983264
  S         2.3393363261        4.2758384239        2.5495826385
  S         9.2984280384        1.4335752972        9.2504963467
  S         0.7658829575        1.4598576370       13.9862661431
  S        -0.5143050549        4.3018228094        7.2874281915
  O         7.5385171100        3.0883086920        3.3802196551
  O         8.7955070521        0.2973288233       10.0865825654
  O         1.2511717399        2.6402985930       13.1552199340
  O        -0.0110599561        5.4373426368        6.4508479489
  O         2.8142425705        5.4436707392        3.4043776451
  O         9.7948911931        2.5686972322       10.0914696169
  O         5.9657435886        0.2940758484       13.1326289865
  O        -1.0110258174        3.1677191461        6.4456184108
  O         9.1652113927        3.7254481315        1.8173226954
  O        10.3803585768        0.8607381734        8.4271079250
  O        -0.3741320824        2.0129893948       14.7224303298
  O        -1.5954624349        4.8754604525        8.1089998381
  O         1.1982848686        4.8397763772        1.8208130984
  O         8.2205695163        2.0074656393        8.4212834927
  O         7.5836830898        0.8906253654       14.7165148561
  O         0.5621955185        3.7270089262        8.1153189652
  O        -0.6434838792        2.6446658472        3.9432144260
  O        -2.0337609176        5.6624606025       10.6436642352
  O         9.4313526190        3.0883514028       12.5981079668
  O        10.8093529120        0.0786174016        5.8931273805
  O         7.8720631957        0.2149411723        3.9531316993
  O         1.0306342210        2.8812780996       10.6431458210
  O         0.9085878787        5.5230212362       12.5904958853
  O         7.7568563028        2.8641683988        5.8953980091
  H         0.2632097178        2.9222654432        3.6543037061
  H         7.1141878094        0.1305096209       10.3024595026
  H         8.5261876636        2.8083931187       12.8874071370
  H         1.6647454863        5.6067349136        6.2369839204
  H        -1.2794883205        5.6498617892        3.6623768367
  H         0.1179544579        2.7253371840       10.3159206342
  H        10.0593849918        0.0892830548       12.8803944734
  H         8.6715381325        3.0117163543        6.2212348105
  H        -0.7434445975        2.9369199445        4.8788937170
  H        -2.0469597103        5.9233875536       11.5928809334
  H         9.5309407624        2.7991657941       11.6615059495
  H         5.6746506947       11.2798572082        4.9472085020
  H         2.8354105603       11.3813420128        4.8842792743
  H         1.0217853711        2.7039985029       11.6131969447
  H         0.7995488208        5.8200128540       11.6567739383
  H         7.7701723968        3.0311938432        4.9241619002
 Ca         3.6249686830        1.4060427532        2.7272907987
 Ca         8.0032251797        4.2956234866        9.4438601056
 Ca         5.1608350236        4.3295044347       13.8169447192
 Ca         6.4613101303        1.4422476672        7.0864722848
  S         8.0205804333        4.2724778916        2.5497132238
  S         3.6196595488        1.4335191550        9.2504881544
  S         6.4452774262        1.4590645729       13.9863349179
  S         5.1646415096        4.3020031416        7.2879593802
  O         1.8566294996        3.0927677514        3.3809439258
  O         3.1171922207        0.2969707988       10.0864281377
  O         6.9307621850        2.6389767982       13.1548266043
  O         5.6674284835        5.4376710128        6.4512823274
  O         8.4944869864        5.4403982805        3.4050579249
  O         4.1156764524        2.5687468760       10.0915871899
  O         0.2865794421        0.2950710718       13.1321510255
  O         4.6685745983        3.1677643285        6.4458727924
  O         3.4833183777        3.7273675387        1.8173906158
  O         4.7018269481        0.8612129168        8.4269275337
  O         5.3054769058        2.0124540387       14.7225015310
  O         4.0832166248        4.8752118012        8.1095079672
  O         6.8787484406        4.8356760646        1.8216156358
  O         2.5415311995        2.0071049567        8.4213872909
  O         1.9043668345        0.8915899208       14.7163791330
  O         6.2411681190        3.7274251039        8.1159909855
  O         5.0365269898        2.6458188748        3.9435483130
  O         3.6447086224        5.6617116781       10.6435650918
  O         3.7520284865        3.0879371511       12.5980793522
  O         5.1308354336        0.0786945767        5.8929588123
  O         2.1923665026        0.2151375749        3.9526959751
  O         6.7092636441        2.8846141859       10.6434124789
  O         6.5877903364        5.5232004529       12.5906076829
  O         2.0810625886        2.8571064178        5.8945570390
  H         5.9441495181        2.9203575850        3.6548178109
  H         1.4350951507        0.1300726226       10.3018991669
  H         2.8464788589        2.8088228180       12.8870877139
  H         7.3429468813        5.6076452342        6.2377080742
  H         4.3983459076        5.6519065154        3.6627673521
  H         5.7972543572        2.7264791687       10.3154432058
  H         4.3808494468        0.0888908716       12.8801947889
  H         2.9944331999        3.0095335539        6.2217714960
  H         4.9368461357        2.9387010887        4.8792171080
  H         3.6314828410        5.9234028319       11.5925384947
  H         3.8518710577        2.7986162470       11.6614818907
  H        -0.0043681209       11.2815814190        4.9465324637
  H        -2.8444166500       11.3831771724        4.8843591622
  H         6.7012360122        2.7036952411       11.6127208173
  H         6.4785694413        5.8196856749       11.6567470771
  H         2.0913626027        3.0335280484        4.9251943689
 Ca         1.0505319364        7.1412634763        2.7220636344
 Ca         5.4277968579       10.0294364207        9.4455473653
 Ca         2.5867387525       10.0647912292       13.8205795542
 Ca         3.8875005040        7.1772575020        7.0852530067
  S         5.4457065241       10.0068983362        2.5498150608
  S         1.0465578240        7.1694310373        9.2497636969
  S         3.8713868695        7.1956981229       13.9863262767
  S         2.5888719261       10.0362726469        7.2883579078
  O        -0.7156110931        8.8251867335        3.3797181550
  O         0.5437415911        6.0331237725       10.0856269794
  O         4.3559713844        8.3774542788       13.1564509604
  O         3.0922683560       11.1717591871        6.4519442839
  O         5.9190874820       11.1743348338        3.4059708055
  O         1.5429566055        8.3042084852       10.0912990006
  O        -2.2865807252        6.0319353589       13.1312836375
  O         2.0925744584        8.9024336860        6.4457433155
  O         0.9104698985        9.4633378927        1.8167251804
  O         2.1285853128        6.5967008482        8.4262348307
  O         2.7311621561        7.7478509698       14.7228571259
  O         1.5074739312       10.6100920948        8.1094343797
  O         4.3040337575       10.5702412473        1.8216460016
  O        -0.0310213567        7.7434775781        8.4201768641
  O        -0.6690724899        6.6276720093       14.7160077736
  O         3.6646090539        9.4613036775        8.1172217026
  O         2.4613441313        8.3799174894        3.9430734118
  O         1.0685983482       11.4013518758       10.6438535082
  O         1.1788692367        8.8238975472       12.5980078871
  O         2.5613407243        5.8068740077        5.8928772014
  O        -0.3801859051        5.9514761300        3.9524324168
  O         4.1392539118        8.6090481736       10.6427003012
  O         4.0129337228       11.2576304899       12.5906993622
  O        -0.4991986333        8.6038629998        5.8957328858
  H         3.3692005445        8.6536250648        3.6545792841
  H        -1.1373991697        5.8659224124       10.3012166000
  H         0.2731823047        8.5461178512       12.8872377179
  H         4.7670410538       11.3425721422        6.2390088669
  H         1.8246801870       11.3844761458        3.6630468162
  H         3.2255915069        8.4569720590       10.3166089048
  H         1.8069437416        5.8262880128       12.8798735774
  H         0.4160188824        8.7488395706        6.2209361476
  H         2.3610196088        8.6748196762        4.8779809216
  H         6.2056570259        0.1850993060       11.5948407530
  H         1.2787078055        8.5327262724       11.6619907963
  H         2.5703035645        5.5487213005        4.9435691038
  H        -0.2683774442        5.6459611327        4.8832240425
  H         4.1286093826        8.4392054597       11.6141647013
  H         9.0515005970        0.0860925084       11.6577438625
  H        -0.4849705734        8.7677290715        4.9240954389
 Ca         6.7316704189        7.1382323686        2.7231083869
 Ca        -0.2509026581       10.0303477460        9.4459189429
 Ca        -3.0925950169       10.0653589265       13.8196482459
 Ca        -1.7911854532        7.1778132235        7.0857123458
  S        -0.2340842020       10.0101274257        2.5497230310
  S         6.7253571015        7.1694863528        9.2499018777
  S        -1.8077574595        7.1962080948       13.9863098607
  S        -3.0900148647       10.0362128649        7.2881386670
  O         4.9639718206        8.8218563375        3.3795161161
  O         6.2228623974        6.0330255644       10.0857095348
  O        -1.3230621394        8.3776882552       13.1562237265
  O        -2.5868640318       11.1717836805        6.4517060776
  O         0.2403123226       11.1770781932        3.4058885558
  O         7.2213176157        8.3045145199       10.0913774457
  O         3.3924540406        6.0316376967       13.1311149519
  O        -3.5863411125        8.9022266691        6.4457213830
  O         6.5905480197        9.4607826294        1.8172004571
  O         7.8077872000        6.5970976823        8.4265900076
  O        -2.9478484733        7.7482214250       14.7229418015
  O        -4.1714552736       10.6098573726        8.1094517451
  O        -1.3755059907       10.5738836270        1.8219036586
  O         5.6476905173        7.7431187881        8.4200531238
  O         5.0100062499        6.6272833468       14.7160721551
  O        -2.0139531559        9.4615918519        8.1169712017
  O        -3.2173848417        8.3797271903        3.9429072774
  O        -4.6100736182       11.3998030226       10.6436255498
  O         6.8576145580        8.8237407228       12.5980977107
  O         8.2383643506        5.8112976426        5.8925851449
  O         5.2984669497        5.9508423035        3.9527407750
  O        -1.5401671860        8.6108909898       10.6428016656
  O        -1.6659500292       11.2580366132       12.5906852098
  O         5.1793345698        8.6042531818        5.8956691492
  H        -2.3101983295        8.6551726736        3.6542328369
  H         4.5408239638        5.8655763558       10.3008165223
  H         5.9519034765        8.5458755471       12.8872378825
  H        -0.9117056530       11.3432021619        6.2385242803
  H        -3.8544549437       11.3833979453        3.6625454454
  H        -2.4535433227        8.4578008800       10.3163646663
  H         7.4861970573        5.8265128815       12.8798119420
  H         6.0947542684        8.7485509130        6.2206755134
  H        -3.3176591847        8.6732485786        4.8782389253
  H         0.5263227001        0.1859962503       11.5939344384
  H         6.9575456694        8.5329433706       11.6619398708
  H         8.2497758439        5.5460971696        4.9452833000
  H         5.4097737851        5.6447427472        4.8834556067
  H        -1.5505172479        8.4396632281       11.6140315544
  H         3.3726546220        0.0863110829       11.6576532279
  H         5.1943206706        8.7660095917        4.9235089209
     192
 i =       33, E =     -2324.1009282106
 Ca         9.3051711224        1.4073398103        2.7247419767
 Ca         2.3243296617        4.2953790885        9.4444114689
 Ca        -0.5181155129        4.3253067555       13.8154077825
 Ca         0.7812044709        1.4403855477        7.0879641310
  S         2.3379446698        4.2791305011        2.5501969907
  S         9.2981763222        1.4337778084        9.2503093646
  S         0.7673741713        1.4564334444       13.9854529679
  S        -0.5141025133        4.3016808230        7.2862295997
  O         7.5377960379        3.0939070509        3.3833475268
  O         8.7973074372        0.2972083360       10.0869776250
  O         1.2498275296        2.6362319742       13.1518037709
  O        -0.0132833168        5.4379961177        6.4494468492
  O         2.8126510989        5.4485818893        3.4028571733
  O         9.7933203189        2.5692126381       10.0913853596
  O         5.9688361402        0.2885340356       13.1334444527
  O        -1.0088348656        3.1666969647        6.4445891904
  O         9.1629028268        3.7281155526        1.8180509819
  O        10.3798743448        0.8613099167        8.4269778554
  O        -0.3732474742        2.0088437824       14.7210524266
  O        -1.5955756445        4.8743059476        8.1081740078
  O         1.1964243259        4.8408540182        1.8208236644
  O         8.2202189652        2.0072465477        8.4216524615
  O         7.5861727146        0.8906772400       14.7161010626
  O         0.5629248572        3.7279145815        8.1141639440
  O        -0.6425085798        2.6460620762        3.9412410128
  O        -2.0296762581        5.6623882586       10.6431715024
  O         9.4294066707        3.0872553077       12.5976237762
  O        10.8081919219        0.0785563890        5.8922589355
  O         7.8718452661        0.2147655352        3.9502100016
  O         1.0249590240        2.8888867923       10.6421070933
  O         0.9094440628        5.5229076384       12.5911662866
  O         7.7609561038        2.8537628756        5.8947105970
  H         0.2640283086        2.9233882413        3.6521037975
  H         7.1192506449        0.1265716884       10.3028855169
  H         8.5239886893        2.8088043383       12.8871977694
  H         1.6620727100        5.6103923700        6.2344878340
  H        -1.2805541086        5.6528995572        3.6592798690
  H         0.1133885507        2.7305848421       10.3145310958
  H        10.0616227869        0.0848924737       12.8811059521
  H         8.6737309299        3.0063453413        6.2214209901
  H        -0.7413908925        2.9369556097        4.8775505428
  H        -2.0424559657        5.9198823742       11.5931778385
  H         9.5273143733        2.7987391939       11.6604137544
  H         5.6734840323       11.2852230215        4.9449086647
  H         2.8325880861       11.3834676336        4.8823870193
  H         1.0183965415        2.7040956180       11.6101432659
  H         0.8034524901        5.8187163541       11.6565320579
  H         7.7703618736        3.0299054244        4.9257492563
 Ca         3.6244125236        1.4101033054        2.7266504037
 Ca         8.0037555912        4.2963176436        9.4442019415
 Ca         5.1610836945        4.3248301483       13.8145876623
 Ca         6.4605690295        1.4411623587        7.0876019127
  S         8.0186534600        4.2763194163        2.5502986847
  S         3.6193783203        1.4337240757        9.2502978712
  S         6.4466751136        1.4557443525       13.9855402286
  S         5.1648562042        4.3018383554        7.2866886279
  O         1.8567269704        3.0975187314        3.3839229476
  O         3.1188660806        0.2969136844       10.0868525281
  O         6.9292916424        2.6350713502       13.1515084223
  O         5.6653124898        5.4382747483        6.4498315514
  O         8.4926020955        5.4455533368        3.4036681348
  O         4.1141530523        2.5692515168       10.0914720369
  O         0.2897231128        0.2894596140       13.1329820914
  O         4.6706796869        3.1667466197        6.4447929236
  O         3.4816711688        3.7298018391        1.8180433114
  O         4.7012667816        0.8616940542        8.4268079858
  O         5.3062747902        2.0084523584       14.7211270670
  O         4.0831368564        4.8740909672        8.1085837177
  O         6.8765812709        4.8374771864        1.8213685776
  O         2.5411787660        2.0069162566        8.4217374072
  O         1.9069082012        0.8914675690       14.7159476362
  O         6.2418872648        3.7282649487        8.1147543686
  O         5.0373157976        2.6470520004        3.9414173889
  O         3.6489008351        5.6617529455       10.6430715768
  O         3.7501310365        3.0869407616       12.5976269390
  O         5.1296404887        0.0785027678        5.8922632259
  O         2.1922595082        0.2149199708        3.9498491996
  O         6.7036369269        2.8914119517       10.6422788518
  O         6.5886316171        5.5230614943       12.5912467608
  O         2.0843713621        2.8480205347        5.8941711307
  H         5.9446634199        2.9217583246        3.6524590922
  H         1.4402812339        0.1261391985       10.3024304323
  H         2.8444025562        2.8091788658       12.8869636589
  H         7.3403900595        5.6112455416        6.2351463208
  H         4.3975487100        5.6545196386        3.6595771879
  H         5.7924844282        2.7316369368       10.3141888142
  H         4.3829794367        0.0845679322       12.8809415630
  H         2.9962998683        3.0043112153        6.2216983724
  H         4.9387399452        2.9384890798        4.8777105989
  H         3.6360924799        5.9198530959       11.5928720275
  H         3.8481933165        2.7983137977       11.6604172086
  H        -0.0056170484       11.2865775247        4.9444434465
  H        -2.8472027122       11.3849864516        4.8824753566
  H         6.6977067883        2.7038862520       11.6097907499
  H         6.4825003772        5.8183811266       11.6564752734
  H         2.0917024983        3.0318398375        4.9266290353
 Ca         1.0500874980        7.1455249873        2.7223964006
 Ca         5.4284803143       10.0304628506        9.4455681991
 Ca         2.5870011957       10.0600855578       13.8175577494
 Ca         3.8867818824        7.1761927072        7.0865752136
  S         5.4438843625       10.0108689998        2.5503694159
  S         1.0463174950        7.1696226842        9.2497020106
  S         3.8728362670        7.1921648819       13.9854627532
  S         2.5892206979       10.0362652809        7.2870374854
  O        -0.7162990604        8.8303384772        3.3827485432
  O         0.5455158568        6.0330061007       10.0861790318
  O         4.3547274174        8.3730471619       13.1527853527
  O         3.0902575698       11.1725635959        6.4504419302
  O         5.9172874652       11.1795405501        3.4046313435
  O         1.5413294563        8.3047753097       10.0912921107
  O        -2.2835350888        6.0262476986       13.1321733874
  O         2.0948395823        8.9015887646        6.4446397126
  O         0.9085376155        9.4657546581        1.8175671823
  O         2.1281054808        6.5971909498        8.4263144688
  O         2.7320759731        7.7438825831       14.7213503682
  O         1.5075709756       10.6091053936        8.1085630355
  O         4.3019515472       10.5721681578        1.8213940033
  O        -0.0313041500        7.7433126596        8.4206541549
  O        -0.6666541989        6.6274554983       14.7156142066
  O         3.6654690897        9.4620614210        8.1157804612
  O         2.4623349068        8.3812917200        3.9412015392
  O         1.0727001099       11.4008072643       10.6431687054
  O         1.1768711349        8.8228532951       12.5975454398
  O         2.5595973955        5.8080864008        5.8922188475
  O        -0.3804379874        5.9511807644        3.9496344163
  O         4.1329368587        8.6182354169       10.6418486709
  O         4.0139127640       11.2575674721       12.5913418318
  O        -0.4945201717        8.5926956568        5.8947352850
  H         3.3698210051        8.6553675533        3.6523266459
  H        -1.1322052013        5.8620583983       10.3018110912
  H         0.2710148625        8.5461228235       12.8869959632
  H         4.7646369530       11.3462125575        6.2362315950
  H         1.8236393397       11.3877046624        3.6598885006
  H         3.2207173034        8.4627782068       10.3150311846
  H         1.8091371132        5.8215996230       12.8806428625
  H         0.4186108829        8.7432940478        6.2211188712
  H         2.3631465845        8.6744842484        4.8768251323
  H         6.2100497286        0.1820680376       11.5947402449
  H         1.2749575745        8.5326498376       11.6608454721
  H         2.5692164282        5.5534448184        4.9419748008
  H        -0.2713994242        5.6481322121        4.8815380810
  H         4.1250566348        8.4392294125       11.6109071688
  H         9.0555417625        0.0845218379       11.6573666555
  H        -0.4845654670        8.7663349614        4.9254598200
 Ca         6.7311175614        7.1430220918        2.7233313693
 Ca        -0.2502476029       10.0312144676        9.4458876081
 Ca        -3.0922989916       10.0605172467       13.8168377564
 Ca        -1.7920034743        7.1765915392        7.0869490575
  S        -0.2357729005       10.0135197783        2.5503265487
  S         6.7251326167        7.1696581399        9.2498063358
  S        -1.8062706979        7.1927279898       13.9854431446
  S        -3.0896832045       10.0362260091        7.2868443924
  O         4.9632002672        8.8279099647        3.3828714317
  O         6.2246068240        6.0329334946       10.0862612912
  O        -1.3242414911        8.3732606384       13.1524879754
  O        -2.5888336668       11.1725860266        6.4502388400
  O         0.2383864695       11.1817836987        3.4046100689
  O         7.2198032523        8.3050332336       10.0913212610
  O         3.3954785454        6.0259976920       13.1319090647
  O        -3.5840702017        8.9014019686        6.4446365468
  O         6.5884303473        9.4634747042        1.8180177038
  O         7.8072936121        6.5975209036        8.4266262347
  O        -2.9470025865        7.7441885565       14.7214374744
  O        -4.1713774542       10.6089306651        8.1085494343
  O        -1.3773729711       10.5754419259        1.8216605187
  O         5.6474092858        7.7429652499        8.4205497132
  O         5.0124797230        6.6271350385       14.7156821640
  O        -2.0131638754        9.4623498088        8.1155834406
  O        -3.2164636995        8.3811215662        3.9410523995
  O        -4.6059384722       11.3994806788       10.6429990227
  O         6.8556044820        8.8226950076       12.5976053953
  O         8.2369083519        5.8117658947        5.8919315733
  O         5.2983408960        5.9506579465        3.9498827557
  O        -1.5464092237        8.6196668233       10.6418449539
  O        -1.6650244249       11.2578646277       12.5913479549
  O         5.1840987712        8.5931008878        5.8947336886
  H        -2.3095349136        8.6567031917        3.6520318024
  H         4.5462006403        5.8616953873       10.3014863301
  H         5.9497598405        8.5459285281       12.8870888212
  H        -0.9141440456       11.3468349298        6.2359788893
  H        -3.8554655431       11.3867035254        3.6594634677
  H        -2.4584883309        8.4635572851       10.3148920507
  H         7.4883502076        5.8217847263       12.8806487190
  H         6.0973897541        8.7429461494        6.2210297832
  H        -3.3154974413        8.6731691311        4.8770347069
  H         0.5307981648        0.1827891063       11.5939745978
  H         6.9538124330        8.5328894344       11.6607656322
  H         8.2485373178        5.5512079788        4.9434122987
  H         5.4068975229        5.6470844704        4.8817092495
  H        -1.5541121216        8.4396659328       11.6107514884
  H         3.3767543846        0.0846537197       11.6573031028
  H         5.1947092136        8.7649497424        4.9250585323
     192
 i =       34, E =     -2324.1010167767
 Ca         9.3070484634        1.4060053929        2.7261127326
 Ca         2.3238918665        4.2951857327        9.4449770380
 Ca        -0.5197890326        4.3263482496       13.8138726449
 Ca         0.7815834980        1.4407008917        7.0891542417
  S         2.3386854180        4.2770981134        2.5511383746
  S         9.2988070991        1.4339814051        9.2501423219
  S         0.7668251600        1.4581949519       13.9855393120
  S        -0.5147943015        4.3015264994        7.2858713680
  O         7.5387619250        3.0916368485        3.3841431739
  O         8.7977928184        0.2975740424       10.0868043402
  O         1.2484057900        2.6385309033       13.1518790998
  O        -0.0144600729        5.4381767813        6.4493115724
  O         2.8129415084        5.4465271812        3.4038563719
  O         9.7934236168        2.5690258863       10.0916945507
  O         5.9687337717        0.2899474430       13.1335560497
  O        -1.0081566674        3.1664746327        6.4437408578
  O         9.1637024943        3.7266661657        1.8190424552
  O        10.3800389679        0.8609743913        8.4271974209
  O        -0.3745491640        2.0094469411       14.7207808437
  O        -1.5964583986        4.8742057549        8.1075806050
  O         1.1967574083        4.8381455180        1.8219901955
  O         8.2218640932        2.0081030004        8.4210336690
  O         7.5864102158        0.8935457340       14.7158561516
  O         0.5616657955        3.7277456282        8.1147808531
  O        -0.6419463163        2.6473146088        3.9390784785
  O        -2.0273314080        5.6588095966       10.6439523032
  O         9.4288109681        3.0868681796       12.5976758684
  O        10.8064580083        0.0832920489        5.8913237113
  O         7.8724793733        0.2136990569        3.9487212601
  O         1.0247907672        2.8869191918       10.6414446564
  O         0.9089838113        5.5235122120       12.5908472208
  O         7.7601000490        2.8539195964        5.8954196269
  H         0.2650057947        2.9226795776        3.6502959220
  H         7.1206759987        0.1244919696       10.3033288300
  H         8.5233519670        2.8097592630       12.8876559323
  H         1.6614654142        5.6127458342        6.2344117984
  H        -1.2800143756        5.6518137557        3.6581873817
  H         0.1126422547        2.7311609307       10.3155833599
  H        10.0608299986        0.0858170254       12.8814763184
  H         8.6729678162        3.0055680782        6.2209030428
  H        -0.7398623523        2.9356849462        4.8763936470
  H        -2.0413888740        5.9195093779       11.5930127593
  H         9.5250983317        2.7994986345       11.6596626369
  H         5.6731996397       11.2861848332        4.9448326609
  H         2.8326811058       11.3825315712        4.8812236651
  H         1.0182776796        2.7058473465       11.6102364382
  H         0.8039265915        5.8196774235       11.6558390526
  H         7.7697248166        3.0277381146        4.9257787905
 Ca         3.6260023362        1.4085372215        2.7276532882
 Ca         8.0032833885        4.2959737208        9.4448928012
 Ca         5.1594834698        4.3259047713       13.8131929911
 Ca         6.4608183224        1.4413460991        7.0888315682
  S         8.0191272126        4.2742123476        2.5513139549
  S         3.6200303083        1.4339219508        9.2500896159
  S         6.4461439682        1.4575092246       13.9856613896
  S         5.1641377592        4.3016812462        7.2863581211
  O         1.8581229239        3.0953142038        3.3847407114
  O         3.1192856862        0.2973296069       10.0866642295
  O         6.9278491798        2.6373513211       13.1515862460
  O         5.6641716174        5.4384313358        6.4497457418
  O         8.4928499558        5.4434243263        3.4045869397
  O         4.1143553146        2.5690238213       10.0917417919
  O         0.2896291045        0.2908804951       13.1330636900
  O         4.6713393853        3.1665504745        6.4439307949
  O         3.4827846103        3.7285245204        1.8189163095
  O         4.7014041302        0.8612781002        8.4269918830
  O         5.3050014785        2.0091537296       14.7208524420
  O         4.0822787281        4.8740219804        8.1080328348
  O         6.8769077820        4.8348593537        1.8223710952
  O         2.5428549212        2.0077904506        8.4210896197
  O         1.9071293434        0.8943036039       14.7156446436
  O         6.2405760105        3.7280613187        8.1153876638
  O         5.0377384028        2.6481827103        3.9390875542
  O         3.6511997050        5.6582389527       10.6438394669
  O         3.7495785870        3.0866391398       12.5976955986
  O         5.1279718912        0.0831334206        5.8914069276
  O         2.1928116962        0.2137720543        3.9484163859
  O         6.7034709637        2.8889703911       10.6416469433
  O         6.5881184794        5.5235840051       12.5909218568
  O         2.0836290256        2.8489654869        5.8947577447
  H         5.9455200451        2.9210443832        3.6505612145
  H         1.4417597976        0.1240208685       10.3029162766
  H         2.8438422722        2.8101471135       12.8874493946
  H         7.3397685186        5.6136421115        6.2348668433
  H         4.3982163783        5.6533108115        3.6584091125
  H         5.7915981228        2.7322568806       10.3153726590
  H         4.3821019350        0.0855283436       12.8813557853
  H         2.9958570778        3.0034529224        6.2210235642
  H         4.9403174285        2.9372479820        4.8763261986
  H         3.6371781668        5.9194135794       11.5927331010
  H         3.8459324819        2.7990712215       11.6597166442
  H        -0.0058685893       11.2877035224        4.9443589131
  H        -2.8473139732       11.3840326055        4.8814147437
  H         6.6975236205        2.7056883972       11.6100294188
  H         6.4830644472        5.8193362417       11.6557831732
  H         2.0909919947        3.0294386771        4.9262879310
 Ca         1.0517636405        7.1440668831        2.7239329890
 Ca         5.4278760822       10.0302775821        9.4456373709
 Ca         2.5853451046       10.0611134571       13.8158279703
 Ca         3.8871154666        7.1764883220        7.0880814937
  S         5.4442474638       10.0087437041        2.5515034594
  S         1.0471543746        7.1699003724        9.2495612217
  S         3.8723613352        7.1939768189       13.9854729473
  S         2.5882148791       10.0359790636        7.2866969820
  O        -0.7153794757        8.8283165834        3.3835287382
  O         0.5460639296        6.0333846180       10.0858852434
  O         4.3535323208        8.3753116484       13.1527510106
  O         3.0891361317       11.1726844111        6.4506274178
  O         5.9174092149       11.1773821130        3.4056558180
  O         1.5415828703        8.3045970306       10.0917460662
  O        -2.2835959899        6.0277075552       13.1322453805
  O         2.0952847611        8.9014191256        6.4435364470
  O         0.9092895638        9.4643186748        1.8186599909
  O         2.1285197429        6.5968275196        8.4266927396
  O         2.7307843182        7.7444595380       14.7210435828
  O         1.5062634689       10.6090444559        8.1077598902
  O         4.3022435505       10.5695211552        1.8224461393
  O        -0.0292809409        7.7443972664        8.4199402974
  O        -0.6664156350        6.6303328183       14.7153520386
  O         3.6634398115        9.4612955692        8.1166973111
  O         2.4629154104        8.3823517916        3.9391100044
  O         1.0749480886       11.3971434261       10.6438657158
  O         1.1761689992        8.8225500746       12.5975665139
  O         2.5579067262        5.8126760968        5.8916550189
  O        -0.3799376912        5.9501338500        3.9481451671
  O         4.1328881318        8.6173167376       10.6412166579
  O         4.0135082696       11.2581279868       12.5910735841
  O        -0.4953955916        8.5927048392        5.8954878040
  H         3.3707615579        8.6547123728        3.6505164289
  H        -1.1305981201        5.8601313836       10.3025086295
  H         0.2703006112        8.5469561755       12.8874394498
  H         4.7640098690       11.3485904142        6.2357689370
  H         1.8242613819       11.3868872235        3.6588114643
  H         3.2202882719        8.4634206119       10.3160109096
  H         1.8083377577        5.8223749917       12.8809924074
  H         0.4178588261        8.7425696626        6.2206249052
  H         2.3646349184        8.6732991702        4.8756137274
  H         6.2107754310        0.1818128000       11.5944604439
  H         1.2728172195        8.5334643650       11.6601040452
  H         2.5693074464        5.5541465595        4.9422790063
  H        -0.2714172650        5.6473138921        4.8803882692
  H         4.1250091513        8.4407353667       11.6107573558
  H         9.0559839055        0.0854030883       11.6567560765
  H        -0.4852142605        8.7646044098        4.9255562016
 Ca         6.7331352462        7.1416350176        2.7248798947
 Ca        -0.2508916831       10.0308487028        9.4458240057
 Ca        -3.0940657976       10.0616044779       13.8152017548
 Ca        -1.7916769730        7.1768205353        7.0884165016
  S        -0.2352049400       10.0116507886        2.5513929173
  S         6.7259512895        7.1699068440        9.2496350453
  S        -1.8066817710        7.1945131502       13.9854523821
  S        -3.0906502935       10.0359785987        7.2865345759
  O         4.9639419467        8.8255303561        3.3836051764
  O         6.2250331949        6.0333665139       10.0859720961
  O        -1.3254291144        8.3756058391       13.1525546979
  O        -2.5899289949       11.1727106370        6.4504250688
  O         0.2386082613       11.1798146147        3.4056759888
  O         7.2201328365        8.3048213328       10.0916997669
  O         3.3954409475        6.0274186626       13.1320489867
  O        -3.5836054222        8.9012434327        6.4436312709
  O         6.5892743884        9.4620592554        1.8192031950
  O         7.8076494757        6.5970469047        8.4269606123
  O        -2.9482274450        7.7449276152       14.7210111424
  O        -4.1726650417       10.6088855650        8.1077506544
  O        -1.3770169820       10.5730283823        1.8226845262
  O         5.6494056224        7.7440369229        8.4198381311
  O         5.0126269298        6.6298673069       14.7153216983
  O        -2.0151271603        9.4616637077        8.1164883719
  O        -3.2157967422        8.3822693616        3.9390420806
  O        -4.6036744087       11.3958763536       10.6437452862
  O         6.8549759375        8.8224531152       12.5976372859
  O         8.2351982893        5.8164512790        5.8911844297
  O         5.2989272593        5.9496760717        3.9483519123
  O        -1.5465030743        8.6183223280       10.6411856620
  O        -1.6654521725       11.2583481387       12.5910621313
  O         5.1831597417        8.5931993949        5.8955725014
  H        -2.3085214807        8.6562452712        3.6502855114
  H         4.5478053342        5.8597386155       10.3022139582
  H         5.9491393670        8.5467142315       12.8874972225
  H        -0.9147590083       11.3492819312        6.2355816025
  H        -3.8549393359       11.3856903728        3.6584572613
  H        -2.4590653745        8.4642347665       10.3158881243
  H         7.4874690295        5.8226212129       12.8809587809
  H         6.0965967707        8.7421686539        6.2205708868
  H        -3.3139261968        8.6719686486        4.8759378501
  H         0.5315455852        0.1824789697       11.5937509672
  H         6.9515521234        8.5337178540       11.6600486555
  H         8.2485577684        5.5520601722        4.9435563478
  H         5.4069956877        5.6462731152        4.8804859432
  H        -1.5541851373        8.4412278555       11.6106704950
  H         3.3772183307        0.0855074340       11.6566835724
  H         5.1940312207        8.7630433491        4.9252109407
     192
 i =       35, E =     -2324.1011493990
 Ca         9.3161867528        1.3979717159        2.7285475678
 Ca         2.3214732408        4.2934473390        9.4460005914
 Ca        -0.5274296768        4.3334475610       13.8115678275
 Ca         0.7837313744        1.4427709119        7.0925992756
  S         2.3428690484        4.2662745823        2.5537697878
  S         9.3014163391        1.4349001633        9.2498688275
  S         0.7631077944        1.4681378521       13.9858910218
  S        -0.5178565096        4.3008992618        7.2853302522
  O         7.5434094741        3.0788266992        3.3849117541
  O         8.7980940263        0.2987964537       10.0855809945
  O         1.2430645450        2.6510096635       13.1540260450
  O        -0.0166464247        5.4384036920        6.4502485804
  O         2.8145652890        5.4355593153        3.4078197074
  O         9.7950872032        2.5684707435       10.0931837651
  O         5.9669897006        0.2990903986       13.1331962050
  O        -1.0082053493        3.1661801360        6.4414793556
  O         9.1688368823        3.7189996905        1.8213524373
  O        10.3818883597        0.8598772551        8.4288088859
  O        -0.3802891760        2.0151612815       14.7209531507
  O        -1.6004731464        4.8741283276        8.1056345518
  O         1.1995431800        4.8259264206        1.8259095946
  O         8.2285450954        2.0119021520        8.4181861141
  O         7.5847852984        0.9051553307       14.7146311465
  O         0.5556400979        3.7259153478        8.1181797098
  O        -0.6397330036        2.6493643600        3.9343854742
  O        -2.0206837100        5.6455894371       10.6469901639
  O         9.4268810163        3.0867477065       12.5978067347
  O        10.8004433364        0.1003301190        5.8885556774
  O         7.8745931547        0.2101768579        3.9465959390
  O         1.0292414629        2.8726271295       10.6393190707
  O         0.9073482197        5.5253529268       12.5888191189
  O         7.7538713251        2.8647101843        5.8984484614
  H         0.2689043402        2.9175170192        3.6463523659
  H         7.1224046515        0.1204641351       10.3031395410
  H         8.5209296431        2.8152214795       12.8896115376
  H         1.6608276926        5.6184902819        6.2364817796
  H        -1.2777595423        5.6464787354        3.6564693733
  H         0.1137404987        2.7288072338       10.3191201332
  H        10.0571733201        0.0911398675       12.8823239689
  H         8.6688846379        3.0068675720        6.2204172277
  H        -0.7338844973        2.9307080157        4.8743542838
  H        -2.0400351335        5.9229331512       11.5911455029
  H         9.5185322188        2.8036316171       11.6575161675
  H         5.6732471738       11.2850775638        4.9469174461
  H         2.8344943056       11.3777252237        4.8790958888
  H         1.0194066542        2.7099399718       11.6117672929
  H         0.8036880744        5.8237461622       11.6535735580
  H         7.7662918930        3.0213854769        4.9249001807
 Ca         3.6337814289        1.4002489236        2.7292986302
 Ca         8.0007751726        4.2938600101        9.4462494494
 Ca         5.1520919149        4.3330800504       13.8112835515
 Ca         6.4627208563        1.4429996791        7.0925724007
  S         8.0227513128        4.2628551973        2.5539265734
  S         3.6226152366        1.4348120450        9.2497861957
  S         6.4424795443        1.4673564449       13.9861002777
  S         5.1611284038        4.3010400844        7.2859167566
  O         1.8638757998        3.0823840815        3.3851489180
  O         3.1194160699        0.2986250578       10.0854595739
  O         6.9224991443        2.6497715149       13.1538704529
  O         5.6621004366        5.4386222774        6.4508232455
  O         8.4942753848        5.4318257718        3.4084427112
  O         4.1161942685        2.5683850397       10.0931502655
  O         0.2879722794        0.3000843779       13.1326492366
  O         4.6713932436        3.1662818781        6.4416794643
  O         3.4884722887        3.7217564814        1.8209123416
  O         4.7030904560        0.8599045963        8.4286168341
  O         5.2994327244        2.0150290689       14.7211383871
  O         4.0784091221        4.8739675225        8.1061936566
  O         6.8794892159        4.8223954393        1.8259669164
  O         2.5495444389        2.0115861359        8.4181938854
  O         1.9054556705        0.9059861727       14.7143186413
  O         6.2345215787        3.7262067056        8.1189288273
  O         5.0395551029        2.6498771962        3.9340401881
  O         3.6576701789        5.6453500059       10.6469093399
  O         3.7477359694        3.0866538318       12.5978350850
  O         5.1222173175        0.0997463826        5.8888148108
  O         2.1943249751        0.2100559326        3.9465097591
  O         6.7079760110        2.8733977110       10.6395256503
  O         6.5865574080        5.5253180411       12.5888009948
  O         2.0773153988        2.8606764215        5.8978874645
  H         5.9490504495        2.9154644599        3.6460692478
  H         1.4437300684        0.1198918357       10.3028486489
  H         2.8415765346        2.8157484922       12.8895505010
  H         7.3388861236        5.6196863501        6.2364105393
  H         4.4008753798        5.6478912438        3.6564361812
  H         5.7923078926        2.7300398529       10.3193850715
  H         4.3782668785        0.0908890033       12.8823562670
  H         2.9924823311        3.0043680713        6.2190658285
  H         4.9462242348        2.9324805438        4.8737004018
  H         3.6384653677        5.9225522974       11.5910630436
  H         3.8393178190        2.8031620480       11.6576745510
  H        -0.0057622254       11.2874302139        4.9462256592
  H        -2.8461566239       11.3793858990        4.8797069567
  H         6.6984109813        2.7098588367       11.6119020259
  H         6.4829197277        5.8233101615       11.6534028219
  H         2.0881811717        3.0225993468        4.9250116693
 Ca         1.0598847516        7.1360021028        2.7270563084
 Ca         5.4245600412       10.0287706905        9.4453418378
 Ca         2.5776626452       10.0681674502       13.8129841237
 Ca         3.8894608225        7.1781701131        7.0923206752
  S         5.4474194011        9.9972560165        2.5543861185
  S         1.0506538548        7.1711601481        9.2494347455
  S         3.8689232170        7.2037640590       13.9856959472
  S         2.5837022204       10.0347088282        7.2861009476
  O        -0.7108407875        8.8165924955        3.3845672452
  O         0.5464089954        6.0348740739       10.0843151646
  O         4.3487513137        8.3873463414       13.1545545245
  O         3.0872527730       11.1722859553        6.4525085359
  O         5.9182037690       11.1654551229        3.4100208484
  O         1.5440613370        8.3040363390       10.0938015644
  O        -2.2850495926        6.0371643043       13.1317926644
  O         2.0940155533        8.9011722191        6.4402718244
  O         0.9142589573        9.4572737796        1.8212168913
  O         2.1312877376        6.5953891109        8.4289504588
  O         2.7252745194        7.7501596637       14.7210196854
  O         1.5005308600       10.6092042853        8.1049083560
  O         4.3044944408       10.5567746443        1.8260986127
  O        -0.0205981178        7.7496297346        8.4164634130
  O        -0.6678965251        6.6421975061       14.7140469293
  O         3.6538353934        9.4566147329        8.1213185651
  O         2.4649802059        8.3840033302        3.9344582076
  O         1.0806187508       11.3838033465       10.6464086295
  O         1.1741096127        8.8225549080       12.5976991798
  O         2.5526120897        5.8292708435        5.8903097265
  O        -0.3785482601        5.9468408437        3.9459143206
  O         4.1375326469        8.6050884825       10.6395904363
  O         4.0120472083       11.2598434001       12.5892952534
  O        -0.5017239548        8.6033714537        5.8985097102
  H         3.3746310812        8.6491267060        3.6464658906
  H        -1.1279289793        5.8566191933       10.3027335321
  H         0.2676623257        8.5523059646       12.8892728829
  H         4.7628910312       11.3546129405        6.2371792429
  H         1.8268639082       11.3825357970        3.6573184273
  H         3.2223179705        8.4609863168       10.3187588505
  H         1.8046470698        5.8273404876       12.8816196282
  H         0.4135833989        8.7441794439        6.2205005058
  H         2.3702554065        8.6688359762        4.8731816377
  H         6.2111774065        0.1853919542       11.5921399838
  H         1.2665004711        8.5376399390       11.6580969839
  H         2.5702454395        5.5522485135        4.9456796041
  H        -0.2698866884        5.6428641100        4.8781744745
  H         4.1272183289        8.4441095630       11.6121356754
  H         9.0554758667        0.0892922291       11.6548529400
  H        -0.4893700641        8.7601127199        4.9249861733
 Ca         6.7428103851        7.1335511074        2.7278911256
 Ca        -0.2542463852       10.0288128926        9.4454159895
 Ca        -3.1020809330       10.0687434956       13.8126305320
 Ca        -1.7892680026        7.1784401557        7.0926742903
  S        -0.2314871907       10.0012748641        2.5542053685
  S         6.7293162461        7.1710778056        9.2494332917
  S        -1.8099780409        7.2046518825       13.9856588687
  S        -3.0950164789       10.0348124161        7.2859928397
  O         4.9679251826        8.8125794124        3.3845197937
  O         6.2251197208        6.0349518884       10.0844474445
  O        -1.3300341879        8.3881005470       13.1544778744
  O        -2.5917781504       11.1723501685        6.4522653177
  O         0.2399937012       11.1691464391        3.4096148492
  O         7.2226723572        8.3042160729       10.0935232726
  O         3.3939722317        6.0364983421       13.1316650342
  O        -3.5848036218        8.9010198328        6.4406131987
  O         6.5943634537        9.4543047184        1.8221105052
  O         7.8102376621        6.5953749026        8.4291398605
  O        -2.9536884330        7.7510436930       14.7209091551
  O        -4.1782990894       10.6091574749        8.1048546769
  O        -1.3743345834       10.5616394802        1.8263111790
  O         5.6578171487        7.7490910662        8.4164360843
  O         5.0110784422        6.6413523715       14.7139587723
  O        -2.0244588657        9.4572834919        8.1210640688
  O        -3.2133026181        8.3841329429        3.9346729457
  O        -4.5978160158       11.3826208869       10.6464292609
  O         6.8529084331        8.8225033604       12.5976805782
  O         8.2296094475        5.8333496745        5.8890550387
  O         5.3007417349        5.9464360570        3.9459681811
  O        -1.5418482583        8.6051552430       10.6393597656
  O        -1.6669677618       11.2599530622       12.5892165993
  O         5.1765867298        8.6043518439        5.8986951051
  H        -2.3044578392        8.6517296186        3.6464739419
  H         4.5504174307        5.8561273877       10.3024862845
  H         5.9466582362        8.5518651164       12.8894245932
  H        -0.9158336601       11.3555330903        6.2370039105
  H        -3.8527276899       11.3804396647        3.6569920266
  H        -2.4573592352        8.4619181424       10.3189259912
  H         7.4836921158        5.8278036576       12.8816565934
  H         6.0921593194        8.7435943984        6.2205450117
  H        -3.3079026493        8.6673041679        4.8739353803
  H         0.5320225936        0.1859615914       11.5915608948
  H         6.9450354695        8.5380056615       11.6579491824
  H         8.2494264742        5.5505614050        4.9463104929
  H         5.4088341653        5.6417324682        4.8780179273
  H        -1.5522438470        8.4448525844       11.6120790558
  H         3.3767665566        0.0893223863       11.6547202073
  H         5.1897230676        8.7576074050        4.9245462709
     192
 i =       36, E =     -2324.1012136672
 Ca         9.3172886101        1.3986678779        2.7277062158
 Ca         2.3213577869        4.2940647611        9.4462055849
 Ca        -0.5289515098        4.3331292326       13.8113954214
 Ca         0.7836826896        1.4420594740        7.0922824667
  S         2.3422947830        4.2668685789        2.5527831915
  S         9.3017044055        1.4352297146        9.2501204208
  S         0.7635503404        1.4675254143       13.9862303876
  S        -0.5180956768        4.3005840521        7.2851690718
  O         7.5430277151        3.0799536332        3.3842470137
  O         8.7979348439        0.2990418138       10.0855241774
  O         1.2436467931        2.6500503011       13.1539870341
  O        -0.0159701602        5.4379070503        6.4503000040
  O         2.8146662606        5.4356834962        3.4067714547
  O         9.7951940594        2.5687806125       10.0935759023
  O         5.9669633680        0.2984648283       13.1338561161
  O        -1.0091939450        3.1661759997        6.4413670083
  O         9.1677821183        3.7190533023        1.8204337981
  O        10.3825400870        0.8601106632        8.4293870473
  O        -0.3802901912        2.0149761637       14.7201123128
  O        -1.6008456510        4.8743295237        8.1053372329
  O         1.1987662941        4.8261529431        1.8252088288
  O         8.2293610663        2.0126670054        8.4179734470
  O         7.5857511903        0.9055635862       14.7142847762
  O         0.5549574192        3.7246445660        8.1182168349
  O        -0.6390288476        2.6485891868        3.9354291332
  O        -2.0211131708        5.6458219100       10.6485269257
  O         9.4259170991        3.0874080517       12.5975432414
  O        10.8012902540        0.0992702032        5.8873124033
  O         7.8750464737        0.2108413994        3.9462122596
  O         1.0295277249        2.8730115665       10.6403168655
  O         0.9075340532        5.5241613794       12.5886575381
  O         7.7533174528        2.8642918382        5.8978406898
  H         0.2692179869        2.9176867580        3.6469042985
  H         7.1218488748        0.1208414760       10.3042215916
  H         8.5197086546        2.8153020364       12.8888891621
  H         1.6612076819        5.6180423348        6.2352307843
  H        -1.2772606588        5.6470685837        3.6558281154
  H         0.1144171109        2.7285989404       10.3191569525
  H        10.0573449543        0.0900453194       12.8823854713
  H         8.6683805330        3.0068252635        6.2198880711
  H        -0.7334017971        2.9309857584        4.8749808958
  H        -2.0395950087        5.9213235424       11.5930509459
  H         9.5184105528        2.8034178689       11.6578315360
  H         5.6730709916       11.2862432388        4.9451499656
  H         2.8348441730       11.3779850591        4.8784773282
  H         1.0197629344        2.7100799787       11.6125146296
  H         0.8031771754        5.8239966646       11.6542683700
  H         7.7660281259        3.0215995817        4.9243785603
 Ca         3.6350472702        1.4009560517        2.7283741121
 Ca         8.0006266268        4.2943680477        9.4465018373
 Ca         5.1506659908        4.3326390037       13.8111446896
 Ca         6.4626607557        1.4422964938        7.0922667395
  S         8.0219584410        4.2635780039        2.5528433601
  S         3.6228534563        1.4351401800        9.2500521756
  S         6.4429202217        1.4668378309       13.9863674642
  S         5.1609379301        4.3006833046        7.2856458789
  O         1.8633904632        3.0834601871        3.3845495864
  O         3.1191963999        0.2989009497       10.0854525442
  O         6.9230758592        2.6490368281       13.1538385969
  O         5.6627952046        5.4380924138        6.4507765214
  O         8.4942235804        5.4320079675        3.4073897410
  O         4.1162546025        2.5686878586       10.0935513943
  O         0.2879505978        0.2994031375       13.1332961052
  O         4.6703949034        3.1662355481        6.4415184834
  O         3.4877578224        3.7217309948        1.8202236106
  O         4.7036685904        0.8601334798        8.4292138032
  O         5.2993488750        2.0147910881       14.7202816624
  O         4.0781470221        4.8741460648        8.1058612899
  O         6.8785871175        4.8230535443        1.8252462916
  O         2.5503586018        2.0124447260        8.4180096001
  O         1.9064574616        0.9063177888       14.7140607434
  O         6.2339935912        3.7248773120        8.1187108805
  O         5.0399785359        2.6488833540        3.9351566618
  O         3.6572481886        5.6456525510       10.6483986125
  O         3.7468653863        3.0873476828       12.5975813275
  O         5.1230216397        0.0985863863        5.8876071721
  O         2.1947293551        0.2107221100        3.9461972701
  O         6.7082663045        2.8738064377       10.6405307915
  O         6.5866945284        5.5240318513       12.5886723976
  O         2.0768778551        2.8607211494        5.8970722298
  H         5.9489828109        2.9155690941        3.6464526906
  H         1.4431790001        0.1202615931       10.3039993147
  H         2.8404616065        2.8158629186       12.8888721565
  H         7.3393520597        5.6192105927        6.2350163440
  H         4.4015535809        5.6485596066        3.6556584854
  H         5.7930900931        2.7296880751       10.3194283862
  H         4.3783769585        0.0897686635       12.8824698529
  H         2.9918494579        3.0045664609        6.2190191499
  H         4.9464751542        2.9325740628        4.8743523785
  H         3.6390347398        5.9209325587       11.5929797685
  H         3.8392300226        2.8029914742       11.6579949782
  H        -0.0059342634       11.2885221115        4.9445019829
  H        -2.8458285356       11.3794860804        4.8791081098
  H         6.6987704123        2.7099249898       11.6125628777
  H         6.4824711376        5.8236300530       11.6541637899
  H         2.0874179031        3.0227657775        4.9243727698
 Ca         1.0613968144        7.1366528093        2.7262187394
 Ca         5.4244322813       10.0293380938        9.4454103946
 Ca         2.5761044110       10.0678043881       13.8126954474
 Ca         3.8894944700        7.1777535089        7.0922140090
  S         5.4465997103        9.9980534960        2.5532560823
  S         1.0508585025        7.1714228598        9.2497974594
  S         3.8693393961        7.2032396276       13.9861059171
  S         2.5837551139       10.0344858500        7.2856720281
  O        -0.7113495535        8.8174800399        3.3836898629
  O         0.5462621002        6.0351146117       10.0844666573
  O         4.3494016924        8.3863254041       13.1544719715
  O         3.0877909659       11.1718708966        6.4521725388
  O         5.9181696914       11.1657451882        3.4088929435
  O         1.5441141334        8.3043863636       10.0940953544
  O        -2.2851046301        6.0364091236       13.1324426178
  O         2.0931118141        8.9010558134        6.4402945934
  O         0.9133372230        9.4570629332        1.8204351785
  O         2.1319186702        6.5956576609        8.4296490104
  O         2.7252791517        7.7500282273       14.7202842137
  O         1.5003882278       10.6092122798        8.1044904484
  O         4.3035687404       10.5575552739        1.8253220352
  O        -0.0208937262        7.7492227692        8.4170694461
  O        -0.6667687772        6.6425227772       14.7138859592
  O         3.6552967404        9.4574800497        8.1198401780
  O         2.4654103013        8.3833708196        3.9353778414
  O         1.0804412983       11.3836280096       10.6481141660
  O         1.1731551478        8.8231219637       12.5974601573
  O         2.5531070525        5.8281724527        5.8887161461
  O        -0.3781961433        5.9474327906        3.9454257467
  O         4.1378613422        8.6054661243       10.6403732169
  O         4.0121816016       11.2587780243       12.5892582148
  O        -0.5024508631        8.6027721460        5.8979910657
  H         3.3747167100        8.6493901012        3.6468524483
  H        -1.1285239415        5.8569170410       10.3039603454
  H         0.2664470389        8.5523318000       12.8886545903
  H         4.7635252479       11.3541433683        6.2357035120
  H         1.8274895842       11.3832295227        3.6566296303
  H         3.2226858733        8.4611258903       10.3191177223
  H         1.8047607365        5.8262095493       12.8817580726
  H         0.4130991976        8.7440576711        6.2195852300
  H         2.3704894369        8.6689671703        4.8738175867
  H         6.2113801432        0.1839965403       11.5939468224
  H         1.2664854223        8.5375847516       11.6583345466
  H         2.5703432474        5.5531984949        4.9437371215
  H        -0.2697558712        5.6432010620        4.8774970672
  H         4.1271803770        8.4443958586       11.6129160889
  H         9.0550703128        0.0893496680       11.6555629669
  H        -0.4894236551        8.7602000359        4.9244790308
 Ca         6.7440075875        7.1342802119        2.7270001386
 Ca        -0.2544220470       10.0293005748        9.4455396651
 Ca        -3.1036609479       10.0684165377       13.8123624663
 Ca        -1.7892758692        7.1779657917        7.0925696708
  S        -0.2321281422       10.0018265484        2.5531538176
  S         6.7295743276        7.1713645148        9.2498138780
  S        -1.8095182955        7.2038923491       13.9860797422
  S        -3.0950441008       10.0345868853        7.2855903491
  O         4.9676512214        8.8137281109        3.3838059630
  O         6.2249731731        6.0351913829       10.0845812787
  O        -1.3294434858        8.3869049511       13.1544032995
  O        -2.5912254681       11.1719369797        6.4519784922
  O         0.2400867417       11.1692706805        3.4085386489
  O         7.2227888422        8.3045331586       10.0938928972
  O         3.3939266446        6.0357772951       13.1324870287
  O        -3.5857375517        8.9009505247        6.4405760298
  O         6.5931025952        9.4542928367        1.8210764848
  O         7.8108106218        6.5956143674        8.4297818010
  O        -2.9535433404        7.7509977195       14.7200693448
  O        -4.1785086812       10.6091704431        8.1044395753
  O        -1.3751994206       10.5618882592        1.8254895659
  O         5.6577965569        7.7490280150        8.4169882990
  O         5.0120271775        6.6416021569       14.7137366272
  O        -2.0233352195        9.4577985254        8.1197176495
  O        -3.2127634930        8.3835282107        3.9356455922
  O        -4.5980730052       11.3826029736       10.6480724893
  O         6.8520545396        8.8231329187       12.5974621181
  O         8.2303338858        5.8321140838        5.8877157959
  O         5.3012390121        5.9470460848        3.9454666197
  O        -1.5416348998        8.6054634746       10.6402586400
  O        -1.6668647170       11.2588535392       12.5891892121
  O         5.1758967198        8.6037683950        5.8982799570
  H        -2.3042652378        8.6520147017        3.6469444729
  H         4.5498754255        5.8564560778       10.3037843344
  H         5.9455211275        8.5518736751       12.8886942129
  H        -0.9152685691       11.3549629484        6.2355433773
  H        -3.8521506438       11.3811182408        3.6564137744
  H        -2.4569897082        8.4619701383       10.3191459257
  H         7.4837566681        5.8266796191       12.8817170257
  H         6.0917359194        8.7435149550        6.2196405980
  H        -3.3076318156        8.6675316986        4.8746113897
  H         0.5323492943        0.1844880955       11.5934124532
  H         6.9449253291        8.5379228381       11.6582220607
  H         8.2493594957        5.5516686333        4.9444777348
  H         5.4091616005        5.6421503529        4.8773328220
  H        -1.5521708080        8.4450464568       11.6128997643
  H         3.3763152220        0.0893852243       11.6554398502
  H         5.1897128675        8.7578138416        4.9241818595
     192
 i =       37, E =     -2324.1013191415
 Ca         9.3250362125        1.3967674316        2.7254685130
 Ca         2.3196993107        4.2944789257        9.4461669679
 Ca        -0.5370386532        4.3358327722       13.8107622264
 Ca         0.7851562628        1.4416168683        7.0918584123
  S         2.3426041110        4.2630624813        2.5509607122
  S         9.3037445693        1.4368659314        9.2504200515
  S         0.7628927641        1.4712477132       13.9864324552
  S        -0.5203942374        4.2990742951        7.2848937324
  O         7.5442558981        3.0767281352        3.3826754276
  O         8.7974008021        0.3003364198       10.0842003620
  O         1.2425471683        2.6535963352       13.1536364967
  O        -0.0148543505        5.4361341747        6.4513593346
  O         2.8155158332        5.4314550226        3.4048202298
  O         9.7963167006        2.5697857413       10.0952358693
  O         5.9662231966        0.3016203237       13.1346598780
  O        -1.0124015746        3.1659166181        6.4401428204
  O         9.1675282395        3.7159837306        1.8181889619
  O        10.3862667065        0.8609349153        8.4319137716
  O        -0.3823632392        2.0177647830       14.7184392476
  O        -1.6041766330        4.8742977107        8.1035673317
  O         1.1984191689        4.8213489746        1.8241251494
  O         8.2338235050        2.0155576860        8.4158522687
  O         7.5862743246        0.9113320972       14.7128327433
  O         0.5504264505        3.7207768580        8.1197840684
  O        -0.6361237695        2.6466525074        3.9374357971
  O        -2.0195892970        5.6407871292       10.6524585441
  O         9.4223610716        3.0886530736       12.5972795616
  O        10.8003688337        0.1033857880        5.8837579445
  O         7.8765261069        0.2126633015        3.9457423624
  O         1.0332630554        2.8672133208       10.6404341600
  O         0.9074087385        5.5214939174       12.5879654895
  O         7.7495918081        2.8694205200        5.8975653788
  H         0.2724729575        2.9150064214        3.6483701227
  H         7.1208745406        0.1205787311       10.3051630760
  H         8.5144148221        2.8184324821       12.8872552266
  H         1.6615445370        5.6188343753        6.2332314231
  H        -1.2750502716        5.6465799655        3.6542183027
  H         0.1171501261        2.7267700847       10.3192185255
  H        10.0566594849        0.0894096032       12.8823079927
  H         8.6660022003        3.0076073547        6.2190646047
  H        -0.7299620959        2.9296032447        4.8767605935
  H        -2.0382189003        5.9199996785       11.5956652754
  H         9.5161023992        2.8050011395       11.6580578125
  H         5.6721798692       11.2874039496        4.9427711585
  H         2.8367762724       11.3767336349        4.8768076955
  H         1.0204060779        2.7110137351       11.6136155233
  H         0.8012506170        5.8261928821       11.6559325168
  H         7.7646905157        3.0208075398        4.9232738865
 Ca         3.6424529138        1.3987424067        2.7259424990
 Ca         7.9988531708        4.2946238968        9.4464619849
 Ca         5.1428052226        4.3353444857       13.8107960471
 Ca         6.4641846078        1.4417459018        7.0918918822
  S         8.0217576762        4.2600590351        2.5508816002
  S         3.6247307532        1.4368027842        9.2504156943
  S         6.4421969626        1.4706864797       13.9864922505
  S         5.1588999988        4.2990907189        7.2851256892
  O         1.8646583487        3.0796332626        3.3827423777
  O         3.1184707105        0.3002578467       10.0842322973
  O         6.9219258494        2.6530855011       13.1536779196
  O         5.6639823090        5.4362708646        6.4515565120
  O         8.4946847870        5.4280521653        3.4053494451
  O         4.1172578734        2.5696884363       10.0952680275
  O         0.2872457517        0.3022941641       13.1342866399
  O         4.6672315268        3.1658837855        6.4402272807
  O         3.4883900457        3.7185730837        1.8185200052
  O         4.7071507690        0.8608679755        8.4318398318
  O         5.2970776066        2.0175028980       14.7186081169
  O         4.0752006335        4.8740428346        8.1040186152
  O         6.8778069045        4.8190344841        1.8242087389
  O         2.5548223835        2.0155650719        8.4158832036
  O         1.9069650465        0.9119002461       14.7128334887
  O         6.2298872504        3.7208951924        8.1198246244
  O         5.0422373563        2.6464263561        3.9372442068
  O         3.6587821133        5.6410283163       10.6523429234
  O         3.7435019655        3.0886548113       12.5973530056
  O         5.1221560236        0.1022010718        5.8842036720
  O         2.1958717062        0.2124406541        3.9459213855
  O         6.7120363482        2.8678400153       10.6406508760
  O         6.5867173462        5.5213580265       12.5879201791
  O         2.0726547267        2.8667710643        5.8969913089
  H         5.9512851105        2.9126298662        3.6474029970
  H         1.4423363680        0.1199761517       10.3050621768
  H         2.8354135417        2.8190944945       12.8874022709
  H         7.3397554215        5.6201373911        6.2329655633
  H         4.4043744228        5.6483171315        3.6537371557
  H         5.7959740927        2.7275520490       10.3194910345
  H         4.3775258639        0.0890665950       12.8825477235
  H         2.9890111972        3.0058010221        6.2183510762
  H         4.9492843104        2.9308702275        4.8760958704
  H         3.6405714415        5.9194115481       11.5958236811
  H         3.8370063308        2.8046533398       11.6582368406
  H        -0.0068662555       11.2898737895        4.9420938074
  H        -2.8440916074       11.3779584049        4.8775555082
  H         6.6994561806        2.7107379975       11.6135703502
  H         6.4804838629        5.8259052788       11.6558032163
  H         2.0857729228        3.0216856725        4.9233850657
 Ca         1.0696949782        7.1343819465        2.7240704443
 Ca         5.4228373682       10.0299708652        9.4455367853
 Ca         2.5676801706       10.0706901852       13.8118378366
 Ca         3.8912245250        7.1770907428        7.0918834144
  S         5.4462737504        9.9946333845        2.5511917560
  S         1.0524328368        7.1726311135        9.2506035748
  S         3.8687124960        7.2066452677       13.9864477761
  S         2.5825020717       10.0337583591        7.2844852157
  O        -0.7101855248        8.8141545445        3.3822571889
  O         0.5461927478        6.0360531607       10.0841545207
  O         4.3482998096        8.3892505243       13.1538924108
  O         3.0879872281       11.1708412209        6.4515011721
  O         5.9186135830       11.1620355059        3.4065206506
  O         1.5451387857        8.3055302771       10.0951368287
  O        -2.2858548573        6.0389779263       13.1338598561
  O         2.0904476325        8.9005385009        6.4399076935
  O         0.9136257648        9.4537925762        1.8184919031
  O         2.1353760200        6.5967972509        8.4324772130
  O         2.7235806784        7.7530331006       14.7186667546
  O         1.4977335525       10.6083325518        8.1024186071
  O         4.3025595771       10.5536578220        1.8242393107
  O        -0.0188935824        7.7495414302        8.4167057727
  O        -0.6659415672        6.6480655774       14.7127354052
  O         3.6552747494        9.4582987716        8.1183446174
  O         2.4677319218        8.3817752849        3.9371664322
  O         1.0820037530       11.3770746681       10.6521058720
  O         1.1697877795        8.8241594229       12.5972950976
  O         2.5522839520        5.8323776391        5.8852183198
  O        -0.3772426397        5.9489436738        3.9449351182
  O         4.1411311505        8.5999448819       10.6404091061
  O         4.0120998395       11.2565033954       12.5886962421
  O        -0.5061612179        8.6074992653        5.8974920666
  H         3.3774779978        8.6468399556        3.6480670220
  H        -1.1290940784        5.8566028462       10.3049733491
  H         0.2612468183        8.5552214673       12.8869550577
  H         4.7638975842       11.3551251311        6.2338915393
  H         1.8301232076       11.3832249375        3.6551872939
  H         3.2246837085        8.4598227773       10.3196016468
  H         1.8038914760        5.8254183082       12.8816379216
  H         0.4107444233        8.7448685718        6.2184122512
  H         2.3733853564        8.6674218836        4.8755945192
  H         6.2121270695        0.1831022608       11.5959534452
  H         1.2641892228        8.5395600807       11.6584395740
  H         2.5697854376        5.5534840959        4.9417736306
  H        -0.2683542228        5.6422148699        4.8759248837
  H         4.1276244339        8.4454465082       11.6141713087
  H         9.0532185194        0.0910490839       11.6570703672
  H        -0.4912078091        8.7596658529        4.9232517636
 Ca         6.7521674451        7.1324160992        2.7245309469
 Ca        -0.2561861665       10.0297493458        9.4457984916
 Ca        -3.1120810440       10.0711704153       13.8116777155
 Ca        -1.7878057495        7.1772536456        7.0922225208
  S        -0.2320145376        9.9980208378        2.5512005420
  S         6.7312319229        7.1727034676        9.2506046938
  S        -1.8100120177        7.2074427141       13.9863819202
  S        -3.0965064644       10.0337271604        7.2844537434
  O         4.9690120278        8.8109027496        3.3825902772
  O         6.2248813433        6.0362013156       10.0841845176
  O        -1.3304220216        8.3898369892       13.1535603877
  O        -2.5908945666       11.1707988514        6.4514899646
  O         0.2408946334       11.1654419739        3.4060679056
  O         7.2239178612        8.3056239704       10.0951337727
  O         3.3930517889        6.0381870657       13.1338603967
  O        -3.5885710178        8.9005115017        6.4399411716
  O         6.5923514940        9.4510791973        1.8185390829
  O         7.8141699433        6.5966983646        8.4325771159
  O        -2.9551430693        7.7540708053       14.7185300443
  O        -4.1812743153       10.6084699972        8.1022650213
  O        -1.3757609993       10.5574043442        1.8242589130
  O         5.6602526878        7.7499347551        8.4164707252
  O         5.0127584122        6.6470706839       14.7127560217
  O        -2.0240262269        9.4579807817        8.1185145450
  O        -3.2102273092        8.3820566858        3.9374958854
  O        -4.5965816938       11.3765950675       10.6520077867
  O         6.8486035691        8.8240895267       12.5972090915
  O         8.2297658480        5.8358417657        5.8843205796
  O         5.3027293618        5.9487083214        3.9448572096
  O        -1.5383446548        8.5996506372       10.6402897496
  O        -1.6670518084       11.2565003807       12.5886825216
  O         5.1721962526        8.6087528968        5.8979222234
  H        -2.3013162083        8.6498748415        3.6483292097
  H         4.5494438470        5.8561956013       10.3049257286
  H         5.9403281702        8.5546810401       12.8870908875
  H        -0.9150347329       11.3557139505        6.2336082694
  H        -3.8497334352       11.3807373026        3.6551655756
  H        -2.4549654096        8.4604651043       10.3196541671
  H         7.4829406045        5.8259379364       12.8816889571
  H         6.0894471799        8.7443731075        6.2185344092
  H        -3.3045581205        8.6660852231        4.8764730092
  H         0.5333522697        0.1834224896       11.5956234761
  H         6.9426648823        8.5399381062       11.6581848627
  H         8.2487315116        5.5524644170        4.9423031666
  H         5.4110513219        5.6411984690        4.8756187831
  H        -1.5518218319        8.4459792314       11.6141151159
  H         3.3743751135        0.0911018851       11.6570024617
  H         5.1880098093        8.7573106972        4.9231242617
     192
 i =       38, E =     -2324.1013672107
 Ca         9.3294450038        1.3959766534        2.7229966951
 Ca         2.3187019131        4.2948814741        9.4456812332
 Ca        -0.5421305521        4.3374549639       13.8109613432
 Ca         0.7860445558        1.4413468198        7.0904190676
  S         2.3430432279        4.2608828814        2.5495307888
  S         9.3046555131        1.4377573149        9.2507637270
  S         0.7621912734        1.4733876583       13.9857532720
  S        -0.5214407175        4.2982056216        7.2842188078
  O         7.5456138983        3.0750304154        3.3816385095
  O         8.7982880263        0.3007223483       10.0839050664
  O         1.2410427211        2.6554126524       13.1523306277
  O        -0.0154270756        5.4352702539        6.4510229640
  O         2.8161783149        5.4298208142        3.4026921910
  O         9.7957273621        2.5711421430       10.0959086954
  O         5.9657581332        0.3033831545       13.1343466170
  O        -1.0129863250        3.1650368778        6.4393274497
  O         9.1675109786        3.7143711165        1.8162101266
  O        10.3893454606        0.8628038561        8.4338551468
  O        -0.3829032768        2.0197467903       14.7178401175
  O        -1.6064705301        4.8731342226        8.1016247117
  O         1.1983692086        4.8186544610        1.8229360529
  O         8.2338331579        2.0142204396        8.4158262559
  O         7.5859029116        0.9144902087       14.7118828218
  O         0.5499111501        3.7215620102        8.1192009399
  O        -0.6344401323        2.6459537436        3.9378860792
  O        -2.0174945567        5.6363851870       10.6535864311
  O         9.4201052743        3.0887357874       12.5978104001
  O        10.7979466250        0.1073271245        5.8814487034
  O         7.8773227285        0.2146032833        3.9450032163
  O         1.0340899657        2.8647170287       10.6391540249
  O         0.9072309982        5.5201195722       12.5886038533
  O         7.7491344567        2.8714203208        5.8968643804
  H         0.2751335648        2.9132454751        3.6493560949
  H         7.1217994580        0.1193556139       10.3047132224
  H         8.5106207377        2.8201970589       12.8861335817
  H         1.6598857122        5.6203637733        6.2317609424
  H        -1.2733289081        5.6465443265        3.6526457626
  H         0.1172702319        2.7269616417       10.3178330043
  H        10.0561925869        0.0889619294       12.8826749791
  H         8.6663621958        3.0067802165        6.2182034243
  H        -0.7282744114        2.9283901929        4.8774075287
  H        -2.0367244225        5.9190499838       11.5958214100
  H         9.5147418221        2.8062324886       11.6584431332
  H         5.6706562842       11.2885634494        4.9414875643
  H         2.8378100273       11.3768591644        4.8752517791
  H         1.0197869008        2.7114996654       11.6128472379
  H         0.7998819732        5.8268939654       11.6576828223
  H         7.7652580541        3.0202160773        4.9225186629
 Ca         3.6471787190        1.3975570856        2.7234579619
 Ca         7.9977947598        4.2950563547        9.4459303078
 Ca         5.1377538672        4.3369711528       13.8110705123
 Ca         6.4651139778        1.4414100014        7.0903795470
  S         8.0219991210        4.2582413519        2.5494479511
  S         3.6255933321        1.4377131825        9.2507736227
  S         6.4414086133        1.4729743786       13.9858095778
  S         5.1579162367        4.2981747624        7.2843485292
  O         1.8660228658        3.0775801657        3.3817798964
  O         3.1193243046        0.3006381324       10.0839468447
  O         6.9203540594        2.6551090429       13.1523586039
  O         5.6634607975        5.4353601593        6.4510828078
  O         8.4952387877        5.4269048604        3.4030661472
  O         4.1165793471        2.5710607105       10.0959855067
  O         0.2867659352        0.3037718940       13.1341441634
  O         4.6666252188        3.1649716926        6.4393454909
  O         3.4886818449        3.7166223741        1.8167394887
  O         4.7101971853        0.8627630258        8.4338134921
  O         5.2963739790        2.0194863434       14.7180079526
  O         4.0730626250        4.8728951040        8.1020842190
  O         6.8774845125        4.8166812949        1.8230649239
  O         2.5547715481        2.0142058686        8.4158655750
  O         1.9066340949        0.9149310596       14.7119914657
  O         6.2293885804        3.7215604406        8.1191945671
  O         5.0437522746        2.6455669714        3.9377289994
  O         3.6608534400        5.6368162447       10.6534150449
  O         3.7412775190        3.0887459156       12.5979217071
  O         5.1198127519        0.1057894279        5.8820141232
  O         2.1965992366        0.2142848630        3.9452424777
  O         6.7129240422        2.8652242457       10.6392784816
  O         6.5865494677        5.5200541870       12.5885539435
  O         2.0718265688        2.8690685550        5.8965226682
  H         5.9535648196        2.9109121388        3.6482850224
  H         1.4433077041        0.1188269066       10.3046926261
  H         2.8316924529        2.8208438882       12.8863759685
  H         7.3381763650        5.6217094096        6.2315229119
  H         4.4063453806        5.6483582018        3.6520313236
  H         5.7961327154        2.7275482005       10.3180338910
  H         4.3770066267        0.0886094986       12.8829945341
  H         2.9889746640        3.0053175060        6.2176735372
  H         4.9507092880        2.9294983683        4.8767846546
  H         3.6421769666        5.9183501347       11.5960370617
  H         3.8357218919        2.8059459077       11.6586234850
  H        -0.0083994174       11.2910906834        4.9408042245
  H        -2.8430287138       11.3778650080        4.8760052128
  H         6.6988418195        2.7112742486       11.6127848144
  H         6.4791171558        5.8266978036       11.6575880260
  H         2.0863234225        3.0209101007        4.9227898135
 Ca         1.0746851765        7.1331821522        2.7217848571
 Ca         5.4222339202       10.0302590990        9.4454845959
 Ca         2.5625249923       10.0723880927       13.8119113299
 Ca         3.8920235965        7.1766401871        7.0902516220
  S         5.4465320704        9.9929305866        2.5496511357
  S         1.0529357043        7.1732419269        9.2510306542
  S         3.8679838708        7.2086343718       13.9858258100
  S         2.5822137707       10.0334249469        7.2835432784
  O        -0.7086633759        8.8126131347        3.3814173368
  O         0.5475741523        6.0360104922       10.0843004023
  O         4.3466940715        8.3907669618       13.1524014673
  O         3.0866839753       11.1707285312        6.4503050661
  O         5.9194301963       11.1610789927        3.4038676372
  O         1.5441157129        8.3069166070       10.0954229261
  O        -2.2864138568        6.0400885573       13.1341190155
  O         2.0907695572        8.8996030024        6.4395590858
  O         0.9138518592        9.4519320299        1.8165707476
  O         2.1379639346        6.5988888942        8.4340856214
  O         2.7231469101        7.7550410029       14.7181575555
  O         1.4963468321       10.6069442464        8.1008678907
  O         4.3021224271       10.5513297923        1.8230650602
  O        -0.0192211099        7.7481471927        8.4166697587
  O        -0.6661004024        6.6510699622       14.7118907947
  O         3.6554064267        9.4593282317        8.1177169841
  O         2.4692700871        8.3812233545        3.9376906273
  O         1.0842223124       11.3721174702       10.6533828236
  O         1.1675943994        8.8240409372       12.5977593801
  O         2.5499614075        5.8362561758        5.8828470765
  O        -0.3764693665        5.9505569426        3.9446108496
  O         4.1412593600        8.5978189386       10.6392281015
  O         4.0118746120       11.2552869454       12.5890727495
  O        -0.5062925300        8.6090066996        5.8967396971
  H         3.3798476467        8.6454500414        3.6492035898
  H        -1.1281154260        5.8553520218       10.3046873487
  H         0.2575639321        8.5566717051       12.8857087074
  H         4.7621744224       11.3568862316        6.2324742707
  H         1.8318795822       11.3833636495        3.6534896353
  H         3.2242217544        8.4601203211       10.3184742770
  H         1.8034725108        5.8248072956       12.8822013504
  H         0.4112181896        8.7442095096        6.2174273609
  H         2.3750582146        8.6659954215        4.8764254174
  H         6.2133255901        0.1823944325       11.5960088722
  H         1.2627259873        8.5411186210       11.6586027091
  H         2.5685033104        5.5540673833        4.9405924710
  H        -0.2676270248        5.6422523403        4.8747797648
  H         4.1269215058        8.4459356954       11.6133565915
  H         9.0520092345        0.0916019169       11.6584528815
  H        -0.4907564675        8.7589906916        4.9225288882
 Ca         6.7564840264        7.1316173890        2.7219295115
 Ca        -0.2568366858       10.0300390162        9.4456368647
 Ca        -3.1171459480       10.0728504678       13.8118727265
 Ca        -1.7869825058        7.1768110768        7.0905378726
  S        -0.2315255550        9.9961632212        2.5496801674
  S         6.7317743867        7.1733718977        9.2510546269
  S        -1.8106690088        7.2094329825       13.9857384866
  S        -3.0968749915       10.0333548795        7.2834776310
  O         4.9705320608        8.8094058752        3.3816229476
  O         6.2262817106        6.0361838846       10.0843320268
  O        -1.3320072021        8.3914024991       13.1520779115
  O        -2.5921062613       11.1706297051        6.4502934589
  O         0.2416843494       11.1644274484        3.4035356527
  O         7.2229071088        8.3070252592       10.0955197428
  O         3.3924598739        6.0392148794       13.1341657260
  O        -3.5883567022        8.8995939714        6.4394834933
  O         6.5920685504        9.4493352930        1.8163086556
  O         7.8167915919        6.5988768517        8.4342260954
  O        -2.9554245310        7.7561400571       14.7180553725
  O        -4.1827477219       10.6071142615        8.1005960583
  O        -1.3759849490       10.5546819442        1.8229747657
  O         5.6598925560        7.7484607431        8.4165050322
  O         5.0125400809        6.6500840708       14.7119531267
  O        -2.0239435564        9.4590325501        8.1178142110
  O        -3.2086970406        8.3815916884        3.9379249158
  O        -4.5943844646       11.3719126825       10.6532857278
  O         6.8464026757        8.8239548607       12.5977342922
  O         8.2275693965        5.8394625664        5.8819939824
  O         5.3036237471        5.9504521810        3.9444997438
  O        -1.5381760026        8.5974198988       10.6391034883
  O        -1.6673107154       11.2552904137       12.5891038496
  O         5.1720945376        8.6103793948        5.8971378525
  H        -2.2989007006        8.6485275271        3.6493445435
  H         4.5504834759        5.8550208877       10.3047530268
  H         5.9366101365        8.5560846381       12.8858401677
  H        -0.9167978892       11.3572699820        6.2320975700
  H        -3.8480355850       11.3807675558        3.6535398788
  H        -2.4553770565        8.4606100141       10.3184778653
  H         7.4825576662        5.8253659067       12.8822133131
  H         6.0899371745        8.7437622828        6.2175872496
  H        -3.3029378193        8.6647315264        4.8772290110
  H         0.5346718603        0.1826408975       11.5957901247
  H         6.9411866398        8.5414805785       11.6583702995
  H         8.2473784510        5.5533008911        4.9409915030
  H         5.4119955747        5.6412200468        4.8744122435
  H        -1.5525506325        8.4463997679       11.6133178845
  H         3.3730884960        0.0916835676       11.6584422722
  H         5.1885073801        8.7567997542        4.9224021947
     192
 i =       39, E =     -2324.1014151563
 Ca         9.3354015335        1.3937753398        2.7214561959
 Ca         2.3173772929        4.2950761170        9.4451857564
 Ca        -0.5488524682        4.3403902734       13.8108743346
 Ca         0.7871812249        1.4412181023        7.0898546766
  S         2.3447224081        4.2565961910        2.5485442321
  S         9.3057224135        1.4385666316        9.2513281471
  S         0.7605265412        1.4778589010       13.9854049911
  S        -0.5226543238        4.2974768009        7.2834122797
  O         7.5485665136        3.0707178713        3.3806087912
  O         8.7989028385        0.3014053898       10.0839384908
  O         1.2380617447        2.6600281991       13.1516568557
  O        -0.0163976547        5.4343873173        6.4503053392
  O         2.8182368293        5.4259536721        3.4012878094
  O         9.7959308764        2.5724406592       10.0962083021
  O         5.9640452023        0.3074864929       13.1341772239
  O        -1.0134836051        3.1639310867        6.4388314713
  O         9.1685817914        3.7109258389        1.8143251305
  O        10.3925445742        0.8644096144        8.4361584260
  O        -0.3842647503        2.0235255905       14.7181923953
  O        -1.6091570451        4.8718569309        8.0992992569
  O         1.1990552542        4.8138152508        1.8226321873
  O         8.2351589965        2.0138413827        8.4150331811
  O         7.5848367443        0.9196308512       14.7109521819
  O         0.5485048850        3.7222896274        8.1194059311
  O        -0.6322794513        2.6464217031        3.9372206361
  O        -2.0142204030        5.6280580219       10.6559938411
  O         9.4175189799        3.0880671119       12.5983162501
  O        10.7938041083        0.1157627628        5.8778624888
  O         7.8787663466        0.2158741256        3.9436590075
  O         1.0360562603        2.8600471464       10.6372283352
  O         0.9059833647        5.5194704880       12.5894675934
  O         7.7473236887        2.8757360209        5.8968951234
  H         0.2789388296        2.9109813164        3.6502075187
  H         7.1226381342        0.1168324201       10.3043869403
  H         8.5061829974        2.8224658101       12.8846290715
  H         1.6583376814        5.6229348657        6.2310552298
  H        -1.2702254608        5.6449795609        3.6502867726
  H         0.1181202941        2.7270281666       10.3169396381
  H        10.0541836060        0.0899274548       12.8833801226
  H         8.6655867954        3.0062999460        6.2175299409
  H        -0.7263513319        2.9263120562        4.8776764351
  H        -2.0360148779        5.9179951549       11.5960628150
  H         9.5126544849        2.8077114379       11.6582506094
  H         5.6695241527       11.2891925957        4.9403777672
  H         2.8400434971       11.3760379158        4.8729495507
  H         1.0195180170        2.7131790067       11.6122025771
  H         0.7974142538        5.8290008390       11.6597400470
  H         7.7655824142        3.0187926988        4.9216516563
 Ca         3.6538808293        1.3948453252        2.7217246821
 Ca         7.9963738188        4.2952077418        9.4454155374
 Ca         5.1308707800        4.3400260417       13.8110335065
 Ca         6.4662822966        1.4412062953        7.0897681187
  S         8.0234030354        4.2542962688        2.5484239745
  S         3.6266810855        1.4385100492        9.2513421470
  S         6.4396601332        1.4775319197       13.9854372157
  S         5.1566806221        4.2974064833        7.2835251640
  O         1.8692224647        3.0730530560        3.3810558754
  O         3.1199126283        0.3012944295       10.0839636630
  O         6.9172474212        2.6598537555       13.1516433244
  O         5.6625683581        5.4343820847        6.4502886253
  O         8.4972205393        5.4233405765        3.4015872119
  O         4.1167833680        2.5723490577       10.0963071296
  O         0.2850650143        0.3077000472       13.1340914574
  O         4.6660349356        3.1638794633        6.4387993301
  O         3.4900354801        3.7128739443        1.8149424439
  O         4.7134250329        0.8643901389        8.4361030905
  O         5.2949554842        2.0233393489       14.7183263239
  O         4.0704511673        4.8716971955        8.0998091323
  O         6.8778138913        4.8121347038        1.8227668664
  O         2.5560897142        2.0138034376        8.4151039314
  O         1.9056368735        0.9199264799       14.7110764165
  O         6.2278968792        3.7221598768        8.1194335684
  O         5.0458356917        2.6459922170        3.9370842272
  O         3.6640724856        5.6287310801       10.6557677668
  O         3.7387400411        3.0881127635       12.5984735222
  O         5.1158548967        0.1137125074        5.8786157762
  O         2.1981245824        0.2155536123        3.9438257533
  O         6.7149519177        2.8602093927       10.6372487178
  O         6.5853010500        5.5194615980       12.5894247542
  O         2.0696520316        2.8736767526        5.8967252737
  H         5.9571597847        2.9087453314        3.6491776476
  H         1.4441831362        0.1164451575       10.3044516740
  H         2.8273253474        2.8230617415       12.8849055971
  H         7.3367170650        5.6243136374        6.2307212440
  H         4.4096002353        5.6467862352        3.6496954580
  H         5.7969680418        2.7273749168       10.3170608294
  H         4.3749354288        0.0896280141       12.8836957812
  H         2.9877939542        3.0052108358        6.2172203066
  H         4.9524292916        2.9272967609        4.8771074175
  H         3.6429019915        5.9171545390       11.5963506958
  H         3.8336623681        2.8074671200       11.6584693259
  H        -0.0094816297       11.2917739880        4.9396611685
  H        -2.8407726941       11.3768004101        4.8735908204
  H         6.6985514639        2.7130315893       11.6121943494
  H         6.4766397230        5.8289558741       11.6596951957
  H         2.0866393429        3.0192631723        4.9219658537
 Ca         1.0811246949        7.1303871503        2.7207733144
 Ca         5.4212207369       10.0301152095        9.4451070384
 Ca         2.5559198947       10.0754602431       13.8113654457
 Ca         3.8929785927        7.1766071506        7.0895195045
  S         5.4479154929        9.9889586181        2.5484819062
  S         1.0539456947        7.1741188277        9.2513447388
  S         3.8663477710        7.2129580201       13.9855208941
  S         2.5811267487       10.0326213374        7.2829761567
  O        -0.7054895436        8.8085547758        3.3808016251
  O         0.5485055776        6.0365376014       10.0841549412
  O         4.3437644446        8.3951388263       13.1516296885
  O         3.0853665193       11.1700633697        6.4497114883
  O         5.9215848648       11.1574680222        3.4021304064
  O         1.5437993543        8.3081837485       10.0958319903
  O        -2.2880597515        6.0438517307       13.1343270938
  O         2.0910728557        8.8985005630        6.4388086254
  O         0.9151715339        9.4482911238        1.8146485365
  O         2.1407759591        6.6004217960        8.4357915869
  O         2.7218277659        7.7588318564       14.7185128802
  O         1.4942045753       10.6060010457        8.0990838582
  O         4.3023594643       10.5468654044        1.8228531679
  O        -0.0175747494        7.7485288829        8.4154526989
  O        -0.6669188879        6.6560153691       14.7109348524
  O         3.6533435888        9.4587964741        8.1186990011
  O         2.4713767556        8.3818344640        3.9372236673
  O         1.0874644651       11.3634493657       10.6557838257
  O         1.1650871358        8.8232090827       12.5982127965
  O         2.5462637547        5.8440581864        5.8795893792
  O        -0.3748685896        5.9516860958        3.9437745776
  O         4.1424929789        8.5938218767       10.6374080725
  O         4.0105893411       11.2546291600       12.5895348376
  O        -0.5076141650        8.6129363117        5.8968583802
  H         3.3833978105        8.6436451632        3.6503175837
  H        -1.1272094779        5.8527480451       10.3044454583
  H         0.2532767836        8.5585155231       12.8840060854
  H         4.7603759833       11.3599911654        6.2316010228
  H         1.8348069568       11.3820377191        3.6506978773
  H         3.2244405258        8.4603334238       10.3178378571
  H         1.8016284202        5.8254989597       12.8832760413
  H         0.4107956753        8.7439513002        6.2166496493
  H         2.3769847178        8.6636496815        4.8769844997
  H         6.2138940474        0.1816972872       11.5961212183
  H         1.2605360206        8.5430340293       11.6581984137
  H         2.5678141071        5.5539338607        4.9397748257
  H        -0.2656510223        5.6411228346        4.8729367464
  H         4.1263881486        8.4475229304       11.6125740721
  H         9.0496376978        0.0936580079       11.6600673621
  H        -0.4902778068        8.7574779125        4.9217144607
 Ca         6.7620333629        7.1293238381        2.7206081287
 Ca        -0.2578497606       10.0298104324        9.4451170774
 Ca        -3.1235648892       10.0758128633       13.8115002489
 Ca        -1.7859504772        7.1766962014        7.0897281062
  S        -0.2298521396        9.9921399543        2.5486038887
  S         6.7327546616        7.1742276042        9.2514041404
  S        -1.8122075305        7.2138548091       13.9854533874
  S        -3.0979646462       10.0325979534        7.2828395253
  O         4.9735203468        8.8051545512        3.3806009438
  O         6.2272159010        6.0366925367       10.0842564101
  O        -1.3348380830        8.3958851761       13.1513590645
  O        -2.5933737590       11.1699888410        6.4496139655
  O         0.2438525508       11.1610862678        3.4017111123
  O         7.2225791348        8.3083170200       10.0959034478
  O         3.3907559554        6.0427992073       13.1343969897
  O        -3.5881269412        8.8985011826        6.4387421364
  O         6.5929547898        9.4457242902        1.8141074444
  O         7.8196491688        6.6005067138        8.4360189625
  O        -2.9565861132        7.7600217360       14.7185232663
  O        -4.1849418261       10.6061355832        8.0987024257
  O        -1.3754354387       10.5498915615        1.8226579771
  O         5.6614050144        7.7486786672        8.4153974774
  O         5.0116884668        6.6550916152       14.7110404036
  O        -2.0259524663        9.4586682430        8.1186943796
  O        -3.2067368959        8.3821837443        3.9372485619
  O        -4.5911363375       11.3634760108       10.6557466727
  O         6.8438612398        8.8231189217       12.5982483786
  O         8.2238804055        5.8473267300        5.8785662474
  O         5.3052531948        5.9516988855        3.9436862925
  O        -1.5368952003        8.5932467830       10.6372468498
  O        -1.6686513649       11.2546345981       12.5896133544
  O         5.1707654217        8.6144642570        5.8971589728
  H        -2.2954162361        8.6467394480        3.6503253141
  H         4.5514219811        5.8525149662       10.3045548227
  H         5.9322717695        8.5578836092       12.8841918982
  H        -0.9186107706       11.3600785129        6.2311053817
  H        -3.8450991524       11.3793602914        3.6508783528
  H        -2.4551070425        8.4606298491       10.3177834133
  H         7.4807357146        5.8261345499       12.8832225997
  H         6.0894930989        8.7435844851        6.2167888548
  H        -3.3010688362        8.6624105267        4.8775818826
  H         0.5353405942        0.1818687958       11.5960432618
  H         6.9389887818        8.5433792771       11.6580071367
  H         8.2465380582        5.5534715283        4.9399350304
  H         5.4141458265        5.6400575567        4.8725154723
  H        -1.5530808481        8.4479392404       11.6125526755
  H         3.3706961844        0.0938004841       11.6601455776
  H         5.1890330808        8.7554054487        4.9215095618
     192
 i =       40, E =     -2324.1015075217
 Ca         9.3409922044        1.3913117875        2.7194340426
 Ca         2.3160374029        4.2948930063        9.4440759535
 Ca        -0.5558189053        4.3439426841       13.8114878266
 Ca         0.7884122429        1.4413368991        7.0886714697
  S         2.3480352388        4.2505420859        2.5472566685
  S         9.3067045595        1.4395261667        9.2523341463
  S         0.7574832565        1.4842504350       13.9847685881
  S        -0.5238054697        4.2966657384        7.2816266320
  O         7.5541194626        3.0640315453        3.3790970548
  O         8.8008747322        0.3020012769       10.0846320327
  O         1.2322168108        2.6666834000       13.1503529850
  O        -0.0190325347        5.4338503925        6.4484169440
  O         2.8225199914        5.4204267109        3.3995162946
  O         9.7949636012        2.5747106147       10.0963593096
  O         5.9604017611        0.3139772058       13.1333507370
  O        -1.0123518126        3.1616374978        6.4380082079
  O         9.1708273132        3.7061720269        1.8111174900
  O        10.3967208388        0.8671413094        8.4393664730
  O        -0.3858662941        2.0292644456       14.7199652361
  O        -1.6125537816        4.8694988238        8.0953502264
  O         1.2010020594        4.8080795443        1.8228632645
  O         8.2351966048        2.0116948437        8.4147644677
  O         7.5824757700        0.9257526429       14.7094006892
  O         0.5480628935        3.7248876790        8.1184541549
  O        -0.6297176433        2.6482017096        3.9350850913
  O        -2.0079233341        5.6132101477       10.6593794179
  O         9.4144184075        3.0862286355       12.5992379903
  O        10.7849481636        0.1322318000        5.8715209651
  O         7.8809547242        0.2173173570        3.9415679754
  O         1.0372002657        2.8549376415       10.6340736402
  O         0.9034337362        5.5195356839       12.5913456703
  O         7.7466714984        2.8809907048        5.8968330949
  H         0.2842691801        2.9084258277        3.6515731589
  H         7.1251146772        0.1116144231       10.3039201251
  H         8.5006183513        2.8248037791       12.8822985724
  H         1.6547078710        5.6276818734        6.2293819666
  H        -1.2652406959        5.6419309732        3.6460704276
  H         0.1178810927        2.7288542481       10.3148840014
  H        10.0503596451        0.0924400388       12.8852266836
  H         8.6661540309        3.0043923693        6.2168430850
  H        -0.7241395981        2.9229255225        4.8772255171
  H        -2.0353021036        5.9161964412       11.5954622629
  H         9.5098979670        2.8099018604       11.6577466045
  H         5.6673286539       11.2900956274        4.9390132781
  H         2.8431009297       11.3749024158        4.8694455293
  H         1.0183304002        2.7158007514       11.6104656141
  H         0.7935457036        5.8320124219       11.6629620271
  H         7.7673600867        3.0164441892        4.9204016239
 Ca         3.6612882956        1.3915940109        2.7194396544
 Ca         7.9949420261        4.2950247868        9.4442611690
 Ca         5.1233871601        4.3438571702       13.8116300669
 Ca         6.4675754866        1.4412920453        7.0884810123
  S         8.0264717609        4.2486609957        2.5471268102
  S         3.6277561006        1.4394464001        9.2523418837
  S         6.4364710387        1.4840395803       13.9847828735
  S         5.1554072674        4.2965888998        7.2817989775
  O         1.8753860967        3.0661895672        3.3800371604
  O         3.1219932354        0.3017978089       10.0845896002
  O         6.9111662827        2.6665309984       13.1501984187
  O         5.6600048806        5.4337478832        6.4483908559
  O         8.5013760276        5.4181499605        3.3998103155
  O         4.1158748952        2.5746056491       10.0964906298
  O         0.2814118227        0.3140174264       13.1333848347
  O         4.6669239094        3.1616472689        6.4379874414
  O         3.4923670890        3.7076503978        1.8116746922
  O         4.7177754807        0.8672212293        8.4392925540
  O         5.2932958686        2.0292090456       14.7200559838
  O         4.0669861810        4.8694929359        8.0959007585
  O         6.8794410694        4.8067473468        1.8230857760
  O         2.5561328111        2.0115661889        8.4148770886
  O         1.9034024756        0.9258693411       14.7095048626
  O         6.2272318553        3.7246711496        8.1186400841
  O         5.0486132971        2.6480832379        3.9350641707
  O         3.6702558872        5.6142687225       10.6590437942
  O         3.7355618718        3.0862229589       12.5993832998
  O         5.1074526957        0.1291508127        5.8726527026
  O         2.2006613065        0.2170221176        3.9413869442
  O         6.7161518582        2.8546986777       10.6339783185
  O         6.5827730680        5.5196717235       12.5913409752
  O         2.0683295671        2.8789509482        5.8970480742
  H         5.9626980711        2.9065744097        3.6509877922
  H         1.4466701656        0.1115149826       10.3040461595
  H         2.8216981751        2.8252247258       12.8825849216
  H         7.3331616297        5.6290808035        6.2291115434
  H         4.4144518004        5.6435229087        3.6458467992
  H         5.7967224618        2.7288243470       10.3148454485
  H         4.3711274228        0.0922864376       12.8854902740
  H         2.9876497142        3.0038305444        6.2168199627
  H         4.9545398335        2.9238534293        4.8769227056
  H         3.6435160266        5.9152333983       11.5957985276
  H         3.8309531500        2.8096825233       11.6579414111
  H        -0.0114863897       11.2925671852        4.9382785946
  H        -2.8373194511       11.3754782180        4.8697067783
  H         6.6973360717        2.7157514239       11.6105322123
  H         6.4726250109        5.8321956188       11.6629937760
  H         2.0886840920        3.0166893657        4.9208932589
 Ca         1.0873163341        7.1269949207        2.7195558986
 Ca         5.4200824700       10.0294855102        9.4442823838
 Ca         2.5493953240       10.0792420461       13.8112895109
 Ca         3.8941135570        7.1769942666        7.0878288067
  S         5.4510534869        9.9831933245        2.5469923096
  S         1.0549036265        7.1752856526        9.2517589374
  S         3.8633552815        7.2191810672       13.9849107774
  S         2.5798319963       10.0314229036        7.2819216426
  O        -0.6992579661        8.8023111294        3.3801372471
  O         0.5504673335        6.0370860493       10.0842127206
  O         4.3380337346        8.4015090255       13.1502035350
  O         3.0830457072       11.1693961218        6.4486551104
  O         5.9261444181       11.1520185396        3.4001158301
  O         1.5421852912        8.3103728005       10.0961755068
  O        -2.2916032720        6.0500945869       13.1338204969
  O         2.0928592916        8.8963095160        6.4375253146
  O         0.9177357005        9.4432919375        1.8113544685
  O         2.1444555930        6.6031220204        8.4379679550
  O         2.7201461597        7.7645713063       14.7201218120
  O         1.4912575085       10.6041820467        8.0959987821
  O         4.3040353471       10.5416067551        1.8233286449
  O        -0.0166524763        7.7479654267        8.4141842406
  O        -0.6691098989        6.6617482443       14.7093114135
  O         3.6509438459        9.4585824918        8.1195887489
  O         2.4741357885        8.3837146900        3.9354838855
  O         1.0937591043       11.3486199941       10.6590562809
  O         1.1621404887        8.8212191028       12.5990599022
  O         2.5387793128        5.8585296342        5.8743141529
  O        -0.3724085566        5.9529372319        3.9423690391
  O         4.1424461226        8.5894044046       10.6344710747
  O         4.0080896962       11.2547013236       12.5906954881
  O        -0.5072564104        8.6179526492        5.8969173337
  H         3.3885532508        8.6419167635        3.6521965852
  H        -1.1248297792        5.8472635733       10.3039676044
  H         0.2480297254        8.5602133407       12.8814449521
  H         4.7561025553       11.3658534485        6.2298349281
  H         1.8394408087       11.3790848851        3.6459783381
  H         3.2231751750        8.4623905902       10.3158853119
  H         1.7980228516        5.8276116640       12.8856676693
  H         0.4122007889        8.7421914540        6.2160993175
  H         2.3794083016        8.6599521187        4.8770978782
  H         6.2147584394        0.1803312524       11.5954329278
  H         1.2575937700        8.5457770221       11.6573848399
  H         2.5659785210        5.5537491765        4.9389439730
  H        -0.2623608676        5.6393346071        4.8701383296
  H         4.1247565727        8.4500713306       11.6107276949
  H         9.0457199103        0.0967336755       11.6625012099
  H        -0.4880165224        8.7547878712        4.9204676581
 Ca         6.7666577932        7.1266846258        2.7191090542
 Ca        -0.2589979440       10.0291254283        9.4441422211
 Ca        -3.1296917174       10.0793600864       13.8115486453
 Ca        -1.7847692080        7.1769722569        7.0880273013
  S        -0.2264862181        9.9863665353        2.5471973623
  S         6.7336367566        7.1753562227        9.2518542167
  S        -1.8150899185        7.2202679706       13.9848851772
  S        -3.0991901178       10.0314548807        7.2816487843
  O         4.9791945552        8.7983189514        3.3789717742
  O         6.2292770887        6.0371694533       10.0844028271
  O        -1.3404363533        8.4024723089       13.1500614422
  O        -2.5957704396       11.1693919947        6.4483766678
  O         0.2483154914       11.1562305173        3.3993268578
  O         7.2208236036        8.3105943508       10.0961803966
  O         3.3871378951        6.0487587017       13.1339030417
  O        -3.5863279595        8.8962789710        6.4374536495
  O         6.5950978098        9.4406597384        1.8104915859
  O         7.8234740508        6.6033794663        8.4383878059
  O        -2.9580502174        7.7658406621       14.7203905336
  O        -4.1879308313       10.6042264219        8.0954443750
  O        -1.3735641311       10.5440354367        1.8229343726
  O         5.6619941984        7.7476739825        8.4142450573
  O         5.0095633704        6.6611247901       14.7095108851
  O        -2.0280225494        9.4589279288        8.1193632037
  O        -3.2043499813        8.3839498889        3.9350802639
  O        -4.5848018849       11.3488486021       10.6591366841
  O         6.8407957978        8.8210980152       12.5991893489
  O         8.2160341676        5.8624062561        5.8727313823
  O         5.3074509126        5.9530098607        3.9424860484
  O        -1.5367844091        8.5887081005       10.6342078352
  O        -1.6711246469       11.2547923008       12.5907868053
  O         5.1711384623        8.6197239037        5.8969233429
  H        -2.2905329954        8.6447199109        3.6517382696
  H         4.5538172079        5.8472163848       10.3040576771
  H         5.9268730110        8.5595866619       12.8818102367
  H        -0.9228389012       11.3654520418        6.2292063680
  H        -3.8402654162       11.3766121763        3.6459985632
  H        -2.4562349349        8.4623964639       10.3158083926
  H         7.4771844514        5.8283187089       12.8856291650
  H         6.0908804467        8.7419883769        6.2161475392
  H        -3.2989235100        8.6586653356        4.8772161153
  H         0.5362464181        0.1804338307       11.5955374112
  H         6.9361314938        8.5461053137       11.6572936009
  H         8.2446034612        5.5537087254        4.9386598066
  H         5.4174415704        5.6381618345        4.8697995650
  H        -1.5547025401        8.4504091538       11.6106760972
  H         3.3667185799        0.0969763341       11.6626541414
  H         5.1912917925        8.7529712635        4.9199976239
     192
 i =       41, E =     -2324.1012070164
 Ca         9.3751458869        1.3735021328        2.7107803768
 Ca         2.3075077026        4.2929364496        9.4393753189
 Ca        -0.5949709561        4.3659095124       13.8127800280
 Ca         0.7958157752        1.4428902655        7.0827239227
  S         2.3683160742        4.2127014475        2.5421095737
  S         9.3139328795        1.4454423888        9.2567282684
  S         0.7386255950        1.5233431130       13.9813400479
  S        -0.5320596955        4.2914738670        7.2721295864
  O         7.5852967785        3.0218895229        3.3711630113
  O         8.8115832779        0.3058514227       10.0863099319
  O         1.1983490182        2.7092019696       13.1454912373
  O        -0.0340257876        5.4312196041        6.4401366255
  O         2.8473100938        5.3822410306        3.3954625946
  O         9.7900329017        2.5864306737       10.0982987695
  O         5.9381419668        0.3553552726       13.1270939823
  O        -1.0061603224        3.1493781253        6.4315313347
  O         9.1851665270        3.6761180579        1.7955349712
  O        10.4203154970        0.8813133435        8.4567099147
  O        -0.3976281165        2.0637552760       14.7291166469
  O        -1.6338821660        4.8566717504        8.0726944463
  O         1.2137221015        4.7720382890        1.8269294678
  O         8.2407651690        2.0041810933        8.4105577237
  O         7.5687090719        0.9640920351       14.6992768302
  O         0.5405970314        3.7349422304        8.1163069651
  O        -0.6147844015        2.6576530764        3.9223904163
  O        -1.9680412590        5.5214480394       10.6819375680
  O         9.3973959007        3.0774392045       12.6036184283
  O        10.7323545015        0.2320326853        5.8336915437
  O         7.8934644627        0.2227859018        3.9316402848
  O         1.0451681545        2.8184667092       10.6172890360
  O         0.8891799558        5.5207257182       12.5978059343
  O         7.7404724708        2.9176687389        5.8988818654
  H         0.3137379049        2.8915431320        3.6572310634
  H         7.1397256608        0.0809838469       10.3018894241
  H         8.4708907635        2.8402565933       12.8701834699
  H         1.6337077039        5.6565804260        6.2218636689
  H        -1.2377713488        5.6213561588        3.6245802356
  H         0.1165264429        2.7377895570       10.3057206725
  H        10.0274232959        0.1106893911       12.8942307679
  H         8.6685625701        2.9948200900        6.2130040963
  H        -0.7092975087        2.9016924427        4.8741790345
  H        -2.0305317427        5.9084980570       11.5917639719
  H         9.4925851855        2.8244627236       11.6538876590
  H         5.6546518622       11.2937638977        4.9322905877
  H         2.8607507622       11.3642523550        4.8513606273
  H         1.0113872885        2.7319483950       11.6031576001
  H         0.7718480030        5.8514816420       11.6772290145
  H         7.7773849799        3.0007570479        4.9134285169
 Ca         3.7021941881        1.3707564880        2.7091254993
 Ca         7.9859794275        4.2928355237        9.4396313809
 Ca         5.0824982493        4.3667775767       13.8129871373
 Ca         6.4751568398        1.4428142256        7.0820262479
  S         8.0450947479        4.2129448029        2.5418043681
  S         3.6354823320        1.4452589429        9.2566636793
  S         6.4169324131        1.5239429413       13.9811972078
  S         5.1465450408        4.2913591655        7.2726031595
  O         1.9098313595        3.0229449730        3.3741275738
  O         3.1332692933        0.3052560941       10.0859453958
  O         6.8761067775        2.7094974963       13.1447084889
  O         5.6453689756        5.4306699850        6.4402146209
  O         8.5255262210        5.3811603776        3.3958657838
  O         4.1112918967        2.5862280646       10.0985913234
  O         0.2591412880        0.3545151218       13.1275473716
  O         4.6718475035        3.1496523458        6.4316548944
  O         3.5078688169        3.6759591586        1.7956132122
  O         4.7422247332        0.8819161480        8.4564766978
  O         5.2811139681        2.0642866147       14.7290475561
  O         4.0455097650        4.8574011064        8.0736509343
  O         6.8905605123        4.7727620542        1.8271054037
  O         2.5617841070        2.0037009440        8.4108975603
  O         1.8903200345        0.9632768859       14.6993735420
  O         6.2189046787        3.7342339696        8.1168685396
  O         5.0642588654        2.6588094416        3.9230406400
  O         3.7092375382        5.5246489157       10.6808152557
  O         3.7182280628        3.0773431443       12.6037004548
  O         5.0568965958        0.2243936483        5.8365371731
  O         2.2147436713        0.2226445069        3.9296618073
  O         6.7244590908        2.8159213560       10.6166591155
  O         6.5683695825        5.5212459258       12.5981758277
  O         2.0594514331        2.9156366540        5.9002263445
  H         5.9929975988        2.8915227134        3.6589406237
  H         1.4613865105        0.0823304444       10.3024820664
  H         2.7917429107        2.8397941710       12.8704243647
  H         7.3125902818        5.6582002553        6.2210916014
  H         4.4412635796        5.6218334767        3.6262280993
  H         5.7953807173        2.7357721403       10.3051827298
  H         4.3481654576        0.1113265097       12.8942156093
  H         2.9867571333        2.9967228730        6.2148803247
  H         4.9688603383        2.9026070831        4.8751292960
  H         3.6479409756        5.9069441365       11.5922399107
  H         3.8138168644        2.8242243077       11.6540348185
  H        -0.0230232453       11.2959950891        4.9313196772
  H        -2.8179899638       11.3641722895        4.8496586606
  H         6.6901148160        2.7322054487       11.6035380120
  H         6.4504186218        5.8528271814       11.6779167562
  H         2.0992535142        2.9997311234        4.9141897319
 Ca         1.1236346863        7.1056787475        2.7145219466
 Ca         5.4116048329       10.0256780226        9.4405583170
 Ca         2.5121474110       10.1020615075       13.8091836156
 Ca         3.9015968220        7.1804031205        7.0795781650
  S         5.4699212594        9.9467092175        2.5409407607
  S         1.0621903407        7.1820649528        9.2535301885
  S         3.8447397458        7.2576158353       13.9816305416
  S         2.5706448387       10.0243180569        7.2755752973
  O        -0.6647210504        8.7629884270        3.3761422055
  O         0.5611279751        6.0408131772       10.0831153684
  O         4.3049238654        8.4423133617       13.1443571183
  O         3.0696231654       11.1658091891        6.4442349454
  O         5.9521667226       11.1134623187        3.3954568810
  O         1.5348149201        8.3217827431       10.0987074118
  O        -2.3133724275        6.0902928312       13.1287241904
  O         2.1010426034        8.8842798383        6.4292237606
  O         0.9337788575        9.4120713098        1.7955858122
  O         2.1663486420        6.6175408383        8.4509373055
  O         2.7079905411        7.7990855185       14.7285669395
  O         1.4709669649       10.5929848858        8.0765096670
  O         4.3154196514       10.5079722537        1.8280068278
  O        -0.0080589812        7.7463299095        8.4064254267
  O        -0.6818469413        6.6983207209       14.6992107369
  O         3.6362894551        9.4581227747        8.1241012872
  O         2.4897718348        8.3931810074        3.9248731453
  O         1.1335838868       11.2570181192       10.6810785970
  O         1.1459524283        8.8117361260       12.6029216948
  O         2.4917984314        5.9491677190        5.8414743437
  O        -0.3587610168        5.9575061051        3.9347892211
  O         4.1450769207        8.5565739019       10.6184880857
  O         3.9938552785       11.2561392619       12.5943789206
  O        -0.5091202340        8.6539156128        5.9000513071
  H         3.4169923303        8.6287308571        3.6600994425
  H        -1.1103795150        5.8154868794       10.3024217672
  H         0.2199910157        8.5726141310       12.8685884811
  H         4.7320106439       11.4008042830        6.2204282366
  H         1.8655265113       11.3594694989        3.6220302534
  H         3.2169783261        8.4726658760       10.3073634567
  H         1.7759916187        5.8436571480       12.8975363923
  H         0.4186848414        8.7331738857        6.2126482194
  H         2.3948296889        8.6378546369        4.8767351736
  H         6.2193915029        0.1746998942       11.5912005097
  H         1.2398221649        8.5630084664       11.6518429571
  H         2.5564991146        5.5514773965        4.9350004061
  H        -0.2438661849        5.6258211919        4.8546636336
  H         4.1152973079        8.4656159579       11.6028226165
  H         9.0238465906        0.1162972284       11.6735043271
  H        -0.4752118924        8.7386932281        4.9140777379
 Ca         6.7970989461        7.1081396519        2.7127419426
 Ca        -0.2675523171       10.0248323377        9.4397475715
 Ca        -3.1655992904       10.1013746743       13.8099897820
 Ca        -1.7770862300        7.1796508268        7.0799055075
  S        -0.2058977323        9.9505134847        2.5414868769
  S         6.7406201845        7.1819786970        9.2538591260
  S        -1.8330287741        7.2593295057       13.9817592474
  S        -3.1081180882       10.0246868477        7.2745623720
  O         5.0104775609        8.7553594100        3.3704976235
  O         6.2402495674        6.0406125474       10.0837291246
  O        -1.3730598187        8.4445352272       13.1452058363
  O        -2.6095304738       11.1661885766        6.4429914487
  O         0.2742462564       11.1219182240        3.3922232731
  O         7.2128052257        8.3224302659       10.0985031692
  O         3.3651829762        6.0872684880       13.1294934294
  O        -3.5780001211        8.8841546089        6.4290278781
  O         6.6087631426        9.4085878912        1.7933032986
  O         7.8459844250        6.6185044060        8.4522183807
  O        -2.9687817304        7.8012719697       14.7297085595
  O        -4.2085287489       10.5926186344        8.0750574745
  O        -1.3610528764       10.5076931414        1.8266553409
  O         5.6694520887        7.7444674005        8.4068740443
  O         4.9966367426        6.6986299543       14.6996445950
  O        -2.0416476790        9.4602118712        8.1230024421
  O        -3.1901837646        8.3929744054        3.9224022327
  O        -4.5448244878       11.2583115839       10.6816496192
  O         6.8242353448        8.8117251533       12.6036507070
  O         8.1675441033        5.9562701578        5.8370194459
  O         5.3199814619        5.9577590229        3.9359853217
  O        -1.5337022911        8.5546581715       10.6179309240
  O        -1.6852647611       11.2565307795       12.5944725371
  O         5.1692248166        8.6576118558        5.8985649401
  H        -2.2633811134        8.6307152136        3.6573785542
  H         4.5681827665        5.8164638665       10.3026398157
  H         5.8983011088        8.5718482098       12.8695552947
  H        -0.9466724066       11.3978222640        6.2191111932
  H        -3.8131042841       11.3576975533        3.6210493671
  H        -2.4620300567        8.4712066072       10.3069919768
  H         7.4551281973        5.8448666173       12.8974127175
  H         6.0973430893        8.7338793591        6.2119142474
  H        -3.2846348396        8.6361286411        4.8745803311
  H         0.5412334360        0.1744036307       11.5921916160
  H         6.9183267301        8.5632247292       11.6524901385
  H         8.2341238338        5.5538661895        4.9324155408
  H         5.4362639442        5.6239823249        4.8547873398
  H        -1.5638758467        8.4655578856       11.6028097845
  H         3.3445322315        0.1170837409       11.6739713667
  H         5.2040508914        8.7375704903        4.9120813680
     192
 i =       42, E =     -2324.1017143493
 Ca         9.3540654923        1.3820489124        2.7182874621
 Ca         2.3126616587        4.2937051671        9.4422078896
 Ca        -0.5706641863        4.3548319474       13.8105486745
 Ca         0.7911436126        1.4420285087        7.0857365115
  S         2.3585096629        4.2326533649        2.5463104865
  S         9.3096218839        1.4420073730        9.2538468290
  S         0.7479048528        1.5028383437       13.9828042443
  S        -0.5272029963        4.2943727665        7.2778790247
  O         7.5687562272        3.0438017742        3.3764099911
  O         8.8051978300        0.3040553935       10.0852434520
  O         1.2164917163        2.6874912489       13.1487354680
  O        -0.0256902590        5.4326137030        6.4450974805
  O         2.8353777056        5.4010851297        3.4004486405
  O         9.7930781915        2.5794772305       10.0965711319
  O         5.9485615977        0.3344906619       13.1292912384
  O        -1.0092194533        3.1562308414        6.4356703628
  O         9.1781328809        3.6915818751        1.8046295315
  O        10.4061101427        0.8728278092        8.4463932660
  O        -0.3915430070        2.0457872628       14.7248541520
  O        -1.6216277445        4.8639744137        8.0854829055
  O         1.2086018813        4.7921713593        1.8264438100
  O         8.2376691359        2.0082098695        8.4122656371
  O         7.5747803268        0.9426664269       14.7040688994
  O         0.5447299969        3.7294064273        8.1183693451
  O        -0.6227664873        2.6536445442        3.9293375771
  O        -1.9900202905        5.5711157605       10.6710573564
  O         9.4067263465        3.0815224488       12.6005690188
  O        10.7603614787        0.1774595139        5.8537064870
  O         7.8869761251        0.2192564525        3.9387932816
  O         1.0410799103        2.8379915763       10.6270615306
  O         0.8961184524        5.5209353725       12.5928542296
  O         7.7437580397        2.8990679256        5.8985409994
  H         0.2974493539        2.9016435300        3.6548041716
  H         7.1306327885        0.0976953944       10.3038145226
  H         8.4879814034        2.8306898211       12.8762693776
  H         1.6461546087        5.6400714411        6.2264294548
  H        -1.2522037175        5.6311732712        3.6379341174
  H         0.1182495210        2.7319289547       10.3111845909
  H        10.0387345961        0.1026566532       12.8885028199
  H         8.6664721423        3.0017356997        6.2160791917
  H        -0.7182396360        2.9131512662        4.8759253577
  H        -2.0355349696        5.9113259471       11.5941927806
  H         9.5031298268        2.8163375389       11.6553059636
  H         5.6629199442       11.2924872727        4.9365409163
  H         2.8516869141       11.3686110957        4.8626302373
  H         1.0162038926        2.7233648645       11.6073493363
  H         0.7826237603        5.8419598588       11.6682027489
  H         7.7715270686        3.0100133440        4.9181459510
 Ca         3.6772239955        1.3810385013        2.7175722961
 Ca         7.9914584336        4.2937666814        9.4424275516
 Ca         5.1077784488        4.3552592550       13.8106414495
 Ca         6.4703987090        1.4421184340        7.0853010969
  S         8.0363350173        4.2315928722        2.5460982449
  S         3.6309515488        1.4418940191        9.2537971372
  S         6.4266098000        1.5029222506       13.9827334662
  S         5.1517146817        4.2943031357        7.2783096732
  O         1.8915146439        3.0456296438        3.3781846081
  O         3.1266252796        0.3037040607       10.0850299698
  O         6.8949479633        2.6873847595       13.1482701568
  O         5.6534799372        5.4323392215        6.4452798120
  O         8.5140030909        5.3991062180        3.4008917982
  O         4.1142547348        2.5793253834       10.0967463882
  O         0.2695649664        0.3343142475       13.1294236620
  O         4.6693941378        3.1563938739        6.4358608817
  O         3.5000092529        3.6924378644        1.8048634192
  O         4.7275739638        0.8731010560        8.4462170836
  O         5.2874348380        2.0459588969       14.7248271993
  O         4.0578177320        4.8642816961        8.0863269728
  O         6.8864152358        4.7915597117        1.8266557175
  O         2.5586989328        2.0079307069        8.4124505025
  O         1.8959966740        0.9423598774       14.7040972441
  O         6.2235007331        3.7289468666        8.1187794218
  O         5.0560276525        2.6543117272        3.9297452525
  O         3.6877405257        5.5729354986       10.6703671134
  O         3.7276854689        3.0814755045       12.6006148242
  O         5.0838613343        0.1727379392        5.8554247315
  O         2.2075941374        0.2190780238        3.9376612281
  O         6.7201486940        2.8370463754       10.6268635470
  O         6.5753869512        5.5212845342       12.5930042823
  O         2.0643517481        2.8967029927        5.8992159907
  H         5.9765906017        2.9006948249        3.6555759249
  H         1.4521639776        0.0982668343       10.3040753686
  H         2.8089113554        2.8306618475       12.8764335532
  H         7.3246445022        5.6415799736        6.2259756429
  H         4.4268415919        5.6321931036        3.6388023248
  H         5.7972216079        2.7309953759       10.3109056498
  H         4.3595438724        0.1028950261       12.8885633620
  H         2.9865860779        3.0022405007        6.2169350547
  H         4.9603281485        2.9142289461        4.8763336001
  H         3.6430473536        5.9103324982       11.5945179645
  H         3.8242300358        2.8160209307       11.6554394421
  H        -0.0152775964       11.2944652953        4.9356311683
  H        -2.8278040270       11.3691098579        4.8618635990
  H         6.6951271321        2.7232769904       11.6074840806
  H         6.4613966243        5.8426447953       11.6685163233
  H         2.0931400567        3.0099294815        4.9188260607
 Ca         1.1011286891        7.1161871607        2.7196657383
 Ca         5.4165133679       10.0277160654        9.4428483059
 Ca         2.5352852641       10.0905613267       13.8090251552
 Ca         3.8971495163        7.1786898529        7.0837308530
  S         5.4610683158        9.9657074809        2.5457788921
  S         1.0578295299        7.1781572238        9.2520219459
  S         3.8539013678        7.2376222744       13.9829843499
  S         2.5758294872       10.0281624067        7.2797763518
  O        -0.6830493874        8.7831010551        3.3791632418
  O         0.5544052619        6.0392308119       10.0834411998
  O         4.3226909791        8.4218324671       13.1483114144
  O         3.0776198458       11.1674211809        6.4474648530
  O         5.9396260086       11.1321675425        3.4011352164
  O         1.5394398783        8.3149588867       10.0965855960
  O        -2.3031913358        6.0704462537       13.1299775316
  O         2.0963378957        8.8910233902        6.4345326427
  O         0.9257070360        9.4280773417        1.8047674253
  O         2.1532210052        6.6089978884        8.4431166642
  O         2.7142318469        7.7811131797       14.7246339054
  O         1.4821456647       10.5991682270        8.0873367765
  O         4.3112151491       10.5264251489        1.8272028268
  O        -0.0125996313        7.7472244974        8.4098356948
  O        -0.6764658421        6.6779437114       14.7039629258
  O         3.6437101619        9.4581101933        8.1230480696
  O         2.4814088987        8.3890231729        3.9308456477
  O         1.1117106595       11.3072235584       10.6705261424
  O         1.1549551717        8.8162348388       12.6001062179
  O         2.5170852901        5.8996322153        5.8587171637
  O        -0.3658370392        5.9544276040        3.9403602159
  O         4.1442526448        8.5735123945       10.6276653484
  O         4.0008277358       11.2563112795       12.5911197091
  O        -0.5083256622        8.6360792279        5.8991528840
  H         3.4013993846        8.6365601094        3.6564673052
  H        -1.1195839328        5.8327559571       10.3039347636
  H         0.2362376382        8.5649087465       12.8752167136
  H         4.7458099135       11.3812020798        6.2260958819
  H         1.8518678543       11.3685334497        3.6369135124
  H         3.2214351603        8.4661633332       10.3123474618
  H         1.7866847909        5.8369344167       12.8901313041
  H         0.4144300643        8.7395131835        6.2156576031
  H         2.3856393989        8.6500440618        4.8770837341
  H         6.2146967464        0.1761393654       11.5941203559
  H         1.2506445007        8.5532058272       11.6542157267
  H         2.5629038913        5.5534070470        4.9375880432
  H        -0.2530073063        5.6318546438        4.8642479312
  H         4.1212954314        8.4575227830       11.6074811616
  H         9.0345494254        0.1067692055       11.6664128039
  H        -0.4823595939        8.7481656347        4.9184757200
 Ca         6.7781493886        7.1170812824        2.7187358399
 Ca        -0.2625625691       10.0271685807        9.4424227389
 Ca        -3.1432088048       10.0902057031       13.8094644947
 Ca        -1.7817227275        7.1783153120        7.0840635300
  S        -0.2158319083        9.9690469042        2.5460361634
  S         6.7364100968        7.1781424421        9.2522428603
  S        -1.8242458127        7.2389632641       13.9829763861
  S        -3.1030275529       10.0283501987        7.2790993792
  O         4.9936575162        8.7775987451        3.3760046366
  O         6.2333219809        6.0391961521       10.0838396968
  O        -1.3554518150        8.4233242902       13.1485870132
  O        -2.6014440609       11.1676206242        6.4466699425
  O         0.2617407617       11.1381292147        3.3991290269
  O         7.2177702548        8.3153681730       10.0964987401
  O         3.3754681018        6.0684944031       13.1302892134
  O        -3.5826885039        8.8909198652        6.4343677985
  O         6.6024140539        9.4253622700        1.8035416879
  O         7.8324763682        6.6094477126        8.4439524686
  O        -2.9635323574        7.7824736902       14.7252426117
  O        -4.1971332537       10.5990305350        8.0863616663
  O        -1.3659043309       10.5278199221        1.8264243441
  O         5.6654931897        7.7461793632        8.4100865517
  O         5.0021124001        6.6777318019       14.7042758590
  O        -2.0345483057        9.4594064804        8.1222242109
  O        -3.1977721011        8.3890162515        3.9293999085
  O        -4.5667661889       11.3076991563       10.6708011920
  O         6.8334211570        8.8161759493       12.6005023437
  O         8.1934236249        5.9050804553        5.8558982641
  O         5.3133003135        5.9544729259        3.9410704137
  O        -1.5347621564        8.5725034654       10.6273383745
  O        -1.6783049053       11.2565783364       12.5911564791
  O         5.1700559062        8.6385038293        5.8983561112
  H        -2.2783543408        8.6388877134        3.6549325872
  H         4.5589426735        5.8332333856       10.3040199689
  H         5.9148461158        8.5642657872       12.8758854253
  H        -0.9328500717       11.3795334126        6.2251048028
  H        -3.8271500594       11.3666143270        3.6362711287
  H        -2.4577293859        8.4655287906       10.3122162488
  H         7.4657987815        5.8378344608       12.8901527394
  H         6.0930422899        8.7398290118        6.2151673764
  H        -3.2932572833        8.6484449472        4.8760562745
  H         0.5362414937        0.1761666223       11.5945407924
  H         6.9291922419        8.5534680559       11.6544949877
  H         8.2411339083        5.5545237103        4.9363742145
  H         5.4268105238        5.6303360802        4.8642481470
  H        -1.5580145402        8.4576097046       11.6074099297
  H         3.3554118077        0.1072915170       11.6666473747
  H         5.1968299528        8.7466380962        4.9172724687
     192
 i =       43, E =     -2324.1021730150
 Ca         9.3599081310        1.3741638593        2.7204813435
 Ca         2.3102824359        4.2918559191        9.4429728285
 Ca        -0.5758070260        4.3624260715       13.8096521826
 Ca         0.7929518875        1.4433524713        7.0829509028
  S         2.3646290381        4.2206852172        2.5476870446
  S         9.3113753442        1.4429717598        9.2532822895
  S         0.7421653063        1.5151607447       13.9813148189
  S        -0.5294653341        4.2932237840        7.2781205519
  O         7.5757910407        3.0292591778        3.3755822707
  O         8.8061431573        0.3048791047       10.0837348159
  O         1.2107578028        2.7016000986       13.1496376935
  O        -0.0275084423        5.4318483710        6.4462745549
  O         2.8426547979        5.3853147952        3.4059936593
  O         9.7929714005        2.5805962642       10.0963921967
  O         5.9400835879        0.3510405304       13.1241181968
  O        -1.0088876289        3.1548779363        6.4351776774
  O         9.1829195905        3.6810600105        1.8030998591
  O        10.4099535602        0.8748269629        8.4479769780
  O        -0.3947694518        2.0575935750       14.7272900661
  O        -1.6260492812        4.8620260743        8.0828870967
  O         1.2149954618        4.7835582519        1.8297169996
  O         8.2399105283        2.0078909902        8.4099977870
  O         7.5685741736        0.9508870804       14.7008227936
  O         0.5415395221        3.7291847869        8.1202428093
  O        -0.6192404639        2.6539928228        3.9281789995
  O        -1.9848029382        5.5552899715       10.6757481348
  O         9.4041237038        3.0810143240       12.6009994214
  O        10.7491005539        0.1974447045        5.8464623481
  O         7.8889212491        0.2195229531        3.9421909660
  O         1.0461417013        2.8214889400       10.6242381057
  O         0.8927281505        5.5219576279       12.5904535997
  O         7.7400197150        2.9175549694        5.9013440429
  H         0.3032930767        2.8960872114        3.6576628008
  H         7.1292743711        0.0951963488       10.3026930554
  H         8.4838324763        2.8345955213       12.8737502667
  H         1.6446742252        5.6426419956        6.2279373737
  H        -1.2474186377        5.6242027146        3.6397603666
  H         0.1212754215        2.7277938076       10.3097906725
  H        10.0325705920        0.1111405255       12.8871025995
  H         8.6651604409        3.0061742117        6.2171727397
  H        -0.7164181455        2.9080394721        4.8760330512
  H        -2.0378992499        5.9143887944       11.5917735897
  H         9.5020541610        2.8207265291       11.6545961491
  H         5.6607117952       11.2884093964        4.9385701511
  H         2.8576067116       11.3624360849        4.8633428190
  H         1.0168457215        2.7249973390       11.6073552448
  H         0.7755853665        5.8478100429       11.6679852464
  H         7.7737577533        3.0089516166        4.9177776671
 Ca         3.6828989829        1.3734198649        2.7199689759
 Ca         7.9891489045        4.2920830290        9.4431682433
 Ca         5.1026619765        4.3628684201       13.8095643034
 Ca         6.4722705307        1.4438119306        7.0822559152
  S         8.0426346247        4.2194447302        2.5474690608
  S         3.6328302387        1.4428370773        9.2531575802
  S         6.4208468931        1.5152194317       13.9812312784
  S         5.1493975696        4.2932173671        7.2788082775
  O         1.8984179844        3.0312803461        3.3772309944
  O         3.1277511413        0.3044903741       10.0834543503
  O         6.8892526848        2.7014174098       13.1492113883
  O         5.6515980815        5.4315833932        6.4466693492
  O         8.5216093011        5.3831424420        3.4062854438
  O         4.1142232989        2.5804206906       10.0965422562
  O         0.2610532825        0.3509527485       13.1242272771
  O         4.6695699887        3.1551323516        6.4356165078
  O         3.5046267183        3.6821179648        1.8033069517
  O         4.7315896525        0.8752279201        8.4476711159
  O         5.2842205205        2.0577757539       14.7272445301
  O         4.0533986956        4.8624043731        8.0840283348
  O         6.8929049872        4.7826606100        1.8300451298
  O         2.5609773426        2.0075497760        8.4101909949
  O         1.8898116152        0.9505548677       14.7007955927
  O         6.2203273822        3.7287449965        8.1207719685
  O         5.0598274323        2.6551718497        3.9287755748
  O         3.6927295069        5.5571196896       10.6749844032
  O         3.7249717902        3.0809129102       12.6009759910
  O         5.0734620982        0.1916710949        5.8483205424
  O         2.2095344721        0.2194004116        3.9407720335
  O         6.7252648084        2.8207560964       10.6241092453
  O         6.5720104819        5.5223676979       12.5906492753
  O         2.0607850939        2.9140300183        5.9018295774
  H         5.9829807099        2.8952400934        3.6589750306
  H         1.4507406592        0.0959398515       10.3028857068
  H         2.8046398583        2.8344670837       12.8737972072
  H         7.3228870687        5.6442929670        6.2273797456
  H         4.4312280575        5.6253030289        3.6410769553
  H         5.8004082232        2.7267348830       10.3093820681
  H         4.3533886008        0.1114724765       12.8870263827
  H         2.9852319090        3.0065254572        6.2184033494
  H         4.9623071967        2.9095220815        4.8766796782
  H         3.6404225765        5.9135200131       11.5920604666
  H         3.8231673521        2.8202179054       11.6547048237
  H        -0.0170566747       11.2905293706        4.9372342567
  H        -2.8217788583       11.3632690945        4.8623359005
  H         6.6958451280        2.7247527982       11.6074685003
  H         6.4542600306        5.8486106821       11.6683847458
  H         2.0952836590        3.0090195392        4.9184317101
 Ca         1.1067646548        7.1085341034        2.7216730502
 Ca         5.4138172204       10.0257126751        9.4437322324
 Ca         2.5300489016       10.0981583116       13.8082573321
 Ca         3.8992675909        7.1807062417        7.0805051094
  S         5.4673799934        9.9533851853        2.5472662023
  S         1.0597304437        7.1792274653        9.2511308556
  S         3.8482632269        7.2499340886       13.9815189945
  S         2.5731528881       10.0266254152        7.2805092544
  O        -0.6757590693        8.7692838622        3.3787989893
  O         0.5553336238        6.0402390025       10.0815710332
  O         4.3171546101        8.4358653488       13.1492344345
  O         3.0758770612       11.1661551353        6.4493552460
  O         5.9473822986       11.1158938605        3.4067821644
  O         1.5393827683        8.3161006818       10.0963514193
  O        -2.3114589824        6.0872502473       13.1245886532
  O         2.0963377230        8.8894511842        6.4341210854
  O         0.9305045019        9.4176392498        1.8033098091
  O         2.1573761264        6.6111587033        8.4445235181
  O         2.7110037948        7.7928151499       14.7270058514
  O         1.4769762864       10.5969775445        8.0846514990
  O         4.3177018732       10.5173341815        1.8307587711
  O        -0.0104483265        7.7467595493        8.4074498188
  O        -0.6824817134        6.6862120484       14.7006545700
  O         3.6402924506        9.4580657174        8.1253191324
  O         2.4848916033        8.3890725328        3.9300418173
  O         1.1166608289       11.2920013197       10.6750524336
  O         1.1527105694        8.8157091844       12.6003661176
  O         2.5088301402        5.9150222842        5.8530782617
  O        -0.3638437596        5.9547661748        3.9433835415
  O         4.1493875874        8.5563747793       10.6248040763
  O         3.9973072977       11.2573705311       12.5888119176
  O        -0.5120752632        8.6552685201        5.9022693882
  H         3.4072729704        8.6306494703        3.6595716627
  H        -1.1209389504        5.8301570183       10.3025906119
  H         0.2324596963        8.5688628269       12.8727155463
  H         4.7431023942       11.3847136932        6.2274126588
  H         1.8566021903       11.3616350615        3.6387203540
  H         3.2244170359        8.4617127109       10.3110196576
  H         1.7805878338        5.8453238412       12.8889029611
  H         0.4132625899        8.7439319325        6.2171118439
  H         2.3873776343        8.6455196364        4.8773369360
  H         6.2125105979        0.1789068794       11.5918311675
  H         1.2497004878        8.5573820248       11.6533472794
  H         2.5613097822        5.5487572019        4.9395802283
  H        -0.2467171029        5.6256242276        4.8645924652
  H         4.1216545911        8.4589772232       11.6075313828
  H         9.0272530226        0.1127546356       11.6662838836
  H        -0.4799139933        8.7478328292        4.9184692382
 Ca         6.7839434776        7.1091368907        2.7207438325
 Ca        -0.2652789834       10.0252573683        9.4433057735
 Ca        -3.1484767657       10.0977620352       13.8086393098
 Ca        -1.7797189493        7.1802290917        7.0809784821
  S        -0.2094279040        9.9572367014        2.5474431114
  S         6.7382355751        7.1791968927        9.2514192539
  S        -1.8298158952        7.2513723914       13.9814912124
  S        -3.1056553241       10.0268304797        7.2795861044
  O         5.0004436704        8.7629351506        3.3752685828
  O         6.2342139375        6.0401936905       10.0820558467
  O        -1.3608114196        8.4375775052       13.1496622994
  O        -2.6033028191       11.1664166797        6.4482893516
  O         0.2694190670       11.1229453447        3.4041921822
  O         7.2175891013        8.3165541799       10.0962945218
  O         3.3671986949        6.0850400519       13.1250603566
  O        -3.5826065244        8.8892903244        6.4338086769
  O         6.6071325889        9.4144798468        1.8020980203
  O         7.8366353541        6.6116188991        8.4454803465
  O        -2.9667227077        7.7941603029       14.7276587402
  O        -4.2022738653       10.5967150575        8.0835715473
  O        -1.3592824761       10.5189805210        1.8297535279
  O         5.6676435951        7.7456923338        8.4076392069
  O         4.9959573322        6.6859381915       14.7010375684
  O        -2.0378483507        9.4594618617        8.1242483524
  O        -3.1942857552        8.3890352761        3.9282491576
  O        -4.5617369451       11.2923017640       10.6753799083
  O         6.8310169616        8.8155784157       12.6008644198
  O         8.1841015414        5.9222693327        5.8496133914
  O         5.3151139923        5.9546761235        3.9442675120
  O        -1.5296576869        8.5555083273       10.6245559223
  O        -1.6818590306       11.2577437148       12.5888106453
  O         5.1660976445        8.6578109866        5.9011610528
  H        -2.2726558482        8.6332592539        3.6577495862
  H         4.5573343546        5.8308211700       10.3025787670
  H         5.9109283702        8.5681214986       12.8734705977
  H        -0.9352161193       11.3827243036        6.2261573929
  H        -3.8222169122       11.3595848597        3.6377147125
  H        -2.4547152153        8.4610076438       10.3108846624
  H         7.4596551113        5.8463861617       12.8889609873
  H         6.0916701726        8.7444855907        6.2161540935
  H        -3.2915491765        8.6435508440        4.8760225698
  H         0.5339460180        0.1790845718       11.5922249813
  H         6.9281783994        8.5576189504       11.6537531300
  H         8.2394701454        5.5501355234        4.9383377038
  H         5.4330181559        5.6238173530        4.8646920275
  H        -1.5575641157        8.4590734681       11.6074995580
  H         3.3480749976        0.1134227482       11.6665014437
  H         5.1990921208        8.7458270070        4.9169254702
     192
 i =       44, E =     -2318.7671321172
 Ca         9.4992566985        1.2394027579        2.7599558586
 Ca         2.2872660372        4.2844362396        9.4289450875
 Ca        -0.7729190099        4.4934064245       13.7235378087
 Ca         0.8099403768        1.4604080045        7.0655161856
  S         2.4290486972        4.2826632508        2.5757662149
  S         9.2978096563        1.4647359064        9.2174884719
  S         0.6967459143        1.4350514178       14.0072329304
  S        -0.5168390563        4.2585272329        7.2460518389
  O         7.5592902361        3.0483658057        3.3362689536
  O         8.7954612102        0.2629089304       10.0906398086
  O         1.2642507475        2.7639690326       13.1740647434
  O        -0.0160115363        5.4531111865        6.4511883150
  O         2.8598659759        5.3926674724        3.3350697842
  O         9.8259886765        2.6092304045       10.1243389171
  O         5.9874647812        0.2824195545       13.1900660982
  O        -1.0536679291        3.1361723833        6.3905564983
  O         9.2086994637        3.5256315563        1.7490974663
  O        10.4275083726        0.8639162325        8.4570727613
  O        -0.4376387200        2.1627739184       14.7366933554
  O        -1.6881301693        4.8591823867        8.0957210092
  O         1.2478135080        4.6764026113        1.8550170425
  O         8.2194359492        1.9998325685        8.4140715102
  O         7.4907893859        1.0408659201       14.6583236525
  O         0.6210977356        3.7563647887        8.1026617453
  O        -0.6466183056        2.6639601989        3.9204609503
  O        -1.7847215126        5.5340539317       10.8888609730
  O         9.4967764162        3.1230322106       12.6441108226
  O        10.6139226071        0.2233782550        5.6937954358
  O         7.9168263768        0.1554775643        3.8825554431
  O         1.0042583595        2.7848266675       10.8529284647
  O         0.8837450259        5.5877100467       12.5943840633
  O         7.7614371387        2.8877108765        5.6513440429
  H         0.3707764146        2.8759667288        3.6286035764
  H         7.1007048501        0.0733381570       10.2913453530
  H         8.4167708110        2.8651396021       12.8849760337
  H         1.7118420368        5.6842345481        6.2281961791
  H        -1.2058987983        5.6092528644        3.6571496920
  H         0.1546942507        2.6973766691       10.3271152430
  H         9.9759646412        0.1250028811       12.8694059436
  H         8.5823361767        3.0204780394        6.2335211099
  H        -0.6570036977        2.8984149680        4.8600001180
  H        -2.0531286036        5.8942550371       11.4942394636
  H         9.4388372479        2.8224595966       11.6583486504
  H         5.7037333369       11.3957533289        5.1631631561
  H         2.8667501889       11.3596933054        4.8314834473
  H         1.0153464188        2.7125373770       11.4422144477
  H         0.7754610129        5.8626789711       11.6459190205
  H         7.7113916869        3.0151000358        5.1629578467
 Ca         3.8667418917        1.2399314220        2.7507276723
 Ca         7.9654063926        4.2806115040        9.4343578837
 Ca         4.8921652182        4.4972718080       13.7264499842
 Ca         6.4881993351        1.4516408282        7.0679050141
  S         8.1070510095        4.2701131927        2.5904183334
  S         3.6233849747        1.4702879707        9.2202549294
  S         6.3839822723        1.4310391180       14.0156144169
  S         5.1528051838        4.2613613260        7.2429002431
  O         1.8475545215        3.0232787156        3.3438683249
  O         3.1170623319        0.2622570534       10.0860076600
  O         6.9480530442        2.7733925887       13.1641934177
  O         5.6636153470        5.4513133644        6.4502088764
  O         8.5364012475        5.4241986325        3.3398488201
  O         4.1477581459        2.6086435837       10.1228189674
  O         0.3080563649        0.2802943095       13.1871485934
  O         4.6286247521        3.1312411549        6.3926674021
  O         3.5275956350        3.5252496241        1.7559395719
  O         4.7404870256        0.8614042617        8.4566565168
  O         5.2328740580        2.1596007901       14.7353498764
  O         3.9996726007        4.8575183017        8.1110401403
  O         6.9262509019        4.6725814872        1.8482447381
  O         2.5405528126        1.9996191470        8.4140197210
  O         1.8119571414        1.0462721838       14.6596447025
  O         6.3013907920        3.7575214148        8.1052871659
  O         5.0358983604        2.6618383834        3.9244278004
  O         3.8860512530        5.5587373156       10.8863309328
  O         3.8182574865        3.1218195590       12.6446559159
  O         4.9026769859        0.2372716732        5.7332479653
  O         2.2439357787        0.1574575505        3.8725844071
  O         6.6940906797        2.7955091424       10.8441936792
  O         6.5646133405        5.5917757715       12.5941844092
  O         2.1034523719        2.9311121819        5.6798744849
  H         6.0338869470        2.8698933135        3.6242722100
  H         1.4183788395        0.0704600772       10.2960126749
  H         2.7405752487        2.8674782885       12.8857295839
  H         7.4044424387        5.7001443959        6.2220800418
  H         4.4826507466        5.6143310010        3.6518477576
  H         5.8343937215        2.6978601450       10.3310627529
  H         4.2953624869        0.1224534697       12.8734874887
  H         2.8993473148        3.0222054473        6.2115233220
  H         5.0172053883        2.9014797399        4.8507568170
  H         3.6265198513        5.8907284472       11.4921854174
  H         3.7600569209        2.8230647943       11.6591510739
  H         0.0195591738       11.3767973429        5.1283021142
  H        -2.8235189752       11.3529620066        4.8402090143
  H         6.6916675054        2.7130406337       11.4485860489
  H         6.4556066152        5.8629444104       11.6451354463
  H         2.0486258437        3.0098445545        5.1529785991
 Ca         1.2596013510        6.9564343189        2.7500364568
 Ca         5.4147627493       10.0391841061        9.4573031835
 Ca         2.3467680395       10.2299982091       13.7243379861
 Ca         3.8993789671        7.1599126385        7.0571655379
  S         5.5213011681       10.0028046535        2.6025387683
  S         1.0415613084        7.1722080469        9.2542577977
  S         3.8007567830        7.1598739976       13.9963710079
  S         2.5950248133       10.0503372587        7.2050787735
  O        -0.7278223259        8.7254926891        3.3396937972
  O         0.5618918146        5.9810669185       10.1062766121
  O         4.3614886367        8.5228871772       13.1769449027
  O         3.0463887133       11.2048613673        6.4154614034
  O         5.9577555311       11.1716360979        3.3112209019
  O         1.5649719388        8.3499857852       10.0973589938
  O        -2.2698785214        6.0167295785       13.1914847397
  O         2.0807848255        8.8609972956        6.4245842487
  O         0.9593699899        9.2573515595        1.7501792149
  O         2.1606902917        6.6218583253        8.4448300813
  O         2.6715804297        7.8968474278       14.7338555979
  O         1.4264751826       10.5656974536        8.1093850626
  O         4.3558976210       10.4170642137        1.8404598092
  O         0.0217861054        7.7866385177        8.3499534108
  O        -0.7620057992        6.7741921346       14.6641300404
  O         3.6023400540        9.3919932672        8.2338008870
  O         2.4744051955        8.3934728195        3.9345025039
  O         1.2815021692       11.2690899289       10.8582338831
  O         1.2372602640        8.8522913131       12.6404835549
  O         2.3036544276        5.9609479297        5.7205470278
  O        -0.3324373680        5.8923294857        3.9252753481
  O         4.1017273678        8.5323160032       10.8575947995
  O         3.9879806184       11.3254456620       12.5662874207
  O        -0.4928594841        8.5817649214        5.6727467081
  H         3.4648124374        8.6046036660        3.6304583696
  H        -1.1613008521        5.8069915961       10.3029901886
  H         0.1674153920        8.5999770605       12.8829840079
  H         4.8602801229       11.4577798788        6.2112083950
  H         1.9075112717       11.3542889191        3.6658353459
  H         3.2649837011        8.4318476841       10.3209189758
  H         1.7267649083        5.8607706915       12.8625563452
  H         0.3026416288        8.7587256216        6.2290210581
  H         2.4420654469        8.6400020773        4.8528220354
  H         6.1873111752        0.1677816704       11.5146022395
  H         1.1890397847        8.5602888490       11.6617535103
  H         2.6060364886        5.5921052728        5.0581677084
  H        -0.2453245132        5.6278357219        4.8227583015
  H         4.1342456135        8.4477646199       11.4445434206
  H         9.0261547564        0.1221465413       11.6536429555
  H        -0.5488604079        8.7587577578        5.1441397911
 Ca         6.9007279998        6.9621457035        2.7497990046
 Ca        -0.2647605873       10.0356929108        9.4540630902
 Ca        -3.3224488227       10.2262839118       13.7227573062
 Ca        -1.7694919496        7.1680517086        7.0542341359
  S        -0.1411644947       10.0169117958        2.5944627179
  S         6.7228116356        7.1785567647        9.2511023941
  S        -1.8679705155        7.1608759191       13.9994952401
  S        -3.0790762305       10.0370586982        7.2115313690
  O         4.9944105366        8.7923773289        3.3407588603
  O         6.2367701913        5.9863101818       10.1009719839
  O        -1.3314353617        8.4992336572       13.1676448622
  O        -2.6285297033       11.2055917820        6.4197793730
  O         0.3066330907       11.0677526717        3.3525175751
  O         7.2447117327        8.3457358175       10.0997869030
  O         3.3972305459        6.0508808356       13.1752901242
  O        -3.6054600796        8.8672318188        6.4184305622
  O         6.6436382436        9.2953259726        1.7582982992
  O         7.8349515562        6.6173659714        8.4492728187
  O        -3.0162806143        7.8696104663       14.7217171028
  O        -4.2555242654       10.5711248298        8.0923662616
  O        -1.3493114291       10.4222999211        1.8394872695
  O         5.6935980602        7.7730240431        8.3630834353
  O         4.9311463505        6.7780101870       14.6694414086
  O        -2.0463788490        9.4162990865        8.2044381679
  O        -3.2157053373        8.3968868836        3.9340614604
  O        -4.3891282205       11.2749280217       10.8643232815
  O         6.9220158001        8.8557688083       12.6457152813
  O         8.0015222146        5.9820860865        5.7168215137
  O         5.3449154283        5.8915791421        3.9274009225
  O        -1.5683478682        8.5457955857       10.8566137627
  O        -1.6908897974       11.3304421872       12.5667777283
  O         5.1842463242        8.5745110166        5.6625197395
  H        -2.1939807685        8.6151321164        3.6273196001
  H         4.5117853251        5.8055003253       10.3062064282
  H         5.8411510810        8.5970844707       12.8814942434
  H        -0.8179414969       11.4484593046        6.2027038004
  H        -3.7873816932       11.3379921064        3.6718008020
  H        -2.4141752189        8.4324308583       10.3261693014
  H         7.4098976577        5.8645294411       12.8626491473
  H         5.9828905548        8.7551627184        6.2363944927
  H        -3.2332046158        8.6377428549        4.8580171917
  H         0.5110723936        0.1634664744       11.5047870511
  H         6.8647999434        8.5584999141       11.6568883777
  H         8.2847911587        5.6198414271        5.1026831364
  H         5.4394566930        5.6303367724        4.8184077372
  H        -1.5487644876        8.4489161835       11.4453131453
  H         3.3442669883        0.1202312600       11.6527541757
  H         5.1202405423        8.7559784835        5.1487858806
     192
 i =       45, E =     -2321.9809690283
 Ca         9.5455809404        1.1649977124        2.7820362150
 Ca         2.2621894833        4.2626373108        9.4413269808
 Ca        -0.8007106612        4.5640435644       13.7261593338
 Ca         0.8289571754        1.4741211489        7.0339931460
  S         2.4929414849        4.1281547838        2.5891858936
  S         9.3208420414        1.4725677775        9.2155486679
  S         0.6344367650        1.5967742290       13.9848988824
  S        -0.5459693992        4.2503094075        7.2551956243
  O         7.6461153364        2.8687481402        3.3329900792
  O         8.8079994431        0.2791088188       10.0706405160
  O         1.1880243045        2.9252676097       13.1819827248
  O        -0.0389626846        5.4406875491        6.4659638499
  O         2.9453875065        5.1991092219        3.4160074252
  O         9.8196324792        2.6174375485       10.1174104920
  O         5.8764122717        0.4953240781       13.1155612970
  O        -1.0427904841        3.1235603389        6.3921506153
  O         9.2626021167        3.4222985592        1.7402602042
  O        10.4699383676        0.8891939950        8.4731934591
  O        -0.4694488793        2.2897093656       14.7648809134
  O        -1.7310004099        4.8365959447        8.0640561388
  O         1.3211889297        4.5905765922        1.8914518241
  O         8.2495321777        1.9978430565        8.3858593186
  O         7.4269844451        1.1242566636       14.6256086848
  O         0.5699379499        3.7482375595        8.1288486848
  O        -0.6001779040        2.6654658029        3.9083957174
  O        -1.7552629031        5.3498094348       10.9111175770
  O         9.4518888050        3.1112539842       12.6424165682
  O        10.4997875043        0.4584580838        5.6312327074
  O         7.9349610611        0.1682359883        3.9355377755
  O         1.0727934564        2.5883483456       10.7831831133
  O         0.8446007931        5.5899470326       12.5632636097
  O         7.7127408912        3.1192758440        5.7257174162
  H         0.4296094653        2.8116122046        3.6682134659
  H         7.0867822012        0.0491494226       10.2792648522
  H         8.3791506937        2.9073679351       12.8532635797
  H         1.6849240184        5.7063596269        6.2477640668
  H        -1.1561635659        5.5270738761        3.6797264525
  H         0.1867765875        2.6499007818       10.3076333208
  H         9.9106823394        0.2266026136       12.8537642177
  H         8.5795351619        3.0744543113        6.2452195428
  H        -0.6456232600        2.8385076884        4.8639014352
  H        -2.0806089354        5.9374542746       11.4793778529
  H         9.4375368299        2.8754404332       11.6495731307
  H         5.6707249616       11.3264818493        5.1538637823
  H         2.9371575807       11.2843630120        4.8475448437
  H         1.0235928931        2.7329086503       11.4691039496
  H         0.6901306873        5.9309080093       11.6451547223
  H         7.7485398981        3.0028618483        5.1202746460
 Ca         3.9030291690        1.1691862606        2.7770000562
 Ca         7.9413664721        4.2615704939        9.4455942403
 Ca         4.8670307179        4.5674023826       13.7263014500
 Ca         6.5081391171        1.4714474796        7.0327093991
  S         8.1734245165        4.1148849631        2.6014690825
  S         3.6472926236        1.4769686716        9.2169271032
  S         6.3201082979        1.5929931049       13.9918187222
  S         5.1244847144        4.2535085027        7.2558441600
  O         1.9377722290        2.8505008203        3.3378712847
  O         3.1318238197        0.2780614163       10.0658824047
  O         6.8716033228        2.9321537900       13.1741503442
  O         5.6397222619        5.4393112996        6.4678561080
  O         8.6265560895        5.2227591433        3.4181946951
  O         4.1422130225        2.6166349677       10.1158176907
  O         0.1966355813        0.4947364666       13.1127730302
  O         4.6370958806        3.1205612820        6.3971012112
  O         3.5796363375        3.4248674597        1.7457276350
  O         4.7863707317        0.8887230750        8.4711818316
  O         5.2026039044        2.2871354572       14.7635426403
  O         3.9554937813        4.8360763374        8.0808030955
  O         7.0009847399        4.5833994565        1.8872661695
  O         2.5710943627        1.9968602246        8.3859292670
  O         1.7483529923        1.1285640155       14.6260208140
  O         6.2503024909        3.7494938638        8.1326023146
  O         5.0852225691        2.6701700601        3.9141262510
  O         3.9138436995        5.3707695553       10.9080428363
  O         3.7718855908        3.1095355498       12.6420063857
  O         4.8048257496        0.4563758973        5.6663589610
  O         2.2608181820        0.1705966300        3.9235251235
  O         6.7616008730        2.6001648050       10.7767147519
  O         6.5253984920        5.5941401899       12.5636681842
  O         2.0537898418        3.1409477072        5.7473779676
  H         6.1021595994        2.8074838619        3.6713228706
  H         1.4042231670        0.0488425107       10.2823035986
  H         2.7009431209        2.9081438454       12.8524295465
  H         7.3717322860        5.7217429533        6.2413043127
  H         4.5258792946        5.5326220449        3.6809120848
  H         5.8683885783        2.6488278826       10.3093269219
  H         4.2304253879        0.2255945434       12.8554860690
  H         2.8968640647        3.0737325989        6.2313778032
  H         5.0313664325        2.8464088315        4.8590771997
  H         3.5955601150        5.9359761659       11.4771901895
  H         3.7588783111        2.8734683005       11.6499518535
  H        -0.0073803927       11.3128081252        5.1189597189
  H        -2.7502305849       11.2830880744        4.8519485039
  H         6.7012724472        2.7312775049       11.4741615435
  H         6.3688761614        5.9325673083       11.6455697080
  H         2.0821987129        3.0001727382        5.1115869291
 Ca         1.3009116311        6.8882478065        2.7710869184
 Ca         5.3819421033       10.0123549081        9.4667651568
 Ca         2.3154051667       10.3004313472       13.7286693126
 Ca         3.9248688345        7.1880473777        7.0213037528
  S         5.5894933226        9.8456460160        2.6131945031
  S         1.0671823141        7.1858193287        9.2424027117
  S         3.7399845224        7.3231031903       13.9760497771
  S         2.5593347323       10.0282655371        7.2268620333
  O        -0.6325585460        8.5645439353        3.3417592602
  O         0.5714957155        6.0023431374       10.0792417995
  O         4.2890673989        8.6795726291       13.1847398672
  O         3.0306351408       11.1834782778        6.4448640391
  O         6.0503146546       10.9641343012        3.3974239960
  O         1.5606808958        8.3576997293       10.0939487847
  O        -2.3774484005        6.2332739095       13.1139364809
  O         2.0826636668        8.8471484973        6.4218590668
  O         1.0127456001        9.1560191705        1.7420974213
  O         2.2095119539        6.6457052891        8.4606848280
  O         2.6392157432        8.0226547273       14.7617055354
  O         1.3722937246       10.5444379218        8.0743498118
  O         4.4298503878       10.3239220066        1.8828715589
  O         0.0420726322        7.7745861404        8.3304120488
  O        -0.8233101899        6.8586853442       14.6296528958
  O         3.5678132751        9.4020650269        8.2442284764
  O         2.5176027328        8.3920821419        3.9247216493
  O         1.3131011323       11.0927535106       10.8831143653
  O         1.1980492664        8.8412670197       12.6371847474
  O         2.2377422646        6.1360098572        5.6745197711
  O        -0.3142989868        5.9058953165        3.9666909247
  O         4.1725922303        8.3255378958       10.7867184208
  O         3.9472150210       11.3277286523       12.5408413140
  O        -0.5417943243        8.8289753462        5.7475651918
  H         3.5257121966        8.5363417048        3.6728959261
  H        -1.1733288804        5.7818767223       10.2861369201
  H         0.1339665685        8.6430879554       12.8517430539
  H         4.8104247193       11.4859864420        6.2311925129
  H         1.9552506417       11.2716557814        3.6868870431
  H         3.2959492682        8.3801316916       10.3032941740
  H         1.6618050239        5.9611964720       12.8501254984
  H         0.3055183246        8.8122768455        6.2459048037
  H         2.4531219265        8.5868823966        4.8595666096
  H         6.1638421177        0.2055755764       11.4982279700
  H         1.1890276652        8.6100805428       11.6504630738
  H         2.5797423286        5.5268081440        5.0647699649
  H        -0.1691344706        5.5513240383        4.8353909450
  H         4.1371142165        8.4657008875       11.4716961541
  H         8.9377896326        0.1929609474       11.6529309949
  H        -0.5081986076        8.7550682266        5.1091361795
 Ca         6.9504868522        6.8889983381        2.7709423942
 Ca        -0.2977479472       10.0105956016        9.4640587782
 Ca        -3.3558603075       10.2968687089       13.7265791047
 Ca        -1.7470322035        7.1936350939        7.0206532162
  S        -0.0743126013        9.8645187165        2.6053626634
  S         6.7470905785        7.1909800101        9.2406035136
  S        -1.9294639081        7.3253241155       13.9784320652
  S        -3.1149245522       10.0172878267        7.2291528160
  O         5.0764749680        8.6096833770        3.3379180132
  O         6.2465283937        6.0066406922       10.0758768274
  O        -1.3993890211        8.6625495987       13.1788110555
  O        -2.6463698658       11.1848773043        6.4450467483
  O         0.3938862369       10.8909743755        3.4247266660
  O         7.2386863469        8.3546978118       10.0963765019
  O         3.2914984807        6.2586286730       13.1023195743
  O        -3.6014062560        8.8516640196        6.4147912821
  O         6.6950539732        9.1818839619        1.7490982819
  O         7.8845605338        6.6420821191        8.4659900671
  O        -3.0467112693        7.9996745835       14.7520669567
  O        -4.3088773676       10.5474190013        8.0586553959
  O        -1.2694216755       10.3320160905        1.8791275928
  O         5.7150167172        7.7628579554        8.3406578731
  O         4.8658185810        6.8609999992       14.6350519266
  O        -2.0842513958        9.4237695175        8.2163893797
  O        -3.1705999132        8.3946037916        3.9199663236
  O        -4.3577513159       11.0953604288       10.8889182583
  O         6.8798090018        8.8432502845       12.6428821057
  O         7.9187776529        6.1772550975        5.6629833371
  O         5.3611717291        5.9035192618        3.9706725776
  O        -1.4993099437        8.3387059629       10.7868652220
  O        -1.7321341375       11.3332917563       12.5407758322
  O         5.1329173956        8.8245110166        5.7350443087
  H        -2.1384627055        8.5491734364        3.6666014208
  H         4.4974186039        5.7829365083       10.2875841586
  H         5.8067218267        8.6393313778       12.8516259835
  H        -0.8634989039       11.4741228288        6.2206677483
  H        -3.7347179411       11.2559300357        3.6872806093
  H        -2.3828410962        8.3798138706       10.3076785349
  H         7.3437096696        5.9664940897       12.8506765237
  H         5.9829657481        8.8122391381        6.2462044184
  H        -3.2229829811        8.5801068037        4.8603959255
  H         0.4857852607        0.2039110132       11.4895762415
  H         6.8643540811        8.6083017847       11.6479276397
  H         8.2576945130        5.5532686969        5.1019843645
  H         5.5137290979        5.5496191782        4.8329375029
  H        -1.5442103827        8.4668218488       11.4728218196
  H         3.2558699278        0.1932097916       11.6519638712
  H         5.1601138103        8.7464267607        5.1086987103
     192
 i =       46, E =     -2323.6603580378
 Ca         9.5510473567        1.1550373729        2.7841981987
 Ca         2.2582669027        4.2593196562        9.4442325246
 Ca        -0.8014698184        4.5735437656       13.7285994686
 Ca         0.8320580403        1.4760563847        7.0287846470
  S         2.5012199001        4.0987094119        2.5890542342
  S         9.3254335634        1.4727336806        9.2176143284
  S         0.6212234738        1.6257298611       13.9792827702
  S        -0.5508041296        4.2501660196        7.2572541446
  O         7.6597090125        2.8411955338        3.3336501978
  O         8.8102954398        0.2827298529       10.0666151939
  O         1.1761530571        2.9495795426       13.1834059354
  O        -0.0429396663        5.4380849644        6.4684451329
  O         2.9603073222        5.1716690647        3.4298023101
  O         9.8180490958        2.6179047420       10.1153583237
  O         5.8572041828        0.5284524883       13.1034792689
  O        -1.0406121015        3.1220048408        6.3932110944
  O         9.2702933653        3.4080473337        1.7398617423
  O        10.4762144153        0.8934567174        8.4751084275
  O        -0.4733251457        2.3074578043       14.7685432208
  O        -1.7364947875        4.8326029252        8.0585217965
  O         1.3323169633        4.5785632390        1.8963692572
  O         8.2536116754        1.9979899090        8.3810986216
  O         7.4226559675        1.1356434138       14.6245198906
  O         0.5609948175        3.7468624751        8.1321708819
  O        -0.5928784568        2.6657176690        3.9064414372
  O        -1.7434472534        5.2953465907       10.8774244876
  O         9.4437235234        3.1076042618       12.6398910835
  O        10.4604332020        0.5499669092        5.7123751104
  O         7.9395859780        0.1705860328        3.9443053329
  O         1.0742004240        2.6081605504       10.6370170603
  O         0.8360151823        5.5897246216       12.5577466882
  O         7.7584738157        3.0050329554        5.9757174162
  H         0.4386431762        2.8018855746        3.6745370007
  H         7.0900941731        0.0490846715       10.2747793704
  H         8.3726677913        2.9135559758       12.8485851606
  H         1.6649497592        5.7023218788        6.2612613461
  H        -1.1497031399        5.5145844857        3.6826802816
  H         0.1913841957        2.6428062367       10.3063392612
  H         9.9029571664        0.2420889820       12.8520880321
  H         8.5787379859        3.0828770291        6.2446771964
  H        -0.6440649703        2.8294245421        4.8648252575
  H        -2.0998745129        5.9658148428       11.5180968490
  H         9.4378578863        2.8841747079       11.6491812206
  H         5.7046353062       11.2678865231        5.0509887623
  H         2.9479676203       11.2728712711        4.8498066980
  H         1.0348763089        2.6866923525       11.6059322025
  H         0.6772021580        5.9413063221       11.6455557046
  H         7.7011599617        3.1497433494        4.8780111675
 Ca         3.9067233423        1.1592660394        2.7798977678
 Ca         7.9376312440        4.2587381575        9.4482706996
 Ca         4.8666257302        4.5770788871       13.7283235876
 Ca         6.5113372374        1.4744951336        7.0270130180
  S         8.1826078817        4.0874097440        2.6009121196
  S         3.6518115661        1.4768173342        9.2186469896
  S         6.3055533417        1.6222802892       13.9853900550
  S         5.1201137311        4.2532446764        7.2586863593
  O         1.9523468229        2.8242930341        3.3375749410
  O         3.1344649858        0.2816226223       10.0619328522
  O         6.8596928837        2.9559888624       13.1761169302
  O         5.6355724166        5.4368078732        6.4707446072
  O         8.6416582962        5.1927544131        3.4308748177
  O         4.1407791356        2.6171274717       10.1138225210
  O         0.1774317703        0.5281191902       13.1007648359
  O         4.6389429825        3.1193893927        6.3985370801
  O         3.5869882265        3.4110722354        1.7451283262
  O         4.7932782024        0.8933410317        8.4728531606
  O         5.1991311384        2.3049565364       14.7672611469
  O         3.9497330122        4.8323044456        8.0753057459
  O         7.0124877575        4.5707988293        1.8927460449
  O         2.5753123733        1.9969155830        8.3812722855
  O         1.7431729456        1.1398637893       14.6242915695
  O         6.2412255395        3.7481626986        8.1359780982
  O         5.0930782955        2.6713433057        3.9120792171
  O         3.9259768792        5.3162985330       10.8684303854
  O         3.7634149203        3.1058249107       12.6393094643
  O         4.7979785052        0.5257512633        5.6899062779
  O         2.2642140164        0.1730690909        3.9322786064
  O         6.7666678993        2.6158771230       10.6508306929
  O         6.5168677559        5.5939053017       12.5582469886
  O         2.0856772956        3.0859053176        5.9664203067
  H         6.1126402430        2.7980305328        3.6788792209
  H         1.4082429086        0.0493896922       10.2769834349
  H         2.6941672153        2.9140531894       12.8475003907
  H         7.3506166849        5.7167649788        6.2549262764
  H         4.5310178855        5.5201236687        3.6848430781
  H         5.8734193481        2.6416097266       10.3075040092
  H         4.2227862395        0.2412870648       12.8534275929
  H         2.8975382715        3.0823952977        6.2330466930
  H         5.0334273923        2.8382369801        4.8610408559
  H         3.5743829725        5.9645498769       11.5219842479
  H         3.7592167519        2.8817762188       11.6494864297
  H         0.0069266802       11.2778328598        5.0669151330
  H        -2.7387832792       11.2724037651        4.8531573002
  H         6.7087717692        2.6888354950       11.5910360763
  H         6.3557295709        5.9431729371       11.6461513462
  H         2.0463244169        3.0844119487        4.8985895956
 Ca         1.3054715832        6.8792766458        2.7734343484
 Ca         5.3764579619       10.0080102694        9.4689528865
 Ca         2.3139234776       10.3097880310       13.7311196443
 Ca         3.9291679140        7.1925965389        7.0156753593
  S         5.5993025898        9.8183474751        2.6121161648
  S         1.0717104579        7.1883518566        9.2411365527
  S         3.7285988546        7.3534194797       13.9724044824
  S         2.5527047589       10.0232119327        7.2328931771
  O        -0.6173735781        8.5406202095        3.3424344841
  O         0.5730916983        6.0065942968       10.0741514577
  O         4.2779234329        8.7029962063       13.1861990702
  O         3.0285432908       11.1801235024        6.4491900593
  O         6.0659370580       10.9332264643        3.4116854630
  O         1.5594761904        8.3579219361       10.0930025151
  O        -2.3961880207        6.2666659983       13.1011940032
  O         2.0833427895        8.8458626624        6.4214963016
  O         1.0202022141        9.1420297048        1.7418696316
  O         2.2169990125        6.6492536616        8.4630039331
  O         2.6352128228        8.0402031086       14.7653637817
  O         1.3649277400       10.5413448197        8.0678195149
  O         4.4412513193       10.3105093533        1.8889528571
  O         0.0450055421        7.7722215531        8.3278052647
  O        -0.8280336503        6.8704077745       14.6278052778
  O         3.5623988496        9.4046078892        8.2444045697
  O         2.5243903232        8.3917169955        3.9223729021
  O         1.3198420694       11.0473955673       10.8596436267
  O         1.1908192571        8.8379522306       12.6347485568
  O         2.2355339693        6.1832076328        5.6812529192
  O        -0.3104740971        5.9083634336        3.9720153168
  O         4.1678066749        8.3488311544       10.6437614248
  O         3.9386731777       11.3275068300       12.5373459471
  O        -0.5113514289        8.7523689343        5.8846983119
  H         3.5348326269        8.5259407558        3.6797114718
  H        -1.1681770763        5.7827216763       10.2790268230
  H         0.1282591330        8.6494817114       12.8471137263
  H         4.7862196891       11.4826098525        6.2449706955
  H         1.9604389503       11.2590947290        3.6894932041
  H         3.3004553761        8.3722165221       10.3022944498
  H         1.6544376186        5.9765249251       12.8490144663
  H         0.3053269570        8.8208879766        6.2469853292
  H         2.4546562332        8.5790184365        4.8613558056
  H         6.1520547134        0.2261548987       11.5252185747
  H         1.1895162635        8.6182484947       11.6495107132
  H         2.5844622393        5.5035232176        5.0417289314
  H        -0.1576227771        5.5396724674        4.8389291240
  H         4.1539917746        8.4142557633       11.6051534562
  H         8.9245596200        0.2037733251       11.6523157288
  H        -0.5392977008        8.8679670592        4.9801928116
 Ca         6.9568341673        6.8792577487        2.7733562995
 Ca        -0.3032403815       10.0065488071        9.4663702372
 Ca        -3.3577651258       10.3063734562       13.7289851291
 Ca        -1.7432955170        7.1977406024        7.0154093951
  S        -0.0672780993        9.8330718105        2.6024513647
  S         6.7513827636        7.1930246998        9.2397811729
  S        -1.9428647492        7.3552129619       13.9731587800
  S        -3.1215177009       10.0132734331        7.2340593897
  O         5.0890994349        8.5815972232        3.3388114001
  O         6.2481790577        6.0107321514       10.0711666829
  O        -1.4098052589        8.6869016165       13.1808439284
  O        -2.6488717088       11.1813848903        6.4488887906
  O         0.4096377624       10.8687429410        3.4387420088
  O         7.2372542890        8.3551931804       10.0954056550
  O         3.2731616387        6.2896868656       13.0899659358
  O        -3.6003617810        8.8499666279        6.4144623755
  O         6.7023081943        9.1657617800        1.7487049795
  O         7.8922998618        6.6458007185        8.4682758712
  O        -3.0503612044        8.0179550641       14.7562376503
  O        -4.3161159531       10.5438540266        8.0526708739
  O        -1.2562858280       10.3192149092        1.8852847469
  O         5.7179844953        7.7609404901        8.3373952124
  O         4.8587427915        6.8725985075       14.6321233545
  O        -2.0903197435        9.4256940956        8.2169240738
  O        -3.1637522021        8.3940090080        3.9171186180
  O        -4.3497346876       11.0473461753       10.8612328955
  O         6.8720987412        8.8395980621       12.6402868153
  O         7.9080474183        6.2365308057        5.6827881368
  O         5.3650314863        5.9056709961        3.9760301699
  O        -1.5009918615        8.3638217579       10.6507475402
  O        -1.7408120381       11.3332463055       12.5371571692
  O         5.1704931727        8.7315344165        5.8804336948
  H        -2.1299552090        8.5391639549        3.6728698787
  H         4.5030476512        5.7837532130       10.2799034099
  H         5.8007276885        8.6455747642       12.8472777404
  H        -0.8964926466       11.4672445846        6.2403875217
  H        -3.7279026375       11.2435967180        3.6890314322
  H        -2.3780728772        8.3719078729       10.3064913342
  H         7.3360470072        5.9819974021       12.8496304108
  H         5.9820817270        8.8212968672        6.2459293248
  H        -3.2216046432        8.5714703481        4.8613237916
  H         0.4716835336        0.2268822448       11.5214428372
  H         6.8648365138        8.6165756831       11.6474903832
  H         8.2684159207        5.5216313729        5.0633288924
  H         5.5248688552        5.5373240026        4.8371017239
  H        -1.5306491368        8.4133215500       11.5997120609
  H         3.2426746874        0.2043347111       11.6513512581
  H         5.1215991282        8.8752390056        4.9705476656
