284
Lattice="25.5130000000        0.0000000000        0.0000000000        0.0000000000       13.8536000000        0.0000000000        0.0000000000        0.0000000000       42.0338891909" Properties=species:S:1:pos:R:3 pbc="T T F"
Ca        -0.2787272961       1.4049358568       6.3416015680
Ca         4.3352091076       5.1182735322       6.1183957906
Ca         8.4798018424      -0.5025268553       2.7709695809
Ca        11.0086929579       4.9207863348       5.8957895952
Ca         1.9897773611       0.4188820158       4.0196769480
Ca         6.2044675139       1.5178518909       6.0783324800
S          3.2379548247       1.6346589718       7.0542738158
S          7.3826742713       4.8566145880       6.5185764096
S         11.4455057093       0.3394402165       2.8922223978
O          4.1938185183       0.4157579073       6.8845409187
O          8.5719594681       5.1016228242       5.6132430527
O         12.1877000265       1.2234791974       4.0687825076
O          2.0491283458       1.2912357122       6.1065868551
O          6.5857746331       6.1358038731       6.6373028701
O         11.1542797938       6.7051507655       4.4198893622
O          3.5497179437       6.1247029800       2.7542017643
O          6.4412196581       3.9163917314       5.7702751015
O         10.2479003426       1.3714005926       2.7161624438
O          4.0825280564       2.7416233097       6.3363102304
O          7.7736747461       4.3141985342       7.8154086739
O         12.5960984354       6.0227477446       2.7098049149
S          1.2368539645       4.9665378913       6.5663492298
S          5.3975421148       0.2855521603       2.8975570654
S          9.5884348407       1.5535399426       7.1089106844
O          0.4369270624       3.7041622665       6.4690530958
O          4.5615629266       1.4947667446       2.7125805952
O          9.1623820345       5.2330712988       2.7428411633
O          2.0552380565       5.1812458231       5.2874529973
O          6.4562013622       0.8595320404       3.9174668006
O         10.4891532362       0.3406469190       6.7318438413
O          0.2011198725       6.0555462711       6.6402303947
O          4.4142677077       6.5648983218       3.9714064869
O          8.4638410086       1.6224414351       6.0855497852
O          2.1909128774       4.9621896710       7.6810794501
O          6.3561766143       6.0137207691       2.7103228303
O         10.5713913233       2.7495928055       6.7911544845
O          2.4273798516       2.8021096080       3.7720866162
O          8.4420220759       3.9114007024       2.7449132591
O         11.2630960433       3.7660311206       3.8454085794
H          2.1490381059       3.5808587446       4.2861258483
H          9.2134242866       3.2685346994       2.7785903039
H         11.3394820727       4.0480029577       2.8805631680
H          2.5329613341       3.1077619566       2.8350374116
H          7.9863486885       3.8596649948       3.6195268719
H         11.6018259291       2.8367965028       3.8768166123
Ca        -0.3009973370       8.3405066367       6.3043963077
Ca         4.1537109988      12.0067838781       6.0489233001
Ca         8.8738853756       6.9914695831       4.2631929126
Ca        10.7607932550      11.9302517923       5.6879574338
Ca         2.1348704319       7.3390580035       4.0661072293
Ca         6.2125865249       8.5886914944       6.1881076427
S          3.2592359330       8.5745322397       7.1529622665
S          7.2477673917      11.7662933729       6.0376936064
S         11.8228105241       7.2522722863       2.9419555064
O          4.2576909571       7.3787955895       7.0250999706
O          8.3835250285      12.2845747044       5.2305997170
O         12.8595491523       8.2170422605       3.6730746634
O          2.0878920018       8.2154244547       6.1945166618
O          6.3469948741      12.8928605306       6.4689735811
O         10.5632688582      13.1852433562       3.7583285664
O          3.3817073451      12.9282742136       2.7532258939
O          6.3493826527      10.8858329109       5.1202568866
O         10.6306300975       8.1261764130       2.7100579980
O          4.1009830649       9.6940364690       6.4227867108
O          7.6356633093      10.9502704670       7.1909781973
O         12.6730438166      13.2671329695       2.7168678591
S          1.1168921908      11.8643976957       6.5015644220
S          5.6367995379       7.2850197418       2.9000751158
S          9.5731881791       8.6328331624       7.0748458022
O          0.2838339365      10.6257726250       6.3971420588
O          4.8693467397       8.5361716247       2.7100885160
O          8.5921262684      11.0796624427       2.7407711492
O          1.8981129905      12.0755925732       5.2036876045
O          6.6286224518       7.8796570924       4.0288012608
O         10.4012312030       7.3269521354       6.9743630308
O          0.1056068237      12.9645946250       6.6336743305
O          4.2402802913      13.3759641563       3.9695542795
O          8.4864941935       8.4978316173       5.9421388996
O          2.0992177551      11.8251989014       7.5913685061
O          6.1156194694      12.8249900678       2.7063108788
O         10.5656403752       9.6968150243       6.4900212025
O          2.6556401646       9.7074146309       3.7850226264
O          7.2092867360      10.4873384698       2.7439029692
O         11.6807992167      10.7268104555       3.8352696399
H          2.1718439894      10.4438407464       4.2018503384
H          7.3702761041       9.5102983936       2.7709144830
H         11.5748228875      10.9488769804       2.8645119871
H          2.7763577737       9.9728121834       2.8354983617
H          6.8168009116      10.7018629798       3.6990785532
H         12.1302984511       9.8560543774       3.7945179014
Ca        12.5003712287       1.5373901142       6.3472742393
Ca        16.8941956079       4.8652738940       4.4478210074
Ca        21.3203859759      -0.0771777857       4.0627378742
Ca        23.6830457491       4.8531103089       5.8229614886
Ca        14.5311117715       0.1997593203       4.0507669521
Ca        19.0124406357       1.6989893814       6.1959121662
S         16.0629041680       1.8445216124       6.8564597308
S         19.8649162808       4.7622466669       6.2178804233
S         24.3740284315       0.2607642130       2.9537374943
O         17.0639734378       0.6542990528       6.9702277045
O         21.2734612994       5.1050160929       5.8432114658
O         25.2312783488       1.2245385115       4.0034659915
O         14.8403797868       1.2228244846       6.1539242739
O         19.1315608505       5.9804449843       6.6216352667
O         23.6730757397       6.3692819949       4.0613406250
O         15.8301828648       5.7645859368       2.7514543628
O         19.2305319767       4.1525573557       4.9524896611
O         23.2616530166       1.2460960451       2.7080286054
O         16.8155826818       2.7291149435       5.7753946223
O         19.7718165384       3.7290046322       7.2758302409
O         25.5731716420       6.1901578415       2.7088107207
S         13.9839091532       5.0540963011       6.8063371036
S         18.2070863713       0.4023142917       2.9117269969
S         22.2972839934       1.5205060078       7.0276861203
O         13.2252676249       3.7734726559       6.5538157954
O         17.4278765095       1.6421850260       2.7103594075
O         21.6488940787       5.0530745210       2.7464118951
O         14.9461119223       5.3433753021       5.6936009328
O         19.1591302002       0.9818809065       4.0771773261
O         23.2026825417       0.2700853083       6.8738951701
O         12.9151552142       6.1228476058       6.8030635515
O         17.5446382829       7.1453084498       4.3982088459
O         21.3127472933       1.4653054524       5.8125079318
O         14.6555278491       4.9837251601       8.1147564641
O         18.8545199780       6.1904823750       2.7133711439
O         23.2981963779       2.6718578175       6.6552263351
O         15.0121557762       2.5756042792       3.7785888452
O         20.5786686819       3.9880643535       2.7432102006
O         23.9865015348       3.6204272478       3.8502974619
H         15.8350566736       2.5169381159       4.3098008585
H         21.1398370323       3.1785440737       2.7709359415
H         23.8897414247       3.8400730607       2.8752716956
H         15.2414300535       2.7678219531       2.8312837883
H         20.0637235670       4.0494889617       3.6405936710
H         24.4512224501       2.7497707424       3.8689587111
Ca        12.4215913489       8.2749466354       6.0473604035
Ca        17.0098435461      12.1883340988       6.2142741039
Ca        21.4236708262       6.8627541794       4.1939805110
Ca        23.5534228725      11.7398294423       5.8063309496
Ca        15.2092402286       7.5010476417       4.0843462688
Ca        18.6756128578       8.4536915320       5.9442402562
S         15.8434831060       8.8772526177       7.2449377758
S         20.1154206913      11.7621840960       6.5187311125
S         24.4907940759       7.1876693881       2.9549671796
O         16.9644491971       7.7823382152       7.3776768347
O         21.1947460360      12.0159428398       5.4682995082
O         25.3926157345       8.1187224016       4.0011101221
O         14.8030465927       8.2716324201       6.2614196257
O         19.3125073668      13.0308710901       6.7171047992
O         23.5853733896      13.2531373271       4.0210694532
O         16.1167302337      13.0275703835       2.7515852639
O         19.1349693095      10.8107922394       5.8548001923
O         23.4210516714       8.2074119773       2.7079246502
O         16.6482571118       9.9292407962       6.4151257620
O         20.7155149962      11.2547710933       7.7386744419
O         25.5025696399      13.1636704897       2.7086453127
S         13.9054246052      11.9279769885       6.5199526069
S         18.3504929716       7.5702450824       2.9270442398
S         22.2453882382       8.3832249277       7.0793693817
O         13.1584959676      10.6508041102       6.4827955678
O         17.4247080683       8.6985877250       2.7078992925
O         21.7758548334      11.8147801381       2.7469451224
O         14.7908854297      12.0713388353       5.2728730527
O         19.5803600315       8.2687643568       3.6861033359
O         23.1838226913       7.1590665566       6.7861539326
O         12.8575426873      13.0204369147       6.3964403224
O         17.0145206844      13.4817683931       3.9237310663
O         21.1764320586       8.3594260136       5.9384220928
O         14.8036897876      12.0935239087       7.6706302434
O         19.0038885589      13.0169908646       2.7103584721
O         23.2184891497       9.5563361601       6.7072649146
O         15.3832629706       9.8608072372       3.8101994737
O         20.6497933054      10.8007766081       2.7429944402
O         24.2243818340      10.5838563350       3.8494570229
H         15.0522961711      10.6346979037       4.3043092030
H         21.0981225929       9.9204470135       2.7690887113
H         24.0518759803      10.7691419562       2.8768107369
H         15.4482618323      10.1278962251       2.8513197086
H         20.1571342298      10.8697274084       3.5962100283
H         24.6894095353       9.7170202103       3.8558224951
O          3.6401287687      13.2239982746      22.2017267727
H          3.0223982055      13.7784357422      21.7167593197
H          3.4844083930      13.2866195531      23.7302375797
O         15.0849513800       9.4871005633      23.7606660089
H         15.9229294750      10.1097130438      23.7720113488
H         15.4017953445       8.4932575543      23.7720544957
O         16.9282307433      12.8951040982      16.3979579016
H         17.1677413873      12.5941303996      15.5129328883
H         18.0931219091      14.3326058946      17.0053723993
O          8.9137868536      12.2163196964      23.7612301732
H          9.8271703662      11.7200366664      23.7719971661
H          8.1682125820      11.4904537988      23.7715571163
O          8.7657216018       8.9414491556      19.3752461038
H          8.1398197882       8.2908827368      19.0371490214
H          9.6336011186       8.6665826549      19.0410827423
O         24.2160672379      12.9225048355      18.1805447609
H         24.0021278721      13.6668023837      18.7778575725
H         23.4543529545      12.9331808105      17.5847458253
O         17.9881079356      13.4539044540      12.1684754518
H         18.2141701856      12.9243744618      11.3951763673
H         18.8384718036      13.7940480098      12.4695929623
O          1.7797605486       8.4523656293      20.5786016511
H          1.0099264802       8.3975878122      20.0023947741
H          2.1249804608       7.5353191848      20.5735350072
O          4.1293617138       4.4398711296      10.5485902333
H          3.4571868437       4.5972380437       9.8704091218
H          4.9568758329       4.6617282204      10.1053431545
O         14.1681102557       4.8261916150      11.8976696310
H         13.4747306198       4.1714597528      12.0404056880
H         14.0946754309       5.0098041770      10.9505752806
O          6.2397691675       1.2865439462      14.6451627325
H          6.9844424863       1.4882219415      14.0593507539
H          5.7563942714       2.1188357728      14.7156377792
O         23.2405540746       3.5654955815      13.6996610429
H         23.0233535716       4.4739408525      13.9371397950
H         22.7509557686       3.0444153870      14.3491261689
O         23.3148793540       1.4162872992      19.8577810305
H         22.3373514439       1.2800430048      19.8984576560
H         23.3986190566       2.2223021029      19.3359666919
O          9.9552366466       3.2457598843       9.9975867735
H          9.3988998719       3.9716779559       9.6801503251
H          9.8648525402       2.6046087290       9.2713562716
O          1.9395095223       1.5180938719      13.9259463344
H          1.2205281693       1.9786240278      14.3770338515
H          1.9898752761       1.9560440450      13.0670311562
O         17.9837340192       9.3498481122      19.1286169743
H         18.0189267808      10.2154950156      18.7019929807
H         18.5531244398       8.8030241509      18.5758188021
O          2.0839514309      12.4278902972      17.5329788795
H          2.2713791514      11.7573293535      18.2015455239
H          1.1591112499      12.6694242335      17.7153363721
O         11.9120863373      10.8448866447      12.9640098082
H         12.6846400415      11.3853979294      12.7628188171
H         11.9655194927      10.1322528794      12.3168640451
O         11.7428322520       8.7815881720      18.8888174439
H         11.8572866606       9.6625298262      18.5117755643
H         12.2373661064       8.2133183117      18.2855296838
O          9.5584177047       1.9783602690      12.5512199362
H          9.6188359293       2.4468577562      11.6932606842
H         10.1190180240       1.2066176625      12.4207134580
N         11.0148662430       5.3878491987      20.7298643465
H         11.8690140334       5.1489791967      20.2343182922
H         10.9628248330       6.4024403450      20.6808913454
H         10.2640891137       5.0674668349      20.1248333123
N          6.6420733754      11.2357029592      12.7224384259
H          7.5943292665      11.5750712580      12.8217499719
H          6.4046843856      11.3782441988      11.7448607162
H          6.6959973387      10.2287529923      12.8443535818
N          2.1869470207      12.4288557045      14.3464716095
H          1.6886652978      11.7499764580      13.7827220076
H          1.8411710842      13.3575989207      14.1026265619
H          1.9385871504      12.2654774601      15.3234874026
