96
Lattice="12.76842 0.0 0.0 0.0 14.11374 0.0 0.0 0.0 20.9084508" Properties=species:S:1:pos:R:3:spacegroup_kinds:I:1:tags:I:1:forces:R:3 energy=-853.2102793113978 pbc="T T F"
Ca       2.25372438      -0.00000000       2.27357969        0        1       0.00000115       0.00000000       0.00000199
Ca       4.13048562      -0.00000000       5.63487111        0        1      -0.00000114       0.00000000      -0.00000198
Ca       5.44582938       3.52843500       2.27357969        0        1       0.00000114      -0.00000000       0.00000198
Ca       0.93838062       3.52843500       5.63487111        0        1      -0.00000113       0.00000000      -0.00000198
S        1.07335519       0.00000000       5.74744153        1        1       0.00000617      -0.00000000       0.00000074
S        5.31085481      -0.00000000       2.16100927        1        1      -0.00000597       0.00000001      -0.00000060
S        4.26546019       3.52843500       5.74744153        1        1       0.00000597       0.00000000       0.00000060
S        2.11874981       3.52843500       2.16100927        1        1      -0.00000583       0.00000001      -0.00000053
O        0.18381974       5.87018562       5.76286369        2        1      -0.00000174       0.00000249       0.00000214
O        6.20039026       5.87018562       2.14558711        2        1       0.00000170       0.00000253      -0.00000215
O        6.20039026       1.18668438       2.14558711        2        1       0.00000169      -0.00000254      -0.00000215
O        0.18381974       1.18668438       5.76286369        2        1      -0.00000173      -0.00000250       0.00000214
O        3.37592474       2.34175062       5.76286369        2        1      -0.00000169       0.00000253       0.00000215
O        3.00828526       2.34175062       2.14558711        2        1       0.00000166       0.00000256      -0.00000216
O        3.00828526       4.71511938       2.14558711        2        1       0.00000165      -0.00000256      -0.00000216
O        3.37592474       4.71511938       5.76286369        2        1      -0.00000169      -0.00000254       0.00000215
O        2.02458809      -0.00000000       6.84944748        3        1      -0.00000608       0.00000000      -0.00000097
O        4.35962191       0.00000000       1.05900332        3        1       0.00000598      -0.00000000       0.00000086
O        1.88879394      -0.00000000       4.49759109        3        1       0.00000099       0.00000000      -0.00000383
O        4.49541606       0.00000000       3.41085971        3        1      -0.00000101      -0.00000000       0.00000381
O        5.21669309       3.52843500       6.84944748        3        1      -0.00000598      -0.00000000      -0.00000086
O        1.16751691       3.52843500       1.05900332        3        1       0.00000592      -0.00000000       0.00000080
O        5.08089894       3.52843500       4.49759109        3        1       0.00000101      -0.00000000      -0.00000381
O        1.30331106       3.52843500       3.41085971        3        1      -0.00000102      -0.00000000       0.00000381
Ca       2.25372438       7.05687000       2.27357969        0        1       0.00000115      -0.00000000       0.00000199
Ca       4.13048562       7.05687000       5.63487111        0        1      -0.00000114      -0.00000000      -0.00000198
Ca       5.44582938      10.58530500       2.27357969        0        1       0.00000114       0.00000000       0.00000198
Ca       0.93838062      10.58530500       5.63487111        0        1      -0.00000113      -0.00000000      -0.00000198
S        1.07335519       7.05687000       5.74744153        1        1       0.00000619       0.00000000       0.00000075
S        5.31085481       7.05687000       2.16100927        1        1      -0.00000601      -0.00000001      -0.00000063
S        4.26546019      10.58530500       5.74744153        1        1       0.00000595      -0.00000000       0.00000059
S        2.11874981      10.58530500       2.16100927        1        1      -0.00000588      -0.00000001      -0.00000056
O        0.18381974      12.92705562       5.76286369        2        1      -0.00000173       0.00000250       0.00000214
O        6.20039026      12.92705562       2.14558711        2        1       0.00000169       0.00000253      -0.00000215
O        6.20039026       8.24355438       2.14558711        2        1       0.00000170      -0.00000253      -0.00000215
O        0.18381974       8.24355438       5.76286369        2        1      -0.00000174      -0.00000250       0.00000214
O        3.37592474       9.39862062       5.76286369        2        1      -0.00000168       0.00000254       0.00000215
O        3.00828526       9.39862062       2.14558711        2        1       0.00000166       0.00000255      -0.00000215
O        3.00828526      11.77198938       2.14558711        2        1       0.00000167      -0.00000255      -0.00000215
O        3.37592474      11.77198938       5.76286369        2        1      -0.00000168      -0.00000254       0.00000215
O        2.02458809       7.05687000       6.84944748        3        1      -0.00000608      -0.00000000      -0.00000098
O        4.35962191       7.05687000       1.05900332        3        1       0.00000600       0.00000000       0.00000088
O        1.88879394       7.05687000       4.49759109        3        1       0.00000099      -0.00000000      -0.00000382
O        4.49541606       7.05687000       3.41085971        3        1      -0.00000101       0.00000000       0.00000381
O        5.21669309      10.58530500       6.84944748        3        1      -0.00000597       0.00000000      -0.00000085
O        1.16751691      10.58530500       1.05900332        3        1       0.00000594       0.00000000       0.00000083
O        5.08089894      10.58530500       4.49759109        3        1       0.00000101       0.00000000      -0.00000381
O        1.30331106      10.58530500       3.41085971        3        1      -0.00000102       0.00000000       0.00000381
Ca       8.63793438       0.00000000       2.27357969        0        1       0.00000113      -0.00000000       0.00000198
Ca      10.51469562       0.00000000       5.63487111        0        1      -0.00000113      -0.00000000      -0.00000199
Ca      11.83003938       3.52843500       2.27357969        0        1       0.00000113       0.00000000       0.00000199
Ca       7.32259062       3.52843500       5.63487111        0        1      -0.00000115      -0.00000000      -0.00000199
S        7.45756519      -0.00000000       5.74744153        1        1       0.00000588       0.00000000       0.00000056
S       11.69506481       0.00000000       2.16100927        1        1      -0.00000606      -0.00000001      -0.00000068
S       10.64967019       3.52843500       5.74744153        1        1       0.00000605      -0.00000000       0.00000069
S        8.50295981       3.52843500       2.16100927        1        1      -0.00000621      -0.00000001      -0.00000077
O        6.56802974       5.87018562       5.76286369        2        1      -0.00000166       0.00000256       0.00000216
O       12.58460026       5.87018562       2.14558711        2        1       0.00000170       0.00000252      -0.00000215
O       12.58460026       1.18668438       2.14558711        2        1       0.00000170      -0.00000252      -0.00000215
O        6.56802974       1.18668438       5.76286369        2        1      -0.00000166      -0.00000255       0.00000216
O        9.76013474       2.34175062       5.76286369        2        1      -0.00000170       0.00000252       0.00000215
O        9.39249526       2.34175062       2.14558711        2        1       0.00000174       0.00000249      -0.00000214
O        9.39249526       4.71511938       2.14558711        2        1       0.00000174      -0.00000249      -0.00000214
O        9.76013474       4.71511938       5.76286369        2        1      -0.00000170      -0.00000252       0.00000215
O        8.40879809       0.00000000       6.84944748        3        1      -0.00000594      -0.00000000      -0.00000082
O       10.74383191      -0.00000000       1.05900332        3        1       0.00000603       0.00000000       0.00000092
O        8.27300394       0.00000000       4.49759109        3        1       0.00000102      -0.00000000      -0.00000381
O       10.87962606      -0.00000000       3.41085971        3        1      -0.00000100       0.00000000       0.00000382
O       11.60090309       3.52843500       6.84944748        3        1      -0.00000603       0.00000000      -0.00000092
O        7.55172691       3.52843500       1.05900332        3        1       0.00000609       0.00000000       0.00000099
O       11.46510894       3.52843500       4.49759109        3        1       0.00000100       0.00000000      -0.00000383
O        7.68752106       3.52843500       3.41085971        3        1      -0.00000099       0.00000000       0.00000383
Ca       8.63793438       7.05687000       2.27357969        0        1       0.00000113       0.00000000       0.00000198
Ca      10.51469562       7.05687000       5.63487111        0        1      -0.00000113       0.00000000      -0.00000199
Ca      11.83003938      10.58530500       2.27357969        0        1       0.00000114      -0.00000000       0.00000199
Ca       7.32259062      10.58530500       5.63487111        0        1      -0.00000114       0.00000000      -0.00000199
S        7.45756519       7.05687000       5.74744153        1        1       0.00000587      -0.00000000       0.00000056
S       11.69506481       7.05687000       2.16100927        1        1      -0.00000603       0.00000001      -0.00000067
S       10.64967019      10.58530500       5.74744153        1        1       0.00000606       0.00000000       0.00000068
S        8.50295981      10.58530500       2.16100927        1        1      -0.00000616       0.00000001      -0.00000074
O        6.56802974      12.92705562       5.76286369        2        1      -0.00000167       0.00000255       0.00000216
O       12.58460026      12.92705562       2.14558711        2        1       0.00000170       0.00000252      -0.00000215
O       12.58460026       8.24355438       2.14558711        2        1       0.00000169      -0.00000253      -0.00000215
O        6.56802974       8.24355438       5.76286369        2        1      -0.00000166      -0.00000255       0.00000216
O        9.76013474       9.39862062       5.76286369        2        1      -0.00000170       0.00000252       0.00000215
O        9.39249526       9.39862062       2.14558711        2        1       0.00000173       0.00000250      -0.00000214
O        9.39249526      11.77198938       2.14558711        2        1       0.00000173      -0.00000250      -0.00000214
O        9.76013474      11.77198938       5.76286369        2        1      -0.00000170      -0.00000252       0.00000215
O        8.40879809       7.05687000       6.84944748        3        1      -0.00000594       0.00000000      -0.00000082
O       10.74383191       7.05687000       1.05900332        3        1       0.00000601      -0.00000000       0.00000090
O        8.27300394       7.05687000       4.49759109        3        1       0.00000102       0.00000000      -0.00000381
O       10.87962606       7.05687000       3.41085971        3        1      -0.00000101      -0.00000000       0.00000382
O       11.60090309      10.58530500       6.84944748        3        1      -0.00000603      -0.00000000      -0.00000092
O        7.55172691      10.58530500       1.05900332        3        1       0.00000607      -0.00000000       0.00000097
O       11.46510894      10.58530500       4.49759109        3        1       0.00000100      -0.00000000      -0.00000382
O        7.68752106      10.58530500       3.41085971        3        1      -0.00000099      -0.00000000       0.00000382
