
#(C) 2025 by FIZ Karlsruhe - Leibniz Institute for Information Infrastructure.  All rights reserved.
data_168090-ICSD
_database_code_ICSD 168090
_audit_creation_date 2011-02-01
_audit_update_record 2013-08-01
_chemical_name_common 'Calcium sulfate dihydrate - II'
_chemical_formula_structural 'Ca (S O4) (H2 O)2'
_chemical_formula_sum 'H4 Ca1 O6 S1'
_chemical_name_structure_type CaSO4(H2O)2-[II]
_chemical_name_mineral Gypsum
_exptl_crystal_density_diffrn 2.37
_diffrn_ambient_temperature 298.
_diffrn_ambient_pressure 5350000.
_citation_title

;
The crystal structure of gypsum-II determined by single-crystal synchrotron
X-ray diffraction data
;
loop_
_citation_id
_citation_journal_full
_citation_year
_citation_journal_volume
_citation_page_first
_citation_page_last
_citation_journal_id_ASTM
primary 'Arkiv foer Mineralogi och Geologi' 2010 95 655 658 AMNGAX
loop_
_citation_author_citation_id
_citation_author_name
primary 'Nazzareni, S.'
primary 'Comodi, P.'
primary 'Bindi, L.'
primary 'Dubrovinsky, L.'
_cell_length_a 5.865(12)
_cell_length_b 15.045(14)
_cell_length_c 5.478(12)
_cell_angle_alpha 90.
_cell_angle_beta 90.
_cell_angle_gamma 90.
_cell_volume 483.37
_cell_formula_units_Z 4
_space_group_name_H-M_alt 'P 1 21/n 1'
_space_group_IT_number 14
loop_
_space_group_symop_id
_space_group_symop_operation_xyz
1 '-x+1/2, y+1/2, -z+1/2'
2 '-x, -y, -z'
3 'x+1/2, -y+1/2, z+1/2'
4 'x, y, z'
loop_
_atom_type_symbol
_atom_type_oxidation_number
Ca2+ 2
S6+ 6
O2- -2
H1+ 1
loop_
_atom_site_label
_atom_site_type_symbol
_atom_site_symmetry_multiplicity
_atom_site_Wyckoff_symbol
_atom_site_fract_x
_atom_site_fract_y
_atom_site_fract_z
_atom_site_U_iso_or_equiv
_atom_site_occupancy
Ca1 Ca2+ 4 e 0.00001(2) 0.17120(3) 0.25001(3) 0.0398(5) 1.
S1 S6+ 4 e 0.00000(3) 0.31962(4) 0.74989(4) 0.0401(5) 1.
O1 O2- 4 e 0.0831(2) 0.26517(7) 0.5892(3) 0.0386(5) 1.
O2 O2- 4 e 0.5961(2) 0.77173(7) 0.5914(3) 0.0387(5) 1.
O3 O2- 4 e 0.1965(2) 0.38053(6) 0.9016(4) 0.0389(6) 1.
O4 O2- 4 e 0.6897(2) 0.88058(6) 0.9085(4) 0.0391(6) 1.
O5 O2- 4 e -0.1900(2) 0.06393(6) -0.0770(4) 0.0409(5) 1.
O6 O2- 4 e 0.3100(2) 0.55847(7) -0.0755(4) 0.0416(5) 1.
#End of TTdata_168090-ICSD