360
Lattice="24.0688 0.0 0.0 -0.11705465205553547 25.348880266190132 0.0 0.0 0.0 21.72538446" Properties=species:S:1:pos:R:3:spacegroup_kinds:I:1:tags:I:1:forces:R:3 stress="0.0028768835377443237 3.1514693497991797e-06 -3.286304079539947e-06 3.1514693497991797e-06 0.002863399646807792 6.0997073616128336e-06 -3.286304079539947e-06 6.0997073616128336e-06 0.0016165691201918833" energy=-2867.884849511514 pbc="T T F"
Ca       2.83090859       4.31055512       3.22322309        0        1       0.00000021      -0.00000812       0.00000480
Ca      21.75840380      10.09356381       5.84916840        0        1      -0.00000235       0.00000872       0.00001352
Ca      20.58102707       8.34662520       2.79013146        0        1       0.00000011       0.00000844       0.00000664
Ca       2.86698966       2.15732406       6.33994519        0        1      -0.00000024      -0.00000761       0.00001290
Ca      15.16743830      10.45517438       3.11660784        1        1      -0.00000946       0.00000123      -0.00000697
Ca      21.50134244       3.84808178       6.03316879        1        1      -0.00000281      -0.00001639      -0.00000410
Ca       8.44305303       1.79257687       2.57053006        1        1       0.00001142      -0.00000115      -0.00000511
Ca       2.35405643       8.33511022       6.29120452        1        1       0.00000573       0.00001793      -0.00000579
Ca       6.07891300       0.03779504       4.82361903        2        1       0.00000007       0.00000008       0.00001636
Ca      23.44055720       6.53236360       3.94362780        2        1       0.00000069       0.00000124      -0.00001039
Ca      23.88577505       0.04951027       1.73911884        3        1      -0.00000069      -0.00000075       0.00000129
Ca      17.80114601       6.42538862       4.70644920        3        1       0.00000027       0.00000022       0.00000268
S        2.95655188       1.30548746       3.05822906        4        1      -0.00000232       0.00000056      -0.00000342
S       20.88519677       7.29218425       6.29529359        4        1       0.00000360      -0.00000532      -0.00000292
S       20.99555653      11.37794423       2.61573129        4        1       0.00000478       0.00000328      -0.00000123
S        2.92831202       5.24084424       6.67917085        4        1      -0.00000438       0.00000266      -0.00000264
S        0.17470534       3.78191277       1.61580419        5        1       0.00000119      -0.00000149       0.00000359
S       18.08726460       9.54164143       4.86266174        5        1       0.00000146       0.00000001      -0.00000397
S       23.29446528       8.56271145       0.91744501        5        1       0.00000025       0.00000213       0.00000316
S        5.98818239       3.23397415       4.91547657        5        1       0.00000002      -0.00000023      -0.00000278
S        2.86830843       7.36025940       2.97493125        6        1      -0.00000681      -0.00000683      -0.00001193
S        8.30338504       0.59884434       7.57291837        6        1       0.00000829       0.00000753       0.00001974
S       20.72310884       5.31310318       2.81634409        6        1      -0.00000176       0.00000891      -0.00000097
S       15.37596830      11.96937566       7.00352976        6        1      -0.00001027      -0.00000683       0.00001796
O        4.03860385       0.50349009       3.65730957        7        1      -0.00000698      -0.00000076      -0.00000258
O       21.59752793       6.08608475       6.72105805        7        1      -0.00000086       0.00000178       0.00000173
O       20.02644013      12.29114386       3.23935685        7        1       0.00000744       0.00000000      -0.00000411
O        1.90115631       6.15195628       7.20880022        7        1      -0.00000299       0.00000017       0.00000059
O        2.00380345       0.31159536       2.49392982        8        1       0.00000257      -0.00000012      -0.00000716
O       19.47686221       7.01228389       6.12234544        8        1      -0.00000146       0.00000033       0.00000036
O       22.02977244      12.25433277       1.99926586        8        1      -0.00000243      -0.00000018      -0.00000582
O        4.05309066       6.08890099       6.24796585        8        1       0.00000146       0.00000263       0.00000112
O        3.40877606       2.26930256       2.06443734        9        1      -0.00000483      -0.00000103      -0.00000301
O       21.45777993       7.78339746       4.94720986        9        1      -0.00000267      -0.00000684       0.00000190
O       20.38946248      10.45672526       1.65739924        9        1       0.00000502      -0.00000114      -0.00000463
O        2.36646514       4.51667576       5.46718374        9        1       0.00000246       0.00000780      -0.00000131
O        2.27644434       2.09422181       4.12630202       10        1       0.00000318       0.00000334      -0.00000104
O       21.13350485       8.39628821       7.22519777       10        1      -0.00000344      -0.00000001       0.00000507
O       21.65671872      10.51550120       3.63692550       10        1      -0.00000428      -0.00000352      -0.00000092
O        3.30195116       4.17530945       7.60045802       10        1      -0.00000008       0.00000308       0.00000315
O        0.08902381       2.28843525       1.55783687       11        1       0.00000043      -0.00000091      -0.00000487
O       17.26996971       8.80603749       5.81786483       11        1       0.00000204      -0.00000173      -0.00000417
O       23.72712421       9.93985711       0.59437279       11        1       0.00000110      -0.00000036      -0.00000466
O        6.92568574       4.11912419       5.61747563       11        1      -0.00000201       0.00000191      -0.00000416
O        6.74493687       2.27530475       4.06938179       12        1      -0.00000515      -0.00000192       0.00000132
O        0.32775827       8.01977144       5.42463228       12        1      -0.00001206      -0.00000167       0.00000354
O       17.27357619      10.61317146       4.20408175       12        1       0.00000414       0.00000376      -0.00000102
O       23.47614476       2.51913281       7.01338998       12        1       0.00000965       0.00000137       0.00000485
O        0.15131772       4.21011356       3.08374329       13        1       0.00000553      -0.00000223      -0.00000613
O       19.27243207      10.17799568       5.44394260       13        1       0.00000050      -0.00000718      -0.00000040
O       23.20770787       8.37945984       2.41666008       13        1      -0.00000607       0.00000332      -0.00000720
O        5.18616359       2.39523419       5.82721479       13        1      -0.00000022       0.00000716       0.00000085
O        2.82395935       8.25931556       1.84615803       14        1       0.00000912      -0.00000020       0.00001120
O        8.64551731       1.80810165       6.85723719       14        1      -0.00000762      -0.00000620       0.00000293
O       21.63055736       6.24947329       2.09929342       14        1      -0.00000672      -0.00000303       0.00000494
O       14.93681182      10.78775865       6.28617104       14        1       0.00000953       0.00000572       0.00000199
O        3.04924859       8.21076980       4.18897349       15        1       0.00000212       0.00000375      -0.00000917
O        9.66790997       0.37472482       1.32490885       15        1      -0.00000147       0.00000428       0.00000079
O       20.44127012       4.09859246       2.07530533       15        1      -0.00000174      -0.00000318      -0.00000756
O       14.40432287      11.77234519       1.40522236       15        1       0.00000200      -0.00000499      -0.00000139
O        3.99711284       6.38785909       2.94807326       16        1       0.00000408      -0.00000248      -0.00000302
O        9.29777969      25.06360122       7.89320862       16        1       0.00000153      -0.00001422      -0.00001508
O       19.49692131       6.09043005       3.09454030       16        1      -0.00000055      -0.00000013      -0.00000199
O       14.34086949      12.96060585       7.27563785       16        1      -0.00000183       0.00001219      -0.00002028
O        1.64446237       6.52346231       3.11073332       17        1      -0.00000389       0.00000301      -0.00000199
O        7.16369940      25.14177478       6.88321520       17        1       0.00000702      -0.00000768      -0.00001042
O       21.43020757       4.98931089       4.07776260       17        1       0.00000449      -0.00000236      -0.00000182
O       16.52097310      12.67830854       6.41272692       17        1      -0.00000856       0.00000748      -0.00001083
O        5.09500181       4.07802281       4.09016920       18        1      -0.00000085      -0.00000587       0.00000262
O        0.14222219       9.44625004       5.79125568       18        1       0.00000135      -0.00000201      -0.00000680
O       18.50331952       8.58801556       3.78474420       18        1       0.00000041       0.00000525       0.00000208
O        0.47606673       2.46178981       6.27646205       18        1       0.00000069      -0.00000505      -0.00000428
O        6.72814297      25.21888207       2.40389025       19        1      -0.00000011      -0.00000042      -0.00000401
O       23.75858934       5.03374530       5.77158637       19        1      -0.00000651       0.00000001      -0.00000508
O        0.86658057      10.35811489       3.59777325       20        1       0.00000188      -0.00000120      -0.00000206
O        9.44501352       1.55557553       0.42306298       20        1      -0.00000657       0.00000148       0.00000754
O       22.33270050       2.39823497       4.19031186       20        1      -0.00000071       0.00000100      -0.00000127
O       15.76782813      11.33796301       1.07439558       20        1       0.00000760      -0.00000067       0.00000595
H        0.47918640       9.92227437       4.90371123       21        1      -0.00000115      -0.00000399      -0.00000112
H        8.95142333       1.12342691      -0.29176006       21        1      -0.00000133      -0.00000189       0.00000178
H       22.70339724       1.53839123       4.46064641       21        1       0.00000557       0.00000390       0.00000062
H       16.31683900      12.11732370       1.35762632       21        1       0.00000021       0.00000325      -0.00000194
H        0.48450552       9.53913338       3.24319046       22        1       0.00000016      -0.00000085      -0.00000676
H        7.74384601       1.00144091       8.74719787       22        1      -0.00001265       0.00002426       0.00000393
H       23.07667219       2.93894223       3.84430591       22        1       0.00000198       0.00000179      -0.00000613
H       15.82908228      11.51269471       8.20808990       22        1       0.00000877      -0.00002286       0.00000174
H        7.43459331      24.56231078       2.26921494       23        1      -0.00000930      -0.00000430       0.00000156
H        0.54144327       4.56374322       5.67018456       23        1      -0.00000752       0.00000632       0.00000549
H       16.55912481      13.93035174       2.08126410       23        1       0.00001033       0.00000584      -0.00000106
H       23.88622592       5.63119411       6.52729324       23        1       0.00000573      -0.00000242       0.00000592
Ca      15.14113694      16.88468984       3.73413627        0        1       0.00000027      -0.00000816       0.00000620
Ca       8.56916036      22.92318538       7.07082893        0        1      -0.00000005       0.00000851       0.00001504
Ca       8.94471863      21.28854919       3.84429848        0        1      -0.00000073       0.00000813       0.00000736
Ca      15.52113850      15.00926051       6.71766412        0        1       0.00000052      -0.00000868       0.00001283
Ca       3.06046110      23.54139772       2.68840419        1        1      -0.00000996       0.00000062      -0.00000582
Ca       9.55889680      16.84475367       5.46580253        1        1      -0.00000629      -0.00001726      -0.00000305
Ca      21.03068459      14.58609426       2.33378361        1        1       0.00001000      -0.00000123      -0.00000665
Ca      14.68350049      20.98520439       5.61700569        1        1       0.00000160       0.00001792      -0.00000170
Ca      17.97464578      12.82720317       4.39534739        2        1       0.00000020       0.00000003       0.00001511
Ca      12.09364995      19.07707396       3.22181122        2        1      -0.00000075      -0.00000052      -0.00000608
Ca      12.31108431      11.80416813       1.92101441        3        1       0.00000039       0.00000046       0.00000045
Ca       6.07764845      19.06447491       3.97754999        3        1      -0.00000053       0.00000000       0.00000366
S       14.39784724      13.94335071       3.60739282        4        1      -0.00000223      -0.00000035      -0.00000426
S        8.57390572      19.99015533       6.57785962        4        1       0.00000720      -0.00001233      -0.00000217
S        9.58522767      24.31195247       4.05411424        4        1       0.00000330       0.00000123      -0.00000097
S       15.67240190      17.93686957       6.55666447        4        1       0.00000050      -0.00000322      -0.00000128
S       12.38103759      16.15967389       1.18540545        5        1      -0.00000029      -0.00000075       0.00000502
S        5.83425103      22.14344864       4.55611898        5        1      -0.00000039      -0.00000039      -0.00000258
S       11.66363971      21.99821682       1.60568129        5        1      -0.00000136       0.00000103       0.00000598
S       18.31936588      15.96786103       4.35872771        5        1      -0.00000248       0.00000141      -0.00000150
S       14.90946113      19.82634561       2.73530341        6        1      -0.00000099      -0.00000862      -0.00000265
S       20.70149625      13.43630981       6.76089042        6        1       0.00000817       0.00000485       0.00002053
S        9.29342734      18.37690192       2.74907628        6        1       0.00000374       0.00000829      -0.00000637
S        3.00506560      24.44872358       6.94651968        6        1      -0.00000788      -0.00000598       0.00002017
O       15.22846424      12.77124110       3.91283435        7        1      -0.00000596      -0.00000042      -0.00000459
O        9.06965511      18.67347932       6.92910354        7        1       0.00000018       0.00000305       0.00000014
O        8.71458054       0.01649394       4.34209515        7        1       0.00000740       0.00000005      -0.00000179
O       15.17256194      19.21358370       7.05419934        7        1      -0.00000148       0.00000023       0.00000505
O       13.02037847      13.56672858       3.25039727        8        1       0.00000349       0.00000001      -0.00000743
O        7.65591923      19.89962933       5.40928168        8        1      -0.00000234      -0.00000029       0.00000363
O       10.89709082      24.95012938       3.80065834        8        1      -0.00000272       0.00000020      -0.00000576
O       16.54055762      18.18701945       5.36994505        8        1       0.00000165       0.00000098       0.00000270
O       15.01817258      14.77470718       2.54984874        9        1      -0.00000426       0.00000060      -0.00000499
O        9.68859514      20.90103387       6.08716409        9        1      -0.00000397      -0.00000612       0.00000102
O        9.15146781      23.48649770       2.90764559        9        1       0.00000536      -0.00000003      -0.00000102
O       14.55979972      17.08217193       6.02691638        9        1       0.00000196       0.00000725       0.00000139
O       14.31318100      14.82325958       4.79829323       10        1       0.00000478       0.00000373      -0.00000202
O        7.94518435      20.72395565       7.67738561       10        1      -0.00000429       0.00000179       0.00000834
O        9.74057065      23.39120262       5.19527695       10        1      -0.00000247      -0.00000277       0.00000072
O       16.35498284      17.11146095       7.55394120       10        1      -0.00000032       0.00000161       0.00000389
O       11.25839365      15.28108931       1.55220416       11        1      -0.00000001       0.00000087      -0.00000345
O        5.05063759      21.11038753       5.23979819       11        1       0.00000110      -0.00000106      -0.00000292
O       12.61404779      23.19943053       1.73314551       11        1      -0.00000042      -0.00000100      -0.00000223
O       19.09530891      16.92098202       5.15372176       11        1      -0.00000206       0.00000130      -0.00000290
O       19.18991893      14.90034139       3.82707882       12        1      -0.00000296      -0.00000411      -0.00000010
O       12.06288637      23.13084250       7.38136248       12        1      -0.00000812       0.00000272       0.00000641
O        4.96867525      23.26766470       4.12607540       12        1       0.00000486       0.00000297       0.00000329
O       11.92430058      17.21180608       4.71710903       12        1       0.00000671       0.00000393       0.00000252
O       12.97293064      16.89556253       2.33872333       13        1       0.00000536      -0.00000362      -0.00000389
O        6.88556442      22.74028540       5.40807465       13        1       0.00000024      -0.00000718       0.00000253
O       11.39342898      21.46880109       3.03689319       13        1      -0.00000647       0.00000222      -0.00000377
O       17.25731779      15.27130183       5.13774549       13        1       0.00000004       0.00000650      -0.00000024
O       13.91825538      19.72842786       1.67988674       14        1       0.00000728       0.00000157       0.00001085
O       21.13280386      14.80783975       6.58203576       14        1      -0.00000935      -0.00000641       0.00000536
O       10.29172802      18.55161666       1.69915953       14        1      -0.00000928       0.00000075       0.00001234
O        3.18597646      23.05891867       6.59155768       14        1       0.00000699       0.00000642       0.00000563
O       15.15785857      21.21726057       3.15432297       15        1       0.00000178       0.00000415      -0.00000570
O       19.35166218      14.15178565       0.93670185       15        1      -0.00000018       0.00000449      -0.00000113
O        9.03876877      16.95828163       3.05669285       15        1      -0.00000190      -0.00000384      -0.00000717
O        4.65911277      24.27413953       1.32637498       15        1       0.00000197      -0.00000663       0.00000069
O       16.15408758      19.08939070       2.47573472       16        1       0.00000106      -0.00000064       0.00000029
O       21.67411629      12.48221500       6.20477333       16        1       0.00000060      -0.00001326      -0.00001721
O        8.04893349      19.13372397       2.51268927       16        1      -0.00000314       0.00000136      -0.00000040
O        1.84291680      25.09063743       6.32834414       16        1      -0.00000040       0.00001554      -0.00001402
O       14.29445409      19.16498494       3.96589682       17        1      -0.00000561       0.00000302       0.00000121
O       19.36024656      13.19068158       6.29143650       17        1       0.00000830      -0.00000864      -0.00001023
O        9.89004608      18.97467801       4.00978940       17        1       0.00000355      -0.00000351       0.00000112
O        4.17602569      25.28707402       6.67962362       17        1      -0.00000561       0.00000741      -0.00001081
O       17.65463446      16.69880681       3.24707694       18        1      -0.00000010      -0.00000565       0.00000328
O       11.01551043      22.68391114       7.86406816       18        1      -0.00000090       0.00000067      -0.00000097
O        6.49285239      21.51958617       3.37642201       18        1      -0.00000018       0.00000649       0.00000444
O       11.71061032      17.55179819       6.00395937       18        1       0.00000339      -0.00000232       0.00000103
O       17.27647413      13.26570497       2.09719514       19        1       0.00000113      -0.00000051      -0.00000639
O       12.33887585      20.13264757       5.63364576       19        1       0.00000569      -0.00000041      -0.00000164
O       13.41196813      22.92248422       4.55504797       20        1       0.00000178       0.00000092      -0.00000023
O       19.41550754      15.62737084       0.95924927       20        1      -0.00000550       0.00000072       0.00000479
O       10.51535331      14.60499968       4.26495857       20        1      -0.00000292       0.00000045      -0.00000008
O        4.72354755      22.79831242       1.19766237       20        1       0.00000604      -0.00000358       0.00000773
H       13.22192038      23.68843161       5.13007381       21        1      -0.00000303      -0.00000080       0.00000244
H       18.66917442      15.88925256       1.53101348       21        1       0.00000128      -0.00000221      -0.00000164
H       10.44438506      13.91536088       4.94645807       21        1       0.00000331       0.00000166      -0.00000055
H        5.47986835      22.53811302       1.75668188       21        1      -0.00000094      -0.00000157       0.00000117
H       12.58464228      22.66840210       4.10902707       22        1      -0.00000083       0.00000220      -0.00000325
H       20.68169712      13.22165663       8.10395817       22        1      -0.00001266       0.00002147       0.00000396
H       11.43604618      14.56650753       3.94569616       22        1      -0.00000006       0.00000159      -0.00000519
H        2.82800181      24.48704186       8.30089749       22        1       0.00001462      -0.00002255       0.00000495
H       18.06278027      13.61337269       1.54470654       23        1      -0.00000869      -0.00000495      -0.00000067
H       12.26757262      19.22565043       6.03330511       23        1      -0.00000589       0.00000424       0.00000836
H        5.90673605      24.88406531       1.87344007       23        1       0.00001067       0.00000271       0.00000117
H       11.47811549      20.54290967       5.87231791       23        1       0.00000724      -0.00000557       0.00000659
Ca      14.86529975       4.31055206       3.22318953        0        1       0.00000035      -0.00000808       0.00000546
Ca       9.72402685      10.09356764       5.84916494        0        1      -0.00000279       0.00000865       0.00001364
Ca       8.54662462       8.34662566       2.79013989        0        1       0.00000014       0.00000843       0.00000653
Ca      14.90139296       2.15731770       6.33991262        0        1      -0.00000027      -0.00000748       0.00001353
Ca       3.13303659      10.45517750       3.11665211        1        1      -0.00000940       0.00000119      -0.00000783
Ca       9.46695503       3.84808740       6.03317870        1        1      -0.00000304      -0.00001650      -0.00000425
Ca      20.47746618       1.79257556       2.57050718        1        1       0.00001118      -0.00000112      -0.00000471
Ca      14.38849350       8.33510308       6.29116929        1        1       0.00000504       0.00001807      -0.00000516
Ca      18.11330328       0.03779977       4.82358069        2        1       0.00000027       0.00000001       0.00001704
Ca      11.40616091       6.53236271       3.94361658        2        1       0.00000062       0.00000126      -0.00001012
Ca      11.85135733       0.04950992       1.73910410        3        1      -0.00000036      -0.00000075       0.00000162
Ca       5.76674967       6.42539693       4.70648849        3        1       0.00000016       0.00000005       0.00000197
S       14.99094149       1.30548486       3.05819449        4        1      -0.00000214       0.00000042      -0.00000269
S        8.85082027       7.29218988       6.29530221        4        1       0.00000326      -0.00000552      -0.00000303
S        8.96115913      11.37794530       2.61573221        4        1       0.00000478       0.00000339      -0.00000119
S       14.96271727       5.24084023       6.67913779        4        1      -0.00000440       0.00000259      -0.00000197
S       12.20908635       3.78191198       1.61578718        5        1       0.00000152      -0.00000149       0.00000396
S        6.05287850       9.54164445       4.86268041        5        1       0.00000099      -0.00000018      -0.00000420
S       11.26004841       8.56270458       0.91743029        5        1       0.00000056       0.00000228       0.00000346
S       18.02257936       3.23397109       4.91543647        5        1       0.00000012      -0.00000013      -0.00000202
S       14.90270764       7.36025411       2.97488877        6        1      -0.00000695      -0.00000649      -0.00001143
S       20.33774039       0.59884832       7.57290668        6        1       0.00000926       0.00000730       0.00001999
S        8.68869673       5.31310354       2.81635905        6        1      -0.00000166       0.00000876      -0.00000118
S        3.34158399      11.96937056       7.00356053        6        1      -0.00001057      -0.00000660       0.00001746
O       16.07299730       0.50348912       3.65727075        7        1      -0.00000682      -0.00000072      -0.00000183
O        9.56315364       6.08609155       6.72106590        7        1      -0.00000139       0.00000172       0.00000161
O        7.99204829      12.29114726       3.23936408        7        1       0.00000727      -0.00000008      -0.00000418
O       13.93556377       6.15194945       7.20877481        7        1      -0.00000311       0.00000036       0.00000110
O       14.03819353       0.31159095       2.49389768        8        1       0.00000273       0.00000002      -0.00000653
O        7.44248500       7.01228864       6.12236252        8        1      -0.00000195       0.00000024       0.00000009
O        9.99537055      12.25433223       1.99925728        8        1      -0.00000245      -0.00000022      -0.00000558
O       16.08748973       6.08890340       6.24792608        8        1       0.00000143       0.00000259       0.00000187
O       15.44316106       2.26930090       2.06440152        9        1      -0.00000457      -0.00000091      -0.00000236
O        9.42339590       7.78339997       4.94721390        9        1      -0.00000298      -0.00000688       0.00000185
O        8.35505632      10.45672564       1.65740648        9        1       0.00000510      -0.00000120      -0.00000475
O       14.40086672       4.51667188       5.46715258        9        1       0.00000242       0.00000790      -0.00000079
O       14.31083693       2.09421779       4.12627027       10        1       0.00000334       0.00000342      -0.00000050
O        9.09913329       8.39629653       7.22520192       10        1      -0.00000400      -0.00000017       0.00000506
O        9.62232828      10.51550356       3.63692272       10        1      -0.00000449      -0.00000358      -0.00000082
O       15.33636799       4.17530577       7.60042029       10        1      -0.00000036       0.00000323       0.00000385
O       12.12340823       2.28843428       1.55782035       11        1       0.00000070      -0.00000090      -0.00000452
O        5.23559484       8.80603885       5.81789082       11        1       0.00000162      -0.00000168      -0.00000473
O       11.69271039       9.93984798       0.59435234       11        1       0.00000133      -0.00000021      -0.00000423
O       18.96007929       4.11912195       5.61743882       11        1      -0.00000191       0.00000192      -0.00000354
O       18.77933590       2.27530644       4.06933899       12        1      -0.00000510      -0.00000196       0.00000208
O       12.36218547       8.01977093       5.42460556       12        1      -0.00001259      -0.00000168       0.00000406
O        5.23918175      10.61317245       4.20410672       12        1       0.00000401       0.00000374      -0.00000146
O       11.44176178       2.51914295       7.01339523       12        1       0.00000936       0.00000116       0.00000477
O       12.18570919       4.21011263       3.08372660       13        1       0.00000568      -0.00000221      -0.00000576
O        7.23804986      10.17800420       5.44394890       13        1       0.00000024      -0.00000731      -0.00000042
O       11.17330004       8.37945585       2.41664602       13        1      -0.00000594       0.00000340      -0.00000688
O       17.22056369       2.39522487       5.82717205       13        1      -0.00000020       0.00000734       0.00000163
O       14.85835400       8.25930658       1.84611289       14        1       0.00000932      -0.00000017       0.00001225
O       20.67989020       1.80810317       6.85722953       14        1      -0.00000708      -0.00000616       0.00000299
O        9.59614154       6.24947033       2.09929886       14        1      -0.00000640      -0.00000296       0.00000487
O        2.90241731      10.78775736       6.28620059       14        1       0.00000939       0.00000568       0.00000143
O       15.08365654       8.21076814       4.18892690       15        1       0.00000201       0.00000378      -0.00000813
O       21.70233148       0.37471927       1.32489977       15        1      -0.00000186       0.00000440       0.00000091
O        8.40684977       4.09859193       2.07532465       15        1      -0.00000133      -0.00000312      -0.00000789
O        2.36992578      11.77234438       1.40526092       15        1       0.00000195      -0.00000497      -0.00000212
O       16.03151015       6.38785124       2.94802879       16        1       0.00000402      -0.00000231      -0.00000219
O       21.33212679      25.06360421       7.89322182       16        1       0.00000249      -0.00001419      -0.00001543
O        7.46251336       6.09043274       3.09456447       16        1      -0.00000039      -0.00000015      -0.00000243
O        2.30649017      12.96060331       7.27567839       16        1      -0.00000222       0.00001222      -0.00002101
O       13.67886068       6.52345952       3.11070071       17        1      -0.00000384       0.00000295      -0.00000135
O       19.19806785      25.14177879       6.88318406       17        1       0.00000759      -0.00000781      -0.00000989
O        9.39580572       4.98931194       4.07777199       17        1       0.00000458      -0.00000236      -0.00000196
O        4.48658766      12.67830101       6.41275339       17        1      -0.00000892       0.00000761      -0.00001128
O       17.12939604       4.07801940       4.09013190       18        1      -0.00000076      -0.00000577       0.00000328
O       12.17664113       9.44624759       5.79123112       18        1       0.00000098      -0.00000194      -0.00000629
O        6.46892588       8.58801861       3.78476036       18        1       0.00000029       0.00000519       0.00000181
O       12.51047470       2.46178879       6.27645455       18        1       0.00000056      -0.00000503      -0.00000412
O       18.76254947      25.21888061       2.40385903       19        1      -0.00000022      -0.00000040      -0.00000345
O       11.72419807       5.03374221       5.77157177       19        1      -0.00000667       0.00000007      -0.00000477
O       12.90098788      10.35811388       3.59774019       20        1       0.00000171      -0.00000118      -0.00000142
O       21.47944558       1.55556863       0.42304946       20        1      -0.00000715       0.00000163       0.00000776
O       10.29830076       2.39823686       4.19031648       20        1      -0.00000072       0.00000096      -0.00000131
O        3.73343119      11.33795991       1.07443886       20        1       0.00000757      -0.00000060       0.00000513
H       12.51360160       9.92227282       4.90368949       21        1      -0.00000144      -0.00000394      -0.00000069
H       20.98586377       1.12341905      -0.29177876       21        1      -0.00000206      -0.00000172       0.00000209
H       10.66899937       1.53839363       4.46064965       21        1       0.00000553       0.00000385       0.00000060
H        4.28244184      12.11732170       1.35766785       21        1       0.00000019       0.00000330      -0.00000272
H       12.51890973       9.53913020       3.24316606       22        1       0.00000006      -0.00000078      -0.00000627
H       19.77817755       1.00144832       8.74717363       22        1      -0.00001129       0.00002409       0.00000431
H       11.04226975       2.93894281       3.84430285       22        1       0.00000201       0.00000177      -0.00000603
H        3.79470363      11.51268299       8.20811607       22        1       0.00000834      -0.00002263       0.00000126
H       19.46899910      24.56230710       2.26919106       23        1      -0.00000939      -0.00000423       0.00000199
H       12.57584844       4.56373584       5.67016088       23        1      -0.00000763       0.00000646       0.00000598
H        4.52472011      13.93035008       2.08130345       23        1       0.00001042       0.00000589      -0.00000177
H       11.85184735       5.63118918       6.52727818       23        1       0.00000534      -0.00000233       0.00000624
Ca       3.10673481      16.88468929       3.73417081        0        1       0.00000029      -0.00000817       0.00000556
Ca      20.60352775      22.92318928       7.07082090        0        1       0.00000060       0.00000846       0.00001514
Ca      20.97911587      21.28855187       3.84429579        0        1      -0.00000069       0.00000807       0.00000732
Ca       3.48675071      15.00925831       6.71769651        0        1       0.00000025      -0.00000863       0.00001225
Ca      15.09485799      23.54139523       2.68836539        1        1      -0.00000992       0.00000068      -0.00000508
Ca      21.59328565      16.84475643       5.46580493        1        1      -0.00000607      -0.00001734      -0.00000317
Ca       8.99627766      14.58609352       2.33378647        1        1       0.00001014      -0.00000121      -0.00000664
Ca       2.64910497      20.98520398       5.61703933        1        1       0.00000149       0.00001793      -0.00000236
Ca       5.94026257      12.82719893       4.39537564        2        1      -0.00000013       0.00000012       0.00001462
Ca       0.05925335      19.07707716       3.22183647        2        1      -0.00000083      -0.00000059      -0.00000664
Ca       0.27668719      11.80417367       1.92104474        3        1       0.00000037       0.00000035      -0.00000015
Ca      18.11204555      19.06447766       3.97752074        3        1      -0.00000046      -0.00000005       0.00000415
S        2.36344634      13.94335066       3.60743154        4        1      -0.00000215      -0.00000031      -0.00000498
S       20.60828276      19.99015869       6.57785144        4        1       0.00000761      -0.00001247      -0.00000223
S       21.61962221      24.31195599       4.05411176        4        1       0.00000343       0.00000117      -0.00000104
S        3.63800627      17.93686870       6.55669734        4        1       0.00000043      -0.00000336      -0.00000188
S        0.34665324      16.15967617       1.18542843        5        1      -0.00000052      -0.00000079       0.00000451
S       17.86864507      22.14344959       4.55608672        5        1      -0.00000031      -0.00000051      -0.00000204
S       23.69805855      21.99822028       1.60570662        5        1      -0.00000171       0.00000098       0.00000543
S        6.28497032      15.96785852       4.35875265        5        1      -0.00000253       0.00000148      -0.00000188
S        2.87506430      19.82634878       2.73533888        6        1      -0.00000094      -0.00000860      -0.00000324
S        8.66712329      13.43631103       6.76090009        6        1       0.00000770       0.00000500       0.00002037
S       21.32783606      18.37690366       2.74907598        6        1       0.00000344       0.00000841      -0.00000644
S       15.03943510      24.44872331       6.94647897        6        1      -0.00000725      -0.00000604       0.00002091
O        3.19406193      12.77124064       3.91287308        7        1      -0.00000591      -0.00000045      -0.00000530
O       21.10402972      18.67348311       6.92910047        7        1       0.00000068       0.00000300       0.00000015
O       20.74897243       0.01649902       4.34207840        7        1       0.00000757      -0.00000004      -0.00000152
O        3.13816762      19.21358367       7.05423162        7        1      -0.00000170       0.00000031       0.00000446
O        0.98597671      13.56672984       3.25043735        8        1       0.00000348      -0.00000003      -0.00000819
O       19.69030614      19.89963108       5.40926567        8        1      -0.00000205      -0.00000034       0.00000392
O       22.93148821      24.95013190       3.80066614        8        1      -0.00000268       0.00000015      -0.00000598
O        4.50616043      18.18701692       5.36997623        8        1       0.00000155       0.00000105       0.00000213
O        2.98377093      14.77470570       2.54988577        9        1      -0.00000425       0.00000063      -0.00000565
O       21.72297586      20.90103775       6.08716534        9        1      -0.00000356      -0.00000619       0.00000095
O       21.18587340      23.48649746       2.90764170        9        1       0.00000526       0.00000000      -0.00000096
O        2.52540303      17.08217088       6.02695232        9        1       0.00000189       0.00000730       0.00000071
O        2.27878310      14.82326058       4.79833133       10        1       0.00000471       0.00000368      -0.00000276
O       19.97955088      20.72395897       7.67737156       10        1      -0.00000366       0.00000174       0.00000862
O       21.77495419      23.39121127       5.19527979       10        1      -0.00000213      -0.00000296       0.00000065
O        4.32058900      17.11146126       7.55397380       10        1      -0.00000050       0.00000165       0.00000326
O       23.29281047      15.28108642       1.55221909       11        1      -0.00000034       0.00000089      -0.00000377
O       17.08502915      21.11038933       5.23976394       11        1       0.00000132      -0.00000106      -0.00000232
O        0.57966916      23.19943162       1.73317831       11        1      -0.00000081      -0.00000101      -0.00000289
O        7.06091599      16.92098217       5.15374145       11        1      -0.00000223       0.00000129      -0.00000323
O        7.15552369      14.90034123       3.82709927       12        1      -0.00000306      -0.00000411      -0.00000043
O        0.02840926      23.13096792       7.38136405       12        1      -0.00000612      -0.00000009       0.00000652
O       17.00307179      23.26766613       4.12603941       12        1       0.00000494       0.00000296       0.00000395
O       23.95869634      17.21180860       4.71713156       12        1       0.00000682       0.00000387       0.00000198
O        0.93853712      16.89556464       2.33875129       13        1       0.00000525      -0.00000367      -0.00000450
O       18.91995607      22.74028561       5.40804578       13        1       0.00000049      -0.00000717       0.00000305
O       23.42783498      21.46880550       3.03691621       13        1      -0.00000659       0.00000214      -0.00000425
O        5.22292945      15.27129694       5.13777780       13        1      -0.00000020       0.00000659      -0.00000081
O        1.88386102      19.72843268       1.67991975       14        1       0.00000718       0.00000146       0.00001013
O        9.09842827      14.80784121       6.58204173       14        1      -0.00000989      -0.00000671       0.00000536
O       22.32614577      18.55162008       1.69916809       14        1      -0.00000956       0.00000069       0.00001208
O       15.22038238      23.05892260       6.59151911       14        1       0.00000696       0.00000638       0.00000641
O        3.12345733      21.21726322       3.15436365       15        1       0.00000179       0.00000406      -0.00000651
O        7.31724512      14.15178721       0.93671674       15        1       0.00000015       0.00000445      -0.00000136
O       21.07317519      16.95828302       3.05668863       15        1      -0.00000203      -0.00000394      -0.00000714
O       16.69351703      24.27413835       1.32634441       15        1       0.00000190      -0.00000662       0.00000126
O        4.11969235      19.08939761       2.47576951       16        1       0.00000097      -0.00000075      -0.00000040
O        9.63973913      12.48221723       6.20477393       16        1       0.00000024      -0.00001332      -0.00001718
O       20.08334432      19.13372601       2.51267882       16        1      -0.00000326       0.00000127      -0.00000024
O       13.87728695      25.09061649       6.32828142       16        1       0.00000016       0.00001599      -0.00001281
O        2.26005596      19.16498387       3.96592938       17        1      -0.00000568       0.00000302       0.00000057
O        7.32586949      13.19068176       6.29145806       17        1       0.00000775      -0.00000863      -0.00001064
O       21.92444392      18.97467840       4.00979497       17        1       0.00000362      -0.00000355       0.00000093
O       16.21038466      25.28709807       6.67960443       17        1      -0.00000476       0.00000696      -0.00001045
O        5.62023056      16.69880248       3.24710569       18        1      -0.00000004      -0.00000555       0.00000277
O       23.04987369      22.68393484       7.86406270       18        1      -0.00000067       0.00000047      -0.00000101
O       18.52725100      21.51958597       3.37639304       18        1      -0.00000017       0.00000650       0.00000495
O       23.74499603      17.55180181       6.00398012       18        1       0.00000368      -0.00000239       0.00000056
O        5.24207150      13.26570535       2.09723119       19        1       0.00000119      -0.00000053      -0.00000703
O        0.30447129      20.13265214       5.63367246       19        1       0.00000576      -0.00000049      -0.00000221
O        1.37756801      22.92249115       4.55508975       20        1       0.00000174       0.00000078      -0.00000104
O        7.38108894      15.62737248       0.95926676       20        1      -0.00000513       0.00000074       0.00000453
O       22.54974688      14.60500260       4.26496665       20        1      -0.00000282       0.00000038      -0.00000028
O       16.75794778      22.79831191       1.19762536       20        1       0.00000601      -0.00000359       0.00000840
H        1.18751950      23.68843370       5.13012023       21        1      -0.00000306      -0.00000084       0.00000152
H        6.63476025      15.88925255       1.53103758       21        1       0.00000155      -0.00000221      -0.00000204
H       22.47877287      13.91536512       4.94646682       21        1       0.00000353       0.00000159      -0.00000079
H       17.51426571      22.53810832       1.75664675       21        1      -0.00000090      -0.00000150       0.00000179
H        0.55024271      22.66841366       4.10906525       22        1      -0.00000084       0.00000197      -0.00000401
H        8.64733593      13.22165752       8.10396794       22        1      -0.00001340       0.00002148       0.00000386
H       23.47044238      14.56650871       3.94571169       22        1       0.00000003       0.00000158      -0.00000554
H       14.86234612      24.48703839       8.30085377       22        1       0.00001578      -0.00002249       0.00000579
H        6.02837279      13.61337402       1.54473546       23        1      -0.00000853      -0.00000496      -0.00000117
H        0.23316288      19.22565520       6.03333129       23        1      -0.00000572       0.00000412       0.00000779
H       17.94114456      24.88406302       1.87340721       23        1       0.00001050       0.00000275       0.00000176
H       23.51250987      20.54291578       5.87233721       23        1       0.00000732      -0.00000570       0.00000615
