464
Lattice="24.0688000000 0.0000000000 0.0000000000 -24.1858546521 25.3488802662 0.0000000000 0.0000000000 0.0000000000 36.8296146568" Properties=species:S:1:pos:R:3 pbc="T T F"
Ca         2.7545371841       4.2232177801       4.3035952282
Ca        -3.2813597590      10.6577865750       8.0432101673
Ca        -2.9345114516       8.5374591333       4.3066880251
Ca         3.3583053590       2.0018557631       8.0431998113
Ca        -9.5462053796      10.6927121760       4.2845960221
Ca        -3.6862037698       4.6320142285       8.0404225642
Ca         9.3472082944       2.0968714248       4.3017397316
Ca         3.3300457703       7.9930205258       8.0333826748
Ca         5.9042307558      -0.0777195217       5.4860029141
Ca        -0.5832023747       5.7873479904       2.0825421928
Ca         1.0171788002       0.4723799062       2.0311719799
Ca        -6.1082666045       6.4681239877       5.4857907900
S          2.7436330567       1.1058220684       4.2997577509
S         -3.5227745279       7.5052472486       8.0253376077
S         -2.7157139757      11.5010468210       4.2784534368
S          3.3719817803       5.1260817789       8.0248570318
S          0.0956797390       3.1212353952       1.9235954942
S         -6.2241301947       9.5439531842       5.4772514829
S         -0.2837100865       9.5933085331       1.9873501270
S          5.9965175167       3.1119660011       5.4702978262
S          2.6610789537       7.3186540439       4.2758354217
S          8.7181846746       0.6927848956       7.9786324200
S         -2.7297638663       5.3967493822       4.2994827015
S         -8.8255125499      12.0027730679       7.9788722935
O          3.9375237460       0.2084934105       4.2900554308
O         -2.3831553372       6.5021498328       8.0615980101
O         -3.8969547824      12.4291945180       4.2940300539
O          2.1663154716       6.0413946848       8.0634107041
O          1.5132844536       0.2381949032       4.2909220196
O         -4.7893806178       6.6408488881       8.0580374685
O         -1.4938842847      12.3468443662       4.2884962378
O          4.5820386936       6.0669731312       8.0576637069
O          2.7136367060       1.9247564134       3.0150985007
O         -3.5164684385       8.1791652928       6.6362125097
O         -2.7846951729      10.6322930222       3.0405464161
O          3.3874355739       4.4417477691       6.6378498057
O          2.7289178466       2.0295911092       5.4717551839
O         -3.4832986641       8.4746820503       9.1688678883
O         -2.7445423676      10.5780463744       5.4784800092
O          3.4034430951       4.1682278095       9.1773001790
O         -0.5966022199       2.0248560941       2.8213753432
O         -6.8429247574       8.5661469774       6.5281840672
O          0.3801868603      10.6719394108       2.7984353770
O          6.5535326237       4.0907218620       6.5246228824
O          6.8486587663       2.3464047578       4.3744475863
O          0.3546191854      10.1323819782       8.0596522834
O         -7.0739850800      10.3090070075       4.3903769125
O         -0.3002506320       2.7123154448       8.0577618689
O          0.8678829598       4.2436923696       2.7930639311
O         -5.5968956378      10.5062128875       6.5249062638
O         -0.8061556461       8.3936226660       2.7869719586
O          5.4017437854       2.1029309274       6.5272446780
O          2.6026611807       8.1514178194       3.0390748788
O          8.7634075191       1.4088644842       6.6401872408
O         -2.5403826006       4.6252673503       3.0127919478
O         -8.8591582665      11.2430998315       6.6399214391
O          2.6477054371       8.2206218981       5.4810886090
O          8.9467724079       0.6563677542       1.9447450208
O         -2.6635856346       4.4903376466       5.4810442864
O         -8.4355262677      10.7895772036       1.9902607916
O          3.9159093221       6.4443725837       4.2893188034
O          9.8315452911      -0.2854971168       8.0681223703
O         -4.0277980973       6.1775227248       4.2883340760
O        -10.0206113535      12.8800315441       8.0657532700
O          1.5183545026       6.3408557080       4.2903203284
O          7.4008783289      -0.0046788198       8.0675812949
O         -1.6296027470       6.4352198037       4.2817213323
O         -7.5527725386      12.7347962161       8.0649545319
O          5.1309819563       3.8717729222       4.3701277947
O         -0.9259278488      10.1910663096       8.0571950630
O         -5.4002145540       8.7369031204       4.3755434848
O          0.9801839769       2.5779348941       8.0556483599
O          6.0522125585       0.2970729475       1.9694402046
O         -0.0553391056       7.7813632702       6.5645572478
O          0.5250577196      10.3966969043       5.4930603210
O          8.8582572976       2.1388166560       1.9651550254
O         -0.5352726773       2.2660077999       5.4964502871
O         -7.3953409307       9.8327245588       1.9429646244
H          0.5685955407      10.2099347864       6.4838070818
H          7.8954077536       2.2859617283       1.9929270117
H         -0.5697738246       2.4662650888       6.4851558431
H         -7.0438555336       9.8489789652       2.8725372127
H         -0.0975713701      11.1479223942       5.4539661517
H          8.8237659656       1.5715942260       9.0155960982
H          0.1054941705       1.5316804734       5.4582423345
H         -8.9232733586      11.1100606552       9.0145466218
H          7.0376694484       0.2672668944       2.0115528923
H          0.1788850612       7.8584313418       5.6044890291
H         -6.7849986762      12.3174118269       2.1261993983
H         -0.3899547525       6.8725109846       6.5974699877
Ca        -9.1017337959      17.0363959661       4.3122035205
Ca       -15.7826227529      23.0748226054       8.0418518540
Ca       -14.8239131384      21.0542837120       4.3026069311
Ca        -9.4364278007      15.2372287624       8.0434093766
Ca       -21.4350406890      23.1738270795       4.2883570491
Ca       -13.8698344122      17.5861137769       8.0412596407
Ca        -2.5750239985      14.5979195313       4.2927011003
Ca        -8.7983378370      21.2923039100       8.0537250685
Ca        -5.8959781982      12.7949596097       5.4775627457
Ca       -11.4596191131      19.5717622010       2.0580804142
Ca       -13.2104495353      12.1426538328       2.0264292211
Ca       -18.1579512122      18.8564502286       5.4836875267
S         -9.4637293290      13.9681660956       4.3191701435
S        -15.1461246173      20.1879351293       8.0273108625
S        -14.9978554606      24.1760920999       4.2997232705
S         -8.8979843659      18.1944192715       8.0307623344
S        -11.0613298771      15.5262476168       1.9812756493
S        -18.0870105306      22.1173023488       5.4491641975
S        -12.2511110907      22.2315434064       1.9234745001
S         -5.9921677447      15.9062486496       5.4791274081
S         -9.4308235621      20.0370705459       4.2951484084
S         -3.4125530239      13.6514126284       8.0427869126
S        -14.7799745750      17.9219125284       4.2722313034
S        -20.7914815858      24.3479596933       8.0393035303
O         -8.2162756971      13.1889100898       4.2909233360
O        -13.6830352633      19.8589659980       8.0642669493
O        -16.2765113173      24.9356987722       4.2951962254
O        -10.0723463032      19.1328459806       8.0584709924
O        -10.6472649360      13.0928401310       4.2849325820
O        -15.9059173282      18.8925106031       8.0602250392
O        -13.8474487183      25.1647493548       4.2880427172
O         -7.6386017682      18.9942585335       8.0526584160
O         -9.4277607139      14.9308199316       3.0001163661
O        -15.4032669039      20.8709973118       6.6450764133
O        -14.8539839726      23.3626559951       3.0198452906
O         -8.9557391964      17.4251086278       6.6362931133
O         -9.5075420854      14.9358455143       5.4704398633
O        -15.5231097928      21.0991574401       9.1861057894
O        -14.8711118744      23.2610229117       5.4746504082
O         -8.9525565339      17.1983578759       9.1750555095
O        -12.1568378192      15.1398993117       2.8593590623
O        -18.5981813535      21.0915452796       6.5287768326
O        -11.5991837116      23.3613376763       2.8042186548
O         -5.3913554954      16.9038248702       6.5266520000
O         -5.1713630214      15.1158656140       4.3835875483
O        -10.9168104125      22.5216823283       8.0516103838
O        -18.9678362577      22.8404671957       4.3842259550
O        -12.9886336907      15.4910844812       8.0572896962
O        -10.7267344247      17.0140940406       1.9853413755
O        -17.5604350757      23.1381663011       6.5331914306
O        -12.9465677012      21.0668337558       2.8037156228
O         -6.6201367891      14.9623322722       6.5244669164
O         -9.6205938692      20.7531608807       2.9780269242
O         -3.4763771356      14.3297662839       6.6135649269
O        -14.7546071323      17.0770970353       3.0450340501
O        -20.7150717949      23.6579645603       6.6184600731
O         -9.5171323670      20.9292611750       5.4696935374
O         -3.6517575594      14.6186165952       1.9910735754
O        -14.7313743692      17.0407473977       5.4838394046
O        -21.7672841523      24.2199408356       1.9674937618
O         -8.1131502059      19.2758613298       4.2880986559
O         -2.1688517959      12.7237631760       8.0587132800
O        -16.0130104020      18.8175458324       4.2902094923
O        -22.0182814817      25.2916371569       8.0581560089
O        -10.5100678127      18.9505871376       4.2835776107
O         -4.6097728624      12.6342984235       8.0526743563
O        -13.6090210644      18.8908588810       4.2868497314
O        -19.5810580423      25.3376988667       8.0551158714
O         -6.7958009813      16.7271333217       4.3747479382
O        -12.1099480078      21.8489535428       8.0567732431
O        -17.1920462155      21.4153475780       4.3780365778
O        -11.6167187948      15.4913594260       8.0602993377
O         -6.0884003531      12.6719390161       2.7139901764
O        -12.1930218403      18.0148805162       6.5531260988
O        -11.5407791895      23.2179506544       5.5044629978
O         -4.7232503969      15.5135836456       1.9409293930
O        -12.8839472067      14.8560868892       5.4960956850
O        -20.4221269223      23.6520289989       1.9771295400
H        -11.3400397513      23.1156864181       6.4862204288
H         -5.0632383469      15.5246736792       2.8774684316
H        -12.9903137266      15.0417558352       6.4823915801
H        -19.8362054557      24.4365273435       2.0178383924
H        -12.1667775242      23.9629756052       5.4692085966
H         -3.4521774340      16.3288499028      10.0399684168
H        -12.2686682255      14.1040438043       5.4704057085
H        -20.1682403951      21.7917235330      10.0293980927
H         -5.3615148458      12.9252562944       2.1151576196
H        -11.4219806604      18.6093185353       6.6234354840
H        -18.3787172395      26.5768366566       2.0505180796
H        -12.4773261753      18.1359463508       5.5962970679
Ca        14.8093910902       4.1941292306       4.3099303401
Ca         9.4176761914      10.2758098494       8.0441393424
Ca         9.1378428561       8.3511985360       4.3009121961
Ca        14.9688057972       2.1321820139       8.0455810607
Ca         2.5249729338      10.5111349854       4.2973587146
Ca        10.1542634639       4.7472254438       8.0415974410
Ca        21.5268883567       2.0678212634       4.2843237207
Ca        14.8380862057       8.2175844075       8.0398027576
Ca        17.7243162588      -0.0583033823       5.4803004762
Ca        12.5448446115       6.9063940903       2.0703480564
Ca        10.9174010665      -0.4641933838       2.0345057497
Ca         5.9535098152       6.2045811709       5.4828369893
S         14.5921535258       1.2483320685       4.2787040764
S          8.9646768769       7.4126458488       8.0279126993
S          9.1531724795      11.4629364497       4.2984665691
S         15.2757397170       5.2944206144       8.0257721828
S         12.0435244720       3.2410554485       1.9847814549
S          5.8117190606       9.4242042826       5.4637882238
S         11.8446131679       9.5538839510       1.9288984624
S         18.1298845020       3.2682993299       5.4631708310
S         14.6209644340       7.3519381058       4.2969915087
S         20.8516438740       0.8231621975       7.9795270310
S          9.2547917504       5.2706069834       4.2773003161
S          3.3061202799      11.9368359076       7.9785861253
O         15.7965786858       0.3463131525       4.2890086392
O         10.4158346001       7.0086680112       8.0641970654
O          7.9341494186      12.3158336462       4.2910287179
O         13.9719379443       6.0856172810       8.0613940601
O         13.4010471527       0.3655663520       4.2888346412
O          8.1296219570       6.1654517170       8.0582427966
O         10.3575384734      12.3645234384       4.2908744030
O         16.3705644508       6.3418545481       8.0575811582
O         14.6146413395       2.1471980594       3.0602544284
O          8.7813962072       8.1169769658       6.6395988390
O          9.2025806821      10.6353539489       3.0215936819
O         15.3413090760       4.6076871786       6.6349958189
O         14.6421870189       2.1621629762       5.4834454956
O          8.6459541605       8.3456300237       9.1776184759
O          9.1986801761      10.5365380840       5.4756209942
O         15.3802807889       4.3372682720       9.1737470398
O         11.5434282571       2.0874438107       2.8022845462
O          5.2455864102       8.3733943903       6.5335118160
O         12.5443863574      10.6664091706       2.8046676879
O         18.6571923997       4.3325827789       6.5331381705
O         19.0675151555       2.6114670692       4.3886468896
O         12.9358691446       9.3858024379       8.0583782803
O          4.9268888068      10.1262836783       4.3694568306
O         11.3746387684       2.7694753030       8.0605348873
O         12.6659142045       4.3991707350       2.7825788535
O          6.3467595690      10.3993264039       6.5265798517
O         11.0957384172       8.4197726611       2.8044225331
O         17.6090541709       2.2849018949       6.5243971749
O         14.4403211479       8.1248355358       3.0126362612
O         20.7884630215       1.6099647768       6.6514254040
O          9.2912658554       4.4531021429       3.0333330711
O          3.3108174263      11.1767803539       6.6480301574
O         14.5549990804       8.2549437255       5.4776158505
O         20.4409159586       1.9398909764       1.9905972501
O          9.2867850755       4.3789920947       5.4828630381
O          3.0213347995      12.0066760882       1.9440633178
O         15.9120771342       6.5684358481       4.2869712153
O         22.0890817019       0.0347234511       8.0651344246
O          8.0033489569       6.1471077387       4.2869098463
O          2.1213585908      12.8092258072       8.0670340373
O         13.5186309102       6.3114663118       4.2865721699
O         19.6391183617      -0.0315650775       8.0651661778
O         10.4086540611       6.2465964048       4.2897030786
O          4.5722700203      12.7106484849       8.0668468668
O         17.2487889089       3.9967499020       4.3762316023
O         11.6415216479       9.8060103269       8.0592903980
O          6.7048471758       8.6843806181       4.3807944096
O         12.7154716668       2.7008714669       8.0589003367
O         17.9830017540       0.0069782668       2.7163848931
O         11.8610388272       5.1590045622       6.5521530080
O         12.5070229625      10.4333528483       5.4962036334
O         19.3808963129       2.8642502382       1.9314195558
O         11.3774695945       2.2625910835       5.4935953267
O          3.0373879041      10.5243162466       1.9666599122
H         12.5753605342      10.2229656798       6.4647513428
H         19.0720688650       2.9303039986       2.8749050240
H         11.2956812302       2.4300555299       6.4823923868
H          3.9913583559      10.3248544969       1.9983306368
H         11.8694992726      11.1683463616       5.4641909310
H         20.8192922450       1.7009323071       9.0356703691
H         12.0082268748       1.5208373080       5.4560792106
H          3.2678260949      11.0565961264       9.0322654578
H         18.6810540290       0.3481092973       2.1257549031
H         12.6408675639       5.7350206444       6.6228383858
H          4.8762961601      12.4019408775       2.0084709032
H         11.5898014121       5.2719105041       5.5965168353
Ca         2.6822129910      16.9982447860       4.3070227253
Ca        -3.4900217464      23.0283655580       8.0425474767
Ca        -3.0252456820      21.0582677936       4.3145700736
Ca         3.3574932781      15.0812279457       8.0384632376
Ca        -9.5919947121      23.4790689205       4.2886649528
Ca        -3.4661658542      17.0224338121       8.0504920567
Ca         9.1566664389      14.7877365885       4.2824696652
Ca         3.6074961090      21.0931511736       8.0485753737
Ca         5.9796496060      12.6753871775       5.4841581059
Ca        -0.7191317227      18.4339232804       2.0581718582
Ca         1.0619678554      13.1372479243       2.0333139186
Ca        -6.0630524564      19.0682980756       5.4914527083
S          2.7818959767      13.8486018642       4.2998657244
S         -3.5246126106      20.0347587825       8.0312067815
S         -2.8253319523      24.1671869370       4.3222445605
S          3.4977752844      18.0734776722       8.0280215731
S          0.0671513910      15.7882580785       1.9333728913
S         -6.1747979977      22.2018579270       5.4747556814
S         -1.2549248034      22.6104468367       1.9784694281
S          5.9302571311      15.8032586376       5.4677659498
S          2.6063830625      20.0900954131       4.2774574516
S          8.7175628347      13.2154174352       7.9782278409
S         -2.7374510256      18.0241918470       4.2962520047
S         -8.7348936092      24.5247599592       8.0511207601
O          4.0546959915      13.0822184033       4.2965358588
O         -2.3168843841      19.1679114794       8.0589534590
O         -4.0548031722      24.9739346137       4.2907289685
O          2.3434387973      19.0223271671       8.0598021698
O          1.6328383185      12.8584391256       4.2903987477
O         -4.7462036977      19.1560423770       8.0532991153
O         -1.6309393739      25.0260191893       4.2780830887
O          4.7669984516      18.8898245508       8.0538557228
O          2.6489730174      14.6577920725       3.0187479845
O         -3.5558247980      20.7987864797       6.6328835865
O         -2.8627274796      23.1913080460       3.0172539145
O          3.4693552731      17.3179614954       6.6404767747
O          2.6547395400      14.7683322040       5.4737252838
O         -3.5477893026      21.0365964749       9.1715131250
O         -2.8072056610      23.2026158906       5.4703379031
O          3.4737358554      17.0772127517       9.1796214437
O         -0.5987120170      14.6525016305       2.8017849411
O         -6.7753128944      21.2272962964       6.5271730660
O         -0.1487548781      22.9909164121       2.8491296385
O          6.5341874150      16.7430442201       6.5255003118
O          6.7527127249      15.0092983731       4.3833044354
O          0.1189901112      22.6833409966       8.0586033215
O         -7.0085774803      22.9888650365       4.3887547296
O         -0.3184136663      15.3211335783       8.0601086106
O          0.7488500002      16.9365541701       2.8471923608
O         -5.5480138453      23.1718292274       6.5276156120
O         -1.5942998113      21.1243451375       1.9864700009
O          5.3069010365      14.7981747392       6.5326052589
O          2.5464469030      20.9375887728       3.0474060925
O          8.5370640851      13.9015890244       6.6349120803
O         -2.5863373713      17.2819629605       2.9836906282
O         -8.5799123093      23.8686325440       6.6062613962
O          2.6048133542      20.9790733437       5.4835679901
O          9.4405242224      13.7028883546       1.9696185791
O         -2.6784203578      17.1286805555       5.4716734536
O         -8.5569300599      23.4147788808       1.9853712832
O          3.8654995698      19.2118619436       4.2859251449
O         10.0770834914      12.6215764571       8.0672098342
O         -4.0267342019      18.8323160577       4.2881416413
O        -10.0573768605      25.3316849624       8.0568270171
O          1.4610624791      19.1112619723       4.2875692515
O          7.6674639614      12.1610494121       8.0691856470
O         -1.6234438170      19.0671890046       4.2821302034
O         -7.6379003136      25.6532451183       8.0524627494
O          5.0880422258      16.5797088675       4.3728715329
O         -1.1558721773      22.7431413256       8.0555790878
O         -5.3589605346      21.4075459844       4.3730325047
O          0.9467365801      15.2851417055       8.0562094687
O          5.8676541092      12.4137104572       1.9677480546
O          0.1820918271      17.5669911582       6.5589372659
O          0.5349367278      23.1324632858       5.4944946765
O          8.1562909679      14.3916618591       1.9792930657
O         -0.5683724789      14.9510753677       5.4935946514
O         -7.4900323110      22.5039286642       1.9447087959
H          0.5434056393      22.9217122891       6.4755062410
H          7.5051832658      13.6548357032       2.0138701938
H         -0.6120110708      15.1500572863       6.4783763096
H         -7.1139119034      22.5352656971       2.8634855449
H          0.0378049285      23.9698276700       5.4667768100
H          8.5657995197      14.1034762127       8.9991781983
H          0.0740309758      14.2197889936       5.4594696197
H         -8.8322723235      21.3641247622      10.2238711645
H          6.1504307784      11.4913144484       2.0304424872
H          0.5710623473      18.4560598679       6.6019236043
H         -6.9281600046      25.0872727487       2.1207879189
H         -0.0831600943      17.5197430117       5.6051915298
O          8.9365490769      11.6231924370      20.3851380872
H          8.7632237257      12.6149640243      20.3967765737
H          9.9406597524      11.5913431888      20.3965930281
O         -9.7082657180      12.4854734048      20.4027164203
H         -9.7397159689      13.1704364041      21.2027542875
H         -9.6650574848      11.8017204168      21.2016391809
O          8.2903786393       8.0361598250      16.4922295069
H          8.0331549869       7.6680571299      15.6388431118
H          8.8729547828       8.7672581106      16.2506670037
O         -1.1690271954      12.4406998551      22.7149755806
H         -0.6984223954      13.4368684328      22.7242401956
H         -0.8404874198      12.1880360036      21.4393384547
O         -8.9650844619      20.1032588896      12.4184889811
H         -8.8626416387      20.6835645454      11.6017130713
H         -8.7309780207      19.2460374236      12.0409692480
O         12.5933440010      11.0933732983      15.2185870824
H         12.7202360096      10.5094858801      14.4595614370
H        -11.4382086408      11.9762376319      14.8305497487
O          3.3326764242       2.1124830458      16.4146924687
H          3.6069055379       1.4820882849      15.7364916038
H          2.8258065821       2.7595751535      15.9103850186
O         18.4850206176       2.8797090605      15.0118245177
H         17.8276984823       3.2386824929      14.4045816404
H         18.2107793752       3.2474200241      15.9058258823
O         -1.2153047294       4.7515367784      17.6846911950
H         -2.1232498897       4.7550170525      17.2317662060
H         -0.6223878089       4.6298874007      16.9310837136
O          8.7879384375      15.7699181126      13.2259277885
H          9.0848070559      15.1665799143      12.5345819807
H          8.3495971508      16.4758539074      12.7340049742
O        -14.8823401913      23.9906519025      26.4646402094
H        -15.9903100100      23.9180220597      26.4634264361
H        -14.5685989304      23.5585460663      25.0354772001
O         15.7785516946       4.7901732042      17.9207187681
H         15.4424715282       4.9431008198      17.0292995890
H         16.7303459869       4.4173909971      17.7039634630
O         -6.4711244760      13.6786242792      16.2498363650
H         -6.1411446346      14.0911373649      15.4418575408
H         -7.0737072515      13.0022084943      15.9214899299
O          1.3063584635      20.6276367680      16.3298178113
H          1.6789630898      19.9065207852      15.8075302392
H          1.0506740637      21.2674334675      15.6527019440
O         -7.8034909362      22.6668783520      17.5197879756
H         -8.0257683115      22.0996064632      16.7690400962
H         -7.5035378532      23.4773217600      17.0871462745
O        -11.2960094762      16.0781303107      16.4913282276
H        -10.6169113288      16.4768118574      15.9325345347
H        -12.0440606669      15.9831862873      15.8874806007
O         -1.6521514196      18.0347126352      17.6825218562
H         -2.0437243566      17.6142890034      16.9091886606
H         -1.1181058593      18.7383629024      17.2929583907
O         -4.2738342974       3.3882624534      26.4665250300
H         -3.6878132497       2.4573872463      26.4662245512
H         -3.7492852272       4.3573932237      26.4661383803
O          6.2615097088      15.2496563911      17.6864040831
H          6.6554205587      15.4215220733      16.8226804111
H          5.5392979727      14.6394109604      17.4867972087
O          3.3382117479      12.6313747537      19.0667321704
H          3.6142471425      11.8059881478      18.6554663661
H          3.3880787086      12.5508023263      20.3051432196
N         -4.2293276843      17.8599549525      23.9056350164
H         -4.5226956499      17.8488595162      22.7630707640
H         -3.5604503300      17.0575786436      23.9058573218
H         -3.6442471988      18.7266492919      23.9057192694
N         11.1031526025       4.1657691876      24.9681336869
H         11.3381613997       5.1710665522      25.0008783072
H         10.4637232458       4.2460794541      23.9531378229
H         11.7161969060       3.9502224617      23.9531252588
N          8.3281266397      14.9677637858      23.9319756745
H          7.8621884128      15.4616804635      24.9359091060
H        -14.9439905211      15.6638842605      23.8952634961
H          8.7528864781      14.4397268438      24.9358352775
N         -3.6227854434       4.8055169807      16.3563745071
H         -3.7768140738       5.7055660943      15.9098436461
H         -3.6972964390       4.1327930043      15.5939954167
H         -4.5001787415       4.6108074354      16.8798007957
H         -6.0874609816       3.9204410975      17.3681047088
N         10.3162942555       1.7627887689      26.4664568723
H         10.6925434700       2.9056592720      26.4644659064
H         11.1473373294       0.9483705823      26.4677789837
H          9.1573965671       1.6387868795      26.4680470161
H          9.5932628915      -0.2699174817      26.4639853075
N        -11.5636373908      20.9017986913      10.4283020396
H        -12.0703082360      21.3636734780       8.9905124422
H        -10.5662607899      21.1898899050      10.4441780635
H        -11.5400558753      19.8998446332      10.5823578881
H        -12.0062432217      21.3206878101      11.2380820562
N         17.0259047821       3.2928063246      25.0034245474
H         18.6579478511       3.3526798176      26.4574946817
H         16.9189203962       2.2709389187      24.9892174000
H         16.8621289514       3.5605762293      23.9412115313
H         16.5944056347       3.5091841510      26.4224715483
P          1.3146745015      14.4879316819      24.9843611743
O          2.5055328633      14.4101908647      26.4618406823
O          2.1763680376      14.9697275069      23.9099064049
O         -0.0505343900      13.9346886764      24.9952564567
O          2.6055077642      12.7603544516      26.4659739618
H          3.7329941499      12.7703800400      26.4664062132
P          4.0526969857       4.3360112748      23.8859770514
O          4.1547898929       5.1967756005      25.0051695143
O          4.9763645414       5.0347270982      22.7197634494
O          3.2911912153       5.2150929958      22.7200078610
O          4.0381504781       2.7576823381      23.9113803503
H          3.1353052228       2.3445930020      23.8914653490
