96
Lattice="12.76842 0.0 0.0 0.0 14.11374 0.0 0.0 0.0 20.9084508" Properties=species:S:1:pos:R:3 pbc="T T F"
Ca         2.1706314000       0.0000000000       2.1957579000
Ca         4.2135786000       0.0000000000       5.7126929000
Ca         5.3627364000       3.5284350000       2.1957579000
Ca         1.0214736000       3.5284350000       5.7126929000
S          1.0214736000       0.0000000000       5.7126929000
S          5.3627364000       0.0000000000       2.1957579000
S          4.2135786000       3.5284350000       5.7126929000
S          2.1706314000       3.5284350000       2.1957579000
O          0.1915263000       5.8572021000       5.7126929000
O          6.1926837000       5.8572021000       2.1957579000
O          6.1926837000       1.1996679000       2.1957579000
O          0.1915263000       1.1996679000       5.7126929000
O          3.3836313000       2.3287671000       5.7126929000
O          3.0005787000       2.3287671000       2.1957579000
O          3.0005787000       4.7281029000       2.1957579000
O          3.3836313000       4.7281029000       5.7126929000
O          1.9152630000       0.0000000000       6.9084508000
O          4.4689470000       0.0000000000       1.0000000000
O          1.9152630000       0.0000000000       4.5169350000
O          4.4689470000       0.0000000000       3.3915158000
O          5.1073680000       3.5284350000       6.9084508000
O          1.2768420000       3.5284350000       1.0000000000
O          5.1073680000       3.5284350000       4.5169350000
O          1.2768420000       3.5284350000       3.3915158000
Ca         2.1706314000       7.0568700000       2.1957579000
Ca         4.2135786000       7.0568700000       5.7126929000
Ca         5.3627364000      10.5853050000       2.1957579000
Ca         1.0214736000      10.5853050000       5.7126929000
S          1.0214736000       7.0568700000       5.7126929000
S          5.3627364000       7.0568700000       2.1957579000
S          4.2135786000      10.5853050000       5.7126929000
S          2.1706314000      10.5853050000       2.1957579000
O          0.1915263000      12.9140721000       5.7126929000
O          6.1926837000      12.9140721000       2.1957579000
O          6.1926837000       8.2565379000       2.1957579000
O          0.1915263000       8.2565379000       5.7126929000
O          3.3836313000       9.3856371000       5.7126929000
O          3.0005787000       9.3856371000       2.1957579000
O          3.0005787000      11.7849729000       2.1957579000
O          3.3836313000      11.7849729000       5.7126929000
O          1.9152630000       7.0568700000       6.9084508000
O          4.4689470000       7.0568700000       1.0000000000
O          1.9152630000       7.0568700000       4.5169350000
O          4.4689470000       7.0568700000       3.3915158000
O          5.1073680000      10.5853050000       6.9084508000
O          1.2768420000      10.5853050000       1.0000000000
O          5.1073680000      10.5853050000       4.5169350000
O          1.2768420000      10.5853050000       3.3915158000
Ca         8.5548414000       0.0000000000       2.1957579000
Ca        10.5977886000       0.0000000000       5.7126929000
Ca        11.7469464000       3.5284350000       2.1957579000
Ca         7.4056836000       3.5284350000       5.7126929000
S          7.4056836000       0.0000000000       5.7126929000
S         11.7469464000       0.0000000000       2.1957579000
S         10.5977886000       3.5284350000       5.7126929000
S          8.5548414000       3.5284350000       2.1957579000
O          6.5757363000       5.8572021000       5.7126929000
O         12.5768937000       5.8572021000       2.1957579000
O         12.5768937000       1.1996679000       2.1957579000
O          6.5757363000       1.1996679000       5.7126929000
O          9.7678413000       2.3287671000       5.7126929000
O          9.3847887000       2.3287671000       2.1957579000
O          9.3847887000       4.7281029000       2.1957579000
O          9.7678413000       4.7281029000       5.7126929000
O          8.2994730000       0.0000000000       6.9084508000
O         10.8531570000       0.0000000000       1.0000000000
O          8.2994730000       0.0000000000       4.5169350000
O         10.8531570000       0.0000000000       3.3915158000
O         11.4915780000       3.5284350000       6.9084508000
O          7.6610520000       3.5284350000       1.0000000000
O         11.4915780000       3.5284350000       4.5169350000
O          7.6610520000       3.5284350000       3.3915158000
Ca         8.5548414000       7.0568700000       2.1957579000
Ca        10.5977886000       7.0568700000       5.7126929000
Ca        11.7469464000      10.5853050000       2.1957579000
Ca         7.4056836000      10.5853050000       5.7126929000
S          7.4056836000       7.0568700000       5.7126929000
S         11.7469464000       7.0568700000       2.1957579000
S         10.5977886000      10.5853050000       5.7126929000
S          8.5548414000      10.5853050000       2.1957579000
O          6.5757363000      12.9140721000       5.7126929000
O         12.5768937000      12.9140721000       2.1957579000
O         12.5768937000       8.2565379000       2.1957579000
O          6.5757363000       8.2565379000       5.7126929000
O          9.7678413000       9.3856371000       5.7126929000
O          9.3847887000       9.3856371000       2.1957579000
O          9.3847887000      11.7849729000       2.1957579000
O          9.7678413000      11.7849729000       5.7126929000
O          8.2994730000       7.0568700000       6.9084508000
O         10.8531570000       7.0568700000       1.0000000000
O          8.2994730000       7.0568700000       4.5169350000
O         10.8531570000       7.0568700000       3.3915158000
O         11.4915780000      10.5853050000       6.9084508000
O          7.6610520000      10.5853050000       1.0000000000
O         11.4915780000      10.5853050000       4.5169350000
O          7.6610520000      10.5853050000       3.3915158000
