 DBCSR| CPU Multiplication driver                                           XSMM (U)
 DBCSR| Multrec recursion limit                                              512 (U)
 DBCSR| Multiplication stack size                                           1000 (D)
 DBCSR| Maximum elements for images                                    UNLIMITED (U)
 DBCSR| Multiplicative factor virtual images                                   1 (U)
 DBCSR| Use multiplication densification                                       T (D)
 DBCSR| Multiplication size stacks                                             3 (U)
 DBCSR| Use memory pool for CPU allocation                                     F (U)
 DBCSR| Number of 3D layers                                               SINGLE (U)
 DBCSR| Use MPI memory allocation                                              F (U)
 DBCSR| Use RMA algorithm                                                      F (U)
 DBCSR| Use Communication thread                                               T (U)
 DBCSR| Communication thread load                                             87 (D)
 DBCSR| MPI: My process id                                                     0
 DBCSR| MPI: Number of processes                                             192
 DBCSR| OMP: Current number of threads                                         1
 DBCSR| OMP: Max number of threads                                             1
 DBCSR| Split modifier for TAS multiplication algorithm                  1.0E+00 (U)


  **** **** ******  **  PROGRAM STARTED AT               2026-08-23 23:00:33.712
 ***** ** ***  *** **   PROGRAM STARTED ON                                 n0521
 **    ****   ******    PROGRAM STARTED BY                              tangsiqi
 ***** **    ** ** **   PROGRAM PROCESS ID                                345243
  **** **  *******  **  PROGRAM STARTED IN /scratch/tangsiqi/liyi_folder/AI_phos
                                           phogypsum/2.CP2K_GeoOpt/2.1.3CSO

 CP2K| version string:                                       CP2K version 2026.2
 CP2K| source code revision number:                                  git:c92cc08
 CP2K| cp2kflags: omp libint fftw3 libxc elpa parallel scalapack mpi_f08 cosma l
 CP2K|            ibxs libxsmm plumed2 spglib libdftd4 dftd4_v4_2 s_dftd3 mctc-l
 CP2K|            lib tblite libvori libbqb mimic hdf5 trexio libsmeagol greenx
 CP2K| is freely available from                            https://www.cp2k.org/
 CP2K| Program compiled at                                   2026-08-15 22:43:53
 CP2K| Program compiled on                                                 n0529
 CP2K| Program compiled for                                               x86_64
 CP2K| Data directory path          /scratch/tangsiqi/CP2K_pkg/cp2k-v202602/data
 CP2K| Input file name                                               geo_opt.inp

 GLOBAL| Force Environment number                                              1
 GLOBAL| Basis set file name                                    BASIS_MOLOPT_UZH
 GLOBAL| Potential file name                                       POTENTIAL_UZH
 GLOBAL| MM Potential file name                                     MM_POTENTIAL
 GLOBAL| Coordinate file name                                       2.1.3CSO.xyz
 GLOBAL| Method name                                                        CP2K
 GLOBAL| Project name                                         gypsum_slab_geoopt
 GLOBAL| Run type                                                        GEO_OPT
 GLOBAL| FFT library                                                       FFTW3
 GLOBAL| Diagonalization library                                            ELPA
 GLOBAL| Cholesky decomposition library                                ScaLAPACK
 GLOBAL| DGEMM library                                                      BLAS
 GLOBAL| Minimum number of eigenvectors for ELPA usage                        64
 GLOBAL| Orthonormality check for eigenvectors                          DISABLED
 GLOBAL| Matrix multiplication library                                     COSMA
 GLOBAL| All-to-all communication in single precision                          F
 GLOBAL| FFTs using library dependent lengths                                  T
 GLOBAL| Grid backend                                                       AUTO
 GLOBAL| Global print level                                                  LOW
 GLOBAL| MPI I/O enabled                                                       T
 GLOBAL| Total number of message passing processes                           192
 GLOBAL| Number of distributed systems (nodes)                                 1
 GLOBAL| Number of threads for this process                                    1
 GLOBAL| This output is from process                                           0
 GLOBAL| OpenMP stack size per thread (OMP_STACKSIZE)                       128M
 GLOBAL| CPU model name                          AMD EPYC 9A14 96-Core Processor
 GLOBAL| CPUID                                                              1003

 MEMORY| system memory details [Kb]
 MEMORY|                        rank 0           min           max       average
 MEMORY| MemTotal            791724176     791724176     791724176     791724176
 MEMORY| MemFree             753094628     753072452     753095132     753093608
 MEMORY| Buffers                102720        102720        102720        102720
 MEMORY| Cached                1841272       1841272       1841272       1841272
 MEMORY| Slab                  1331344       1331336       1331344       1331343
 MEMORY| SReclaimable           343364        343364        343364        343364
 MEMORY| MemLikelyFree       755381984     755359808     755382488     755380964


 GENERATE|  Preliminary Number of Bonds generated:                             0
 GENERATE|  Achieved consistency in connectivity generation.

 *******************************************************************************
 *******************************************************************************
 **                                                                           **
 **     #####                         ##              ##                      **
 **    ##   ##            ##          ##              ##                      **
 **   ##     ##                       ##            ######                    **
 **   ##     ##  ##   ##  ##   #####  ##  ##   ####   ##    #####    #####    **
 **   ##     ##  ##   ##  ##  ##      ## ##   ##      ##   ##   ##  ##   ##   **
 **   ##  ## ##  ##   ##  ##  ##      ####     ###    ##   ######   ######    **
 **    ##  ###   ##   ##  ##  ##      ## ##      ##   ##   ##       ##        **
 **     #######   #####   ##   #####  ##  ##  ####    ##    #####   ##        **
 **           ##                                                    ##        **
 **                                                                           **
 **                                                ... make the atoms dance   **
 **                                                                           **
 **            Copyright (C) by CP2K developers group (2000-2026)             **
 **                      J. Chem. Phys. 152, 194103 (2020)                    **
 **                                                                           **
 *******************************************************************************


 TOTAL NUMBERS AND MAXIMUM NUMBERS

  Total number of            - Atomic kinds:                                   3
                             - Atoms:                                         96
                             - Shell sets:                                    96
                             - Shells:                                       496
                             - Primitive Cartesian functions:                480
                             - Cartesian basis functions:                   1360
                             - Spherical basis functions:                   1264

  Maximum angular momentum of- Orbital basis functions:                        2
                             - Local part of the GTH pseudopotential:          2
                             - Non-local part of the GTH pseudopotential:      3


 SCF PARAMETERS         Density guess:                                    ATOMIC
                        --------------------------------------------------------
                        max_scf:                                             200
                        max_scf_history:                                       0
                        max_diis:                                              4
                        --------------------------------------------------------
                        eps_scf:                                        1.50E-06
                        eps_scf_history:                                0.00E+00
                        eps_diis:                                       0.00E+00
                        eps_eigval:                                     1.00E-05
                        --------------------------------------------------------
                        level_shift [a.u.]:                             0.000000
                        --------------------------------------------------------
                        Outer loop SCF in use 
                        No variables optimised in outer loop
                        eps_scf                                         1.50E-06
                        max_scf                                               30
                        No outer loop optimization
                        step_size                                       5.00E-01

 BFGS| Use rational function optimization for step estimation:                NO
 BFGS| Use model Hessian for initial guess:                                  YES
 BFGS| Restart Hessian:                                                       NO
 BFGS| Trust radius:                                                       0.378

 *******************************************************************************
 ***                     STARTING GEOMETRY OPTIMIZATION                      ***
 ***                                   BFGS                                  ***
 *******************************************************************************

 Extrapolation method: initial_guess

 Number of electrons:                                                        640
 Number of occupied orbitals:                                                320
 Number of molecular orbitals:                                               320

 Number of orbital functions:                                               1264
 Number of independent orbital functions:                                   1264


 SCF WAVEFUNCTION OPTIMIZATION

  ----------------------------------- OT ---------------------------------------
  Minimizer      : CG                  : conjugate gradient
  Preconditioner : FULL_ALL            : diagonalization, state selective
  Precond_solver : DEFAULT
  Line search    : 2PNT                : 2 energies, one gradient
  stepsize       :    0.15000000                  energy_gap     :    0.00100000
  eps_taylor     :   0.10000E-15                  max_taylor     :             4
  ----------------------------------- OT ---------------------------------------

  Step     Update method      Time    Convergence         Total energy    Change
  ------------------------------------------------------------------------------
     1 OT CG       0.15E+00   18.2     0.04062143     -1719.2746253947 -1.72E+03
     - OT LS       0.11E+00    1.3                    -1751.6668486158
     2 OT CG       0.11E+00    1.9     0.03751314     -1758.0214407044 -3.87E+01
     - OT LS       0.38E-01    0.8                    -1729.5879810211
     3 OT CG       0.38E-01    1.6     0.02989428     -1763.1702910737 -5.15E+00
     - OT LS       0.37E-01    0.7                    -1767.9237997197
     4 OT CG       0.37E-01    2.2     0.02193635     -1767.9237867779 -4.75E+00
     - OT LS       0.55E-01    1.2                    -1772.7067208360
     5 OT CG       0.55E-01    1.5     0.01050787     -1773.3152981931 -5.39E+00
     - OT LS       0.62E-01    0.7                    -1774.7352180717
     6 OT CG       0.62E-01    1.4     0.00812096     -1774.7666488102 -1.45E+00
     - OT LS       0.72E-01    0.7                    -1775.7367206638
     7 OT CG       0.72E-01    1.6     0.00575998     -1775.7489798910 -9.82E-01
     - OT LS       0.99E-01    0.7                    -1776.3502112976
     8 OT CG       0.99E-01    1.6     0.00435577     -1776.3835699344 -6.35E-01
     - OT LS       0.11E+00    0.9                    -1776.7681653191
     9 OT CG       0.11E+00    1.3     0.00357866     -1776.7678077694 -3.84E-01
     - OT LS       0.13E+00    0.7                    -1777.0757112827
    10 OT CG       0.13E+00    1.5     0.00318796     -1777.0783413999 -3.11E-01
     - OT LS       0.11E+00    0.7                    -1777.2884384327
    11 OT CG       0.11E+00    1.4     0.00270477     -1777.2952152965 -2.17E-01
     - OT LS       0.12E+00    0.7                    -1777.4698618540
    12 OT CG       0.12E+00    1.2     0.00225475     -1777.4703742169 -1.75E-01
     - OT LS       0.90E-01    0.7                    -1777.5499738289
    13 OT CG       0.90E-01    1.5     0.00153148     -1777.5611269925 -9.08E-02
     - OT LS       0.10E+00    0.7                    -1777.6096009961
    14 OT CG       0.10E+00    1.3     0.00111653     -1777.6104897523 -4.94E-02
     - OT LS       0.95E-01    0.6                    -1777.6343378764
    15 OT CG       0.95E-01    1.2     0.00076134     -1777.6345231864 -2.40E-02
     - OT LS       0.10E+00    0.6                    -1777.6467764548
    16 OT CG       0.10E+00    1.5     0.00054110     -1777.6468761559 -1.24E-02
     - OT LS       0.11E+00    0.7                    -1777.6532261124
    17 OT CG       0.11E+00    1.2     0.00039517     -1777.6532303001 -6.35E-03
     - OT LS       0.11E+00    0.6                    -1777.6567684952
    18 OT CG       0.11E+00    1.2     0.00030552     -1777.6567748005 -3.54E-03
     - OT LS       0.11E+00    0.6                    -1777.6588757085
    19 OT CG       0.11E+00    1.4     0.00023635     -1777.6588758131 -2.10E-03
     - OT LS       0.12E+00    0.7                    -1777.6601955553
    20 OT CG       0.12E+00    1.2     0.00018881     -1777.6601986801 -1.32E-03
     - OT LS       0.12E+00    0.6                    -1777.6610607009
    21 OT CG       0.12E+00    1.1     0.00015615     -1777.6610613437 -8.63E-04
     - OT LS       0.12E+00    0.6                    -1777.6616610144
    22 OT CG       0.12E+00    1.4     0.00013284     -1777.6616611051 -6.00E-04
     - OT LS       0.12E+00    0.7                    -1777.6621026615
    23 OT CG       0.12E+00    1.2     0.00011438     -1777.6621028526 -4.42E-04
     - OT LS       0.13E+00    0.6                    -1777.6624446638
    24 OT CG       0.13E+00    1.2     0.00010229     -1777.6624452264 -3.42E-04
     - OT LS       0.13E+00    0.6                    -1777.6627171434
    25 OT CG       0.13E+00    1.4     0.00009174     -1777.6627171444 -2.72E-04
     - OT LS       0.13E+00    0.7                    -1777.6629371473
    26 OT CG       0.13E+00    1.2     0.00008325     -1777.6629371585 -2.20E-04
     - OT LS       0.13E+00    0.6                    -1777.6631176338
    27 OT CG       0.13E+00    1.1     0.00007474     -1777.6631176340 -1.80E-04
     - OT LS       0.14E+00    0.6                    -1777.6632750387
    28 OT CG       0.14E+00    1.4     0.00007066     -1777.6632758849 -1.58E-04
     - OT LS       0.13E+00    0.6                    -1777.6634066994
    29 OT CG       0.13E+00    1.2     0.00006478     -1777.6634070722 -1.31E-04
     - OT LS       0.14E+00    0.6                    -1777.6635231173
    30 OT CG       0.14E+00    1.1     0.00006012     -1777.6635232498 -1.16E-04
     - OT LS       0.13E+00    0.6                    -1777.6636186498
    31 OT CG       0.13E+00    1.4     0.00005502     -1777.6636188019 -9.56E-05
     - OT LS       0.13E+00    0.6                    -1777.6637012768
    32 OT CG       0.13E+00    1.2     0.00005190     -1777.6637013298 -8.25E-05
     - OT LS       0.13E+00    0.6                    -1777.6637686022
    33 OT CG       0.13E+00    1.1     0.00004673     -1777.6637688344 -6.75E-05
     - OT LS       0.14E+00    0.6                    -1777.6638301237
    34 OT CG       0.14E+00    1.4     0.00004502     -1777.6638305229 -6.17E-05
     - OT LS       0.13E+00    0.6                    -1777.6638824290
    35 OT CG       0.13E+00    1.2     0.00004093     -1777.6638826698 -5.21E-05
     - OT LS       0.15E+00    0.6                    -1777.6639327633
    36 OT CG       0.15E+00    1.1     0.00004069     -1777.6639336273 -5.10E-05
     - OT LS       0.13E+00    0.6                    -1777.6639753160
    37 OT CG       0.13E+00    1.4     0.00003683     -1777.6639761595 -4.25E-05
     - OT LS       0.14E+00    0.7                    -1777.6640148509
    38 OT CG       0.14E+00    1.2     0.00003514     -1777.6640150924 -3.89E-05
     - OT LS       0.13E+00    0.6                    -1777.6640470006
    39 OT CG       0.13E+00    1.1     0.00003247     -1777.6640472281 -3.21E-05
     - OT LS       0.13E+00    0.6                    -1777.6640759089
    40 OT CG       0.13E+00    1.4     0.00003042     -1777.6640759260 -2.87E-05
     - OT LS       0.13E+00    0.7                    -1777.6640992674
    41 OT CG       0.13E+00    1.2     0.00002629     -1777.6640992839 -2.34E-05
     - OT LS       0.13E+00    0.6                    -1777.6641180979
    42 OT CG       0.13E+00    1.1     0.00002343     -1777.6641181264 -1.88E-05
     - OT LS       0.12E+00    0.6                    -1777.6641317829
    43 OT CG       0.12E+00    1.4     0.00002047     -1777.6641318545 -1.37E-05
     - OT LS       0.13E+00    0.7                    -1777.6641430481
    44 OT CG       0.13E+00    1.2     0.00001849     -1777.6641430781 -1.12E-05
     - OT LS       0.13E+00    0.6                    -1777.6641517340
    45 OT CG       0.13E+00    1.1     0.00001630     -1777.6641517324 -8.65E-06
     - OT LS       0.14E+00    0.6                    -1777.6641593038
    46 OT CG       0.14E+00    1.4     0.00001563     -1777.6641593372 -7.60E-06
     - OT LS       0.13E+00    0.6                    -1777.6641657857
    47 OT CG       0.13E+00    1.2     0.00001519     -1777.6641657952 -6.46E-06
     - OT LS       0.15E+00    0.6                    -1777.6641727111
    48 OT CG       0.15E+00    1.1     0.00001557     -1777.6641727637 -6.97E-06
     - OT LS       0.14E+00    0.6                    -1777.6641791319
    49 OT CG       0.14E+00    1.4     0.00001476     -1777.6641791449 -6.38E-06
     - OT LS       0.14E+00    0.6                    -1777.6641855871
    50 OT CG       0.14E+00    1.2     0.00001380     -1777.6641855983 -6.45E-06
     - OT LS       0.13E+00    0.6                    -1777.6641907020
    51 OT CG       0.13E+00    1.1     0.00001324     -1777.6641907186 -5.12E-06
     - OT LS       0.14E+00    0.6                    -1777.6641957490
    52 OT CG       0.14E+00    1.4     0.00001235     -1777.6641957471 -5.03E-06
     - OT LS       0.13E+00    0.6                    -1777.6641994289
    53 OT CG       0.13E+00    1.2     0.00001132     -1777.6641994326 -3.69E-06
     - OT LS       0.13E+00    0.6                    -1777.6642029626
    54 OT CG       0.13E+00    1.1     0.00000972     -1777.6642029670 -3.53E-06
     - OT LS       0.14E+00    0.6                    -1777.6642057200
    55 OT CG       0.14E+00    1.4     0.00000999     -1777.6642057412 -2.77E-06
     - OT LS       0.15E+00    0.6                    -1777.6642089091
    56 OT CG       0.15E+00    1.2     0.00001075     -1777.6642089030 -3.16E-06
     - OT LS       0.13E+00    0.6                    -1777.6642116629
    57 OT CG       0.13E+00    1.1     0.00001125     -1777.6642116869 -2.78E-06
     - OT LS       0.13E+00    0.6                    -1777.6642150478
    58 OT CG       0.13E+00    1.4     0.00000929     -1777.6642150456 -3.36E-06
     - OT LS       0.15E+00    0.6                    -1777.6642177676
    59 OT CG       0.15E+00    1.2     0.00000996     -1777.6642178274 -2.78E-06
     - OT LS       0.14E+00    0.6                    -1777.6642205620
    60 OT CG       0.14E+00    1.1     0.00000867     -1777.6642206036 -2.78E-06
     - OT LS       0.19E+00    0.6                    -1777.6642231723
    61 OT CG       0.19E+00    1.3     0.00001012     -1777.6642233456 -2.74E-06
     - OT LS       0.12E+00    0.6                    -1777.6642248309
    62 OT CG       0.12E+00    1.2     0.00000872     -1777.6642255693 -2.22E-06
     - OT LS       0.15E+00    0.6                    -1777.6642278645
    63 OT CG       0.15E+00    1.1     0.00000888     -1777.6642279545 -2.39E-06
     - OT LS       0.13E+00    0.6                    -1777.6642300022
    64 OT CG       0.13E+00    1.4     0.00000852     -1777.6642300284 -2.07E-06
     - OT LS       0.16E+00    0.6                    -1777.6642323345
    65 OT CG       0.16E+00    1.2     0.00000909     -1777.6642323655 -2.34E-06
     - OT LS       0.12E+00    0.6                    -1777.6642339959
    66 OT CG       0.12E+00    1.1     0.00000891     -1777.6642341345 -1.77E-06
     - OT LS       0.13E+00    0.6                    -1777.6642363888
    67 OT CG       0.13E+00    1.4     0.00000802     -1777.6642363939 -2.26E-06
     - OT LS       0.12E+00    0.6                    -1777.6642378113
    68 OT CG       0.12E+00    1.2     0.00000767     -1777.6642378259 -1.43E-06
     - OT LS       0.13E+00    0.6                    -1777.6642393810
    69 OT CG       0.13E+00    1.1     0.00000595     -1777.6642393869 -1.56E-06
     - OT LS       0.13E+00    0.6                    -1777.6642403149
    70 OT CG       0.13E+00    1.3     0.00000594     -1777.6642403164 -9.30E-07
     - OT LS       0.13E+00    0.6                    -1777.6642412775
    71 OT CG       0.13E+00    1.2     0.00000514     -1777.6642412785 -9.62E-07
     - OT LS       0.15E+00    0.6                    -1777.6642420342
    72 OT CG       0.15E+00    1.1     0.00000556     -1777.6642420362 -7.58E-07
     - OT LS       0.12E+00    0.6                    -1777.6642426702
    73 OT CG       0.12E+00    1.4     0.00000508     -1777.6642427007 -6.64E-07
     - OT LS       0.13E+00    0.6                    -1777.6642433829
    74 OT CG       0.13E+00    1.2     0.00000432     -1777.6642433860 -6.85E-07
     - OT LS       0.14E+00    0.6                    -1777.6642439419
    75 OT CG       0.14E+00    1.1     0.00000427     -1777.6642439505 -5.64E-07
     - OT LS       0.16E+00    0.6                    -1777.6642445565
    76 OT CG       0.16E+00    1.3     0.00000452     -1777.6642445510 -6.01E-07
     - OT LS       0.12E+00    0.6                    -1777.6642448519
    77 OT CG       0.12E+00    1.2     0.00000452     -1777.6642449050 -3.54E-07
     - OT LS       0.12E+00    0.6                    -1777.6642454037
    78 OT CG       0.12E+00    1.1     0.00000342     -1777.6642454055 -5.01E-07
     - OT LS       0.16E+00    0.6                    -1777.6642457952
    79 OT CG       0.16E+00    1.4     0.00000396     -1777.6642458131 -4.08E-07
     - OT LS       0.11E+00    0.6                    -1777.6642460397
    80 OT CG       0.11E+00    1.2     0.00000342     -1777.6642461192 -3.06E-07
     - OT LS       0.10E+00    0.6                    -1777.6642463485
    81 OT CG       0.10E+00    1.1     0.00000264     -1777.6642463463 -2.27E-07
     - OT LS       0.13E+00    0.6                    -1777.6642465433
    82 OT CG       0.13E+00    1.3     0.00000261     -1777.6642465569 -2.11E-07
     - OT LS       0.14E+00    0.6                    -1777.6642467537
    83 OT CG       0.14E+00    1.2     0.00000212     -1777.6642467534 -1.97E-07
     - OT LS       0.13E+00    0.6                    -1777.6642468589
    84 OT CG       0.13E+00    1.1     0.00000214     -1777.6642468578 -1.04E-07
     - OT LS       0.23E+00    0.6                    -1777.6642470504
    85 OT CG       0.23E+00    1.4     0.00000355     -1777.6642470765 -2.19E-07
     - OT LS       0.91E-01    0.6                    -1777.6642468684
    86 OT CG       0.91E-01    1.2     0.00000363     -1777.6642472517 -1.75E-07
     - OT LS       0.73E-01    0.6                    -1777.6642474359
    87 OT CG       0.73E-01    1.1     0.00000237     -1777.6642474434 -1.92E-07
     - OT LS       0.17E+00    0.6                    -1777.6642475841
    88 OT CG       0.17E+00    1.4     0.00000259     -1777.6642476136 -1.70E-07
     - OT LS       0.46E-01    0.6                    -1777.6642474106
    89 OT CG       0.46E-01    1.2     0.00000238     -1777.6642476390 -2.55E-08
     - OT LS       0.53E-01    0.6                    -1777.6642476993
    90 OT CG       0.53E-01    1.1     0.00000135     -1777.6642477033 -6.43E-08

  *** SCF run converged in    90 steps ***


  Electronic density on regular grids:       -639.9999999960        0.0000000040
  Core density on regular grids:              639.9999999997       -0.0000000003
  Total charge density on r-space grids:        0.0000000038
  Total charge density g-space grids:           0.0000000038

  Overlap energy of the core charge distribution:               0.00000455326393
  Self energy of the core charge distribution:              -4327.14948406036456
  Core Hamiltonian energy:                                   1145.50246136319720
  Hartree energy:                                            1753.12809218920688
  Exchange-correlation energy:                               -348.97541209897764
  Dispersion energy:                                           -0.16990964964982

  Total energy:                                             -1777.66424770332355

  outer SCF iter =    1 RMS gradient =   0.14E-05 energy =      -1777.6642477033
  outer SCF loop converged in   1 iterations or  179 steps


 ENERGY| Total FORCE_EVAL ( QS ) energy [hartree]          -1777.664247737613778

 OPT| **************************************************************************
 OPT| Step number                                                              0
 OPT| Optimization method                                                   BFGS
 OPT| Total energy [hartree]                                    -1777.6642477376
 OPT| Used time [s]                                                      248.880
 OPT| **************************************************************************
 OPT| Estimated peak process memory [MiB]                                    266

 --------------------------
 OPTIMIZATION STEP:      1
 --------------------------

 Extrapolation method: ASPC

 Number of electrons:                                                        640
 Number of occupied orbitals:                                                320
 Number of molecular orbitals:                                               320

 Number of orbital functions:                                               1264
 Number of independent orbital functions:                                   1264


 SCF WAVEFUNCTION OPTIMIZATION

  ----------------------------------- OT ---------------------------------------
  Minimizer      : CG                  : conjugate gradient
  Preconditioner : FULL_ALL            : diagonalization, state selective
  Precond_solver : DEFAULT
  Line search    : 2PNT                : 2 energies, one gradient
  stepsize       :    0.15000000                  energy_gap     :    0.00100000
  eps_taylor     :   0.10000E-15                  max_taylor     :             4
  ----------------------------------- OT ---------------------------------------

  Step     Update method      Time    Convergence         Total energy    Change
  ------------------------------------------------------------------------------
     1 OT CG       0.15E+00    2.9     0.00122384     -1777.6883417222 -1.78E+03
     - OT LS       0.20E+00    0.4                    -1777.7445886277
     2 OT CG       0.20E+00    0.9     0.00065442     -1777.7479675039 -5.96E-02
     - OT LS       0.97E-01    0.3                    -1777.7474190471
     3 OT CG       0.97E-01    0.7     0.00011877     -1777.7563596998 -8.39E-03
     - OT LS       0.11E+00    0.3                    -1777.7566758287
     4 OT CG       0.11E+00    0.6     0.00003449     -1777.7566835797 -3.24E-04
     - OT LS       0.12E+00    0.3                    -1777.7567131195
     5 OT CG       0.12E+00    0.6     0.00001531     -1777.7567127588 -2.92E-05
     - OT LS       0.48E+00    0.3                    -1777.7567176940
     6 OT CG       0.48E+00    0.6     0.00003851     -1777.7566847944  2.80E-05
     - OT LS       0.14E+00    0.3                    -1777.7564819472
     7 OT CG       0.14E+00    0.5     0.00001016     -1777.7567183847 -3.36E-05
     - OT LS       0.87E-01    0.3                    -1777.7567194688
     8 OT CG       0.87E-01    0.6     0.00000466     -1777.7567199425 -1.56E-06
     - OT LS       0.53E-01    0.3                    -1777.7567200827
     9 OT CG       0.53E-01    0.5     0.00000336     -1777.7567200726 -1.30E-07
     - OT LS       0.25E-01    0.3                    -1777.7567200513
    10 OT CG       0.25E-01    0.6     0.00000299     -1777.7567200701  2.47E-09
     - OT LS       0.10E-01    0.3                    -1777.7567200542
    11 OT CG       0.10E-01    0.6     0.00000286     -1777.7567200646  5.56E-09
     - OT LS       0.43E-02    0.3                    -1777.7567200572
    12 OT CG       0.43E-02    0.6     0.00000280     -1777.7567200617  2.84E-09
     - OT LS       0.17E-02    0.3                    -1777.7567200586
    13 OT CG       0.17E-02    0.6     0.00000278     -1777.7567200605  1.24E-09
     - OT LS       0.70E-03    0.3                    -1777.7567200592
    14 OT CG       0.70E-03    0.5     0.00000277     -1777.7567200600  5.13E-10
     - OT LS       0.28E-03    0.3                    -1777.7567200595
    15 OT CG       0.28E-03    0.5     0.00000277     -1777.7567200598  2.09E-10
     - OT LS       0.11E-03    0.3                    -1777.7567200596
    16 OT CG       0.11E-03    0.5     0.00000277     -1777.7567200597  8.50E-11
     - OT LS       0.46E-04    0.3                    -1777.7567200596
    17 OT CG       0.46E-04    0.5     0.00000277     -1777.7567200597  3.39E-11
     - OT LS       0.19E-04    0.3                    -1777.7567200596
    18 OT CG       0.19E-04    0.5     0.00000277     -1777.7567200596  1.43E-11
     - OT LS       0.75E-05    0.3                    -1777.7567200596
    19 OT CG       0.75E-05    0.5     0.00000277     -1777.7567200596  5.91E-12
     - OT LS       0.31E-05    0.3                    -1777.7567200596
    20 OT CG       0.31E-05    0.5     0.00000277     -1777.7567200596  1.82E-12
     - OT LS       0.12E-05    0.3                    -1777.7567200596
    21 OT CG       0.12E-05    0.5     0.00000277     -1777.7567200596  1.14E-12
     - OT LS       0.55E-06    0.3                    -1777.7567200596
    22 OT CG       0.55E-06    0.5     0.00000277     -1777.7567200596  6.82E-13
     - OT LS       0.26E-06    0.3                    -1777.7567200596
    23 OT CG       0.26E-06    0.5     0.00000277     -1777.7567200596 -4.55E-13
     - OT LS       0.11E-06    0.3                    -1777.7567200596
    24 OT CG       0.11E-06    0.5     0.00000277     -1777.7567200596  2.27E-13
     - OT LS       0.23E-06    0.3                    -1777.7567200596
    25 OT CG       0.23E-06    0.5     0.00000277     -1777.7567200596  2.27E-13
     - OT LS       0.17E-06    0.3                    -1777.7567200596
    26 OT CG       0.17E-06    0.5     0.00000277     -1777.7567200596  0.00E+00
     - OT LS       0.10E-06    0.3                    -1777.7567200596
    27 OT CG       0.10E-06    0.5     0.00000277     -1777.7567200596  4.55E-13
     - OT LS       0.20E-06    0.3                    -1777.7567200596
    28 OT CG       0.20E-06    0.5     0.00000277     -1777.7567200596  0.00E+00
     - OT LS       0.41E-06    0.3                    -1777.7567200596
    29 OT CG       0.41E-06    0.5     0.00000277     -1777.7567200596  2.27E-13
     - OT LS       0.14E-06    0.3                    -1777.7567200596
    30 OT CG       0.14E-06    0.5     0.00000277     -1777.7567200596  6.82E-13
     - OT LS       0.14E-06    0.3                    -1777.7567200596
    31 OT CG       0.14E-06    0.5     0.00000277     -1777.7567200596  0.00E+00
     - OT LS       0.13E-06    0.3                    -1777.7567200596
    32 OT CG       0.13E-06    0.5     0.00000277     -1777.7567200596  0.00E+00
     - OT LS       0.26E-06    0.3                    -1777.7567200596
    33 OT CG       0.26E-06    0.5     0.00000277     -1777.7567200596  0.00E+00
     - OT LS       0.15E-06    0.3                    -1777.7567200596
    34 OT CG       0.15E-06    0.5     0.00000277     -1777.7567200596 -2.27E-13
     - OT LS       0.30E-06    0.3                    -1777.7567200596
    35 OT CG       0.30E-06    0.5     0.00000277     -1777.7567200596  6.82E-13
     - OT LS       0.30E-06    0.3                    -1777.7567200596
    36 OT CG       0.30E-06    0.5     0.00000277     -1777.7567200596  4.55E-13
     - OT LS       0.30E-06    0.3                    -1777.7567200596
    37 OT CG       0.30E-06    0.5     0.00000277     -1777.7567200596 -4.55E-13
     - OT LS       0.16E-06    0.3                    -1777.7567200596
    38 OT CG       0.16E-06    0.5     0.00000277     -1777.7567200596 -4.55E-13
     - OT LS       0.32E-06    0.3                    -1777.7567200596
    39 OT CG       0.32E-06    0.5     0.00000277     -1777.7567200596  9.09E-13
     - OT LS       0.17E-06    0.3                    -1777.7567200596
    40 OT CG       0.17E-06    0.5     0.00000277     -1777.7567200596 -2.27E-13
     - OT LS       0.34E-06    0.3                    -1777.7567200596
    41 OT CG       0.34E-06    0.5     0.00000277     -1777.7567200596  4.55E-13
     - OT LS       0.20E-06    0.3                    -1777.7567200596
    42 OT CG       0.20E-06    0.5     0.00000277     -1777.7567200596  4.55E-13
     - OT LS       0.13E-06    0.3                    -1777.7567200596
    43 OT CG       0.13E-06    0.5     0.00000277     -1777.7567200596  2.27E-13
     - OT LS       0.53E-06    0.3                    -1777.7567200596
    44 OT CG       0.53E-06    0.5     0.00000277     -1777.7567200596  9.09E-13
     - OT LS       0.38E-06    0.3                    -1777.7567200596
    45 OT CG       0.38E-06    0.5     0.00000277     -1777.7567200596 -9.09E-13
     - OT LS       0.14E-06    0.3                    -1777.7567200596
    46 OT CG       0.14E-06    0.5     0.00000277     -1777.7567200596  4.55E-13
     - OT LS       0.28E-06    0.3                    -1777.7567200596
    47 OT CG       0.28E-06    0.5     0.00000277     -1777.7567200596  4.55E-13
     - OT LS       0.86E-07    0.3                    -1777.7567200596
    48 OT CG       0.86E-07    0.5     0.00000277     -1777.7567200596 -2.27E-13
     - OT LS       0.17E-06    0.3                    -1777.7567200596
    49 OT CG       0.17E-06    0.5     0.00000277     -1777.7567200596 -2.27E-13
     - OT LS       0.34E-06    0.3                    -1777.7567200596
    50 OT CG       0.34E-06    0.5     0.00000277     -1777.7567200596  9.09E-13
     - OT LS       0.16E-06    0.3                    -1777.7567200596
    51 OT CG       0.16E-06    0.5     0.00000277     -1777.7567200596 -6.82E-13
     - OT LS       0.32E-06    0.3                    -1777.7567200596
    52 OT CG       0.32E-06    0.5     0.00000277     -1777.7567200596  6.82E-13
     - OT LS       0.12E-06    0.3                    -1777.7567200596
    53 OT CG       0.12E-06    0.5     0.00000277     -1777.7567200596  2.27E-13
     - OT LS       0.24E-06    0.3                    -1777.7567200596
    54 OT CG       0.24E-06    0.5     0.00000277     -1777.7567200596  4.55E-13
     - OT LS       0.76E-07    0.3                    -1777.7567200596
    55 OT CG       0.76E-07    0.5     0.00000277     -1777.7567200596 -2.27E-13
     - OT LS       0.15E-06    0.3                    -1777.7567200596
    56 OT CG       0.15E-06    0.5     0.00000277     -1777.7567200596  0.00E+00
     - OT LS       0.30E-06    0.3                    -1777.7567200596
    57 OT CG       0.30E-06    0.5     0.00000277     -1777.7567200596  9.09E-13
     - OT LS       0.21E-06    0.3                    -1777.7567200596
    58 OT CG       0.21E-06    0.5     0.00000277     -1777.7567200596 -6.82E-13
     - OT LS       0.41E-06    0.3                    -1777.7567200596
    59 OT CG       0.41E-06    0.5     0.00000277     -1777.7567200596  6.82E-13
     - OT LS       0.15E-06    0.3                    -1777.7567200596
    60 OT CG       0.15E-06    0.5     0.00000277     -1777.7567200596  0.00E+00
     - OT LS       0.29E-06    0.3                    -1777.7567200596
    61 OT CG       0.29E-06    0.5     0.00000277     -1777.7567200596  2.27E-13
     - OT LS       0.12E-06    0.3                    -1777.7567200596
    62 OT CG       0.12E-06    0.5     0.00000277     -1777.7567200596  2.27E-13
     - OT LS       0.23E-06    0.3                    -1777.7567200596
    63 OT CG       0.23E-06    0.5     0.00000277     -1777.7567200596  0.00E+00
     - OT LS       0.46E-06    0.3                    -1777.7567200596
    64 OT CG       0.46E-06    0.5     0.00000277     -1777.7567200596  2.27E-13
     - OT LS       0.18E-06    0.3                    -1777.7567200596
    65 OT CG       0.18E-06    0.5     0.00000277     -1777.7567200596  0.00E+00
     - OT LS       0.37E-06    0.3                    -1777.7567200596
    66 OT CG       0.37E-06    0.5     0.00000277     -1777.7567200596  2.27E-13
     - OT LS       0.13E-06    0.3                    -1777.7567200596
    67 OT CG       0.13E-06    0.5     0.00000277     -1777.7567200596  2.27E-13
     - OT LS       0.26E-06    0.3                    -1777.7567200596
    68 OT CG       0.26E-06    0.5     0.00000277     -1777.7567200596  6.82E-13
     - OT LS       0.12E-06    0.3                    -1777.7567200596
    69 OT CG       0.12E-06    0.5     0.00000277     -1777.7567200596  0.00E+00
     - OT LS       0.23E-06    0.3                    -1777.7567200596
    70 OT CG       0.23E-06    0.5     0.00000277     -1777.7567200596 -2.27E-13
     - OT LS       0.46E-06    0.3                    -1777.7567200596
    71 OT CG       0.46E-06    0.5     0.00000277     -1777.7567200596  6.82E-13
     - OT LS       0.21E-06    0.3                    -1777.7567200596
    72 OT CG       0.21E-06    0.5     0.00000277     -1777.7567200596  2.27E-13
     - OT LS       0.42E-06    0.3                    -1777.7567200596
    73 OT CG       0.42E-06    0.5     0.00000277     -1777.7567200596 -2.27E-13
     - OT LS       0.98E-07    0.3                    -1777.7567200596
    74 OT CG       0.98E-07    0.5     0.00000277     -1777.7567200596  0.00E+00
     - OT LS       0.20E-06    0.3                    -1777.7567200596
    75 OT CG       0.20E-06    0.5     0.00000277     -1777.7567200596  6.82E-13
     - OT LS       0.39E-06    0.3                    -1777.7567200596
    76 OT CG       0.39E-06    0.5     0.00000277     -1777.7567200596 -2.27E-13
     - OT LS       0.15E-06    0.3                    -1777.7567200596
    77 OT CG       0.15E-06    0.5     0.00000277     -1777.7567200596  2.27E-13
     - OT LS       0.30E-06    0.3                    -1777.7567200596
    78 OT CG       0.30E-06    0.5     0.00000277     -1777.7567200596  6.82E-13
     - OT LS       0.15E-06    0.3                    -1777.7567200596
    79 OT CG       0.15E-06    0.5     0.00000277     -1777.7567200596 -2.27E-13
     - OT LS       0.31E-06    0.3                    -1777.7567200596
    80 OT CG       0.31E-06    0.5     0.00000277     -1777.7567200596  2.27E-13
     - OT LS       0.11E-06    0.3                    -1777.7567200596
    81 OT CG       0.11E-06    0.5     0.00000277     -1777.7567200596  0.00E+00
     - OT LS       0.42E-06    0.3                    -1777.7567200596
    82 OT CG       0.42E-06    0.5     0.00000277     -1777.7567200596  4.55E-13
     - OT LS       0.15E-06    0.3                    -1777.7567200596
    83 OT CG       0.15E-06    0.5     0.00000277     -1777.7567200596  4.55E-13
     - OT LS       0.16E-06    0.3                    -1777.7567200596
    84 OT CG       0.16E-06    0.5     0.00000277     -1777.7567200596 -2.27E-13
     - OT LS       0.63E-06    0.3                    -1777.7567200596
    85 OT CG       0.63E-06    0.5     0.00000277     -1777.7567200596  6.82E-13
     - OT LS       0.24E-06    0.3                    -1777.7567200596
    86 OT CG       0.24E-06    0.5     0.00000277     -1777.7567200596 -2.27E-13
     - OT LS       0.48E-06    0.2                    -1777.7567200596
    87 OT CG       0.48E-06    0.5     0.00000277     -1777.7567200596  4.55E-13
     - OT LS       0.16E-06    0.3                    -1777.7567200596
    88 OT CG       0.16E-06    0.5     0.00000277     -1777.7567200596 -2.27E-13
     - OT LS       0.32E-06    0.3                    -1777.7567200596
    89 OT CG       0.32E-06    0.5     0.00000277     -1777.7567200596  6.82E-13
     - OT LS       0.98E-07    0.2                    -1777.7567200596
    90 OT CG       0.98E-07    0.5     0.00000277     -1777.7567200596  2.27E-13
     - OT LS       0.20E-06    0.3                    -1777.7567200596
    91 OT CG       0.20E-06    0.5     0.00000277     -1777.7567200596  0.00E+00
     - OT LS       0.87E-07    0.3                    -1777.7567200596
    92 OT CG       0.87E-07    0.5     0.00000277     -1777.7567200596  0.00E+00
     - OT LS       0.17E-06    0.2                    -1777.7567200596
    93 OT CG       0.17E-06    0.5     0.00000277     -1777.7567200596  0.00E+00
     - OT LS       0.35E-06    0.3                    -1777.7567200596
    94 OT CG       0.35E-06    0.5     0.00000277     -1777.7567200596  0.00E+00
     - OT LS       0.12E-06    0.2                    -1777.7567200596
    95 OT CG       0.12E-06    0.5     0.00000277     -1777.7567200596  6.82E-13
     - OT LS       0.95E-07    0.3                    -1777.7567200596
    96 OT CG       0.95E-07    0.5     0.00000277     -1777.7567200596 -4.55E-13
     - OT LS       0.19E-06    0.3                    -1777.7567200596
    97 OT CG       0.19E-06    0.5     0.00000277     -1777.7567200596  6.82E-13
     - OT LS       0.38E-06    0.3                    -1777.7567200596
    98 OT CG       0.38E-06    0.5     0.00000277     -1777.7567200596  4.55E-13
     - OT LS       0.20E-06    0.3                    -1777.7567200596
    99 OT CG       0.20E-06    0.5     0.00000277     -1777.7567200596  0.00E+00
     - OT LS       0.13E-06    0.3                    -1777.7567200596
   100 OT CG       0.13E-06    0.5     0.00000277     -1777.7567200596 -2.27E-13
     - OT LS       0.26E-06    0.3                    -1777.7567200596
   101 OT CG       0.26E-06    0.5     0.00000277     -1777.7567200596  2.27E-13
     - OT LS       0.79E-07    0.3                    -1777.7567200596
   102 OT CG       0.79E-07    0.5     0.00000277     -1777.7567200596  2.27E-13
     - OT LS       0.32E-06    0.3                    -1777.7567200596
   103 OT CG       0.32E-06    0.5     0.00000277     -1777.7567200596 -2.27E-13
     - OT LS       0.98E-07    0.3                    -1777.7567200596
   104 OT CG       0.98E-07    0.5     0.00000277     -1777.7567200596  4.55E-13
     - OT LS       0.20E-06    0.3                    -1777.7567200596
   105 OT CG       0.20E-06    0.5     0.00000277     -1777.7567200596  4.55E-13
     - OT LS       0.26E-06    0.3                    -1777.7567200596
   106 OT CG       0.26E-06    0.5     0.00000277     -1777.7567200596  0.00E+00
     - OT LS       0.11E-06    0.3                    -1777.7567200596
   107 OT CG       0.11E-06    0.5     0.00000277     -1777.7567200596 -2.27E-13
     - OT LS       0.23E-06    0.3                    -1777.7567200596
   108 OT CG       0.23E-06    0.5     0.00000277     -1777.7567200596 -2.27E-13
     - OT LS       0.46E-06    0.3                    -1777.7567200596
   109 OT CG       0.46E-06    0.5     0.00000277     -1777.7567200596  1.14E-12
     - OT LS       0.29E-06    0.3                    -1777.7567200596
   110 OT CG       0.29E-06    0.5     0.00000277     -1777.7567200596 -2.27E-13
     - OT LS       0.92E-07    0.3                    -1777.7567200596
   111 OT CG       0.92E-07    0.5     0.00000277     -1777.7567200596  2.27E-13
     - OT LS       0.18E-06    0.3                    -1777.7567200596
   112 OT CG       0.18E-06    0.5     0.00000277     -1777.7567200596  2.27E-13
     - OT LS       0.37E-06    0.3                    -1777.7567200596
   113 OT CG       0.37E-06    0.5     0.00000277     -1777.7567200596  6.82E-13
     - OT LS       0.23E-06    0.3                    -1777.7567200596
   114 OT CG       0.23E-06    0.5     0.00000277     -1777.7567200596 -4.55E-13
     - OT LS       0.92E-07    0.3                    -1777.7567200596
   115 OT CG       0.92E-07    0.5     0.00000277     -1777.7567200596  0.00E+00
     - OT LS       0.37E-06    0.2                    -1777.7567200596
   116 OT CG       0.37E-06    0.5     0.00000277     -1777.7567200596  6.82E-13
     - OT LS       0.15E-06    0.3                    -1777.7567200596
   117 OT CG       0.15E-06    0.5     0.00000277     -1777.7567200596 -4.55E-13
     - OT LS       0.31E-06    0.3                    -1777.7567200596
   118 OT CG       0.31E-06    0.5     0.00000277     -1777.7567200596  4.55E-13
     - OT LS       0.16E-06    0.2                    -1777.7567200596
   119 OT CG       0.16E-06    0.5     0.00000277     -1777.7567200596  0.00E+00
     - OT LS       0.32E-06    0.2                    -1777.7567200596
   120 OT CG       0.32E-06    0.5     0.00000277     -1777.7567200596  4.55E-13
     - OT LS       0.11E-06    0.3                    -1777.7567200596
   121 OT CG       0.11E-06    0.5     0.00000277     -1777.7567200596  0.00E+00
     - OT LS       0.23E-06    0.2                    -1777.7567200596
   122 OT CG       0.23E-06    0.5     0.00000277     -1777.7567200596  2.27E-13
     - OT LS       0.90E-07    0.3                    -1777.7567200596
   123 OT CG       0.90E-07    0.5     0.00000277     -1777.7567200596 -2.27E-13
     - OT LS       0.18E-06    0.3                    -1777.7567200596
   124 OT CG       0.18E-06    0.5     0.00000277     -1777.7567200596  4.55E-13
     - OT LS       0.36E-06    0.2                    -1777.7567200596
   125 OT CG       0.36E-06    0.5     0.00000277     -1777.7567200596  2.27E-13
     - OT LS       0.15E-06    0.2                    -1777.7567200596
   126 OT CG       0.15E-06    0.5     0.00000277     -1777.7567200596  2.27E-13
     - OT LS       0.29E-06    0.3                    -1777.7567200596
   127 OT CG       0.29E-06    0.5     0.00000277     -1777.7567200596  4.55E-13
     - OT LS       0.14E-06    0.3                    -1777.7567200596
   128 OT CG       0.14E-06    0.5     0.00000277     -1777.7567200596 -2.27E-13
     - OT LS       0.29E-06    0.3                    -1777.7567200596
   129 OT CG       0.29E-06    0.5     0.00000277     -1777.7567200596  2.27E-13
     - OT LS       0.14E-06    0.2                    -1777.7567200596
   130 OT CG       0.14E-06    0.5     0.00000277     -1777.7567200596  4.55E-13
     - OT LS       0.57E-06    0.2                    -1777.7567200596
   131 OT CG       0.57E-06    0.5     0.00000277     -1777.7567200596  2.27E-13
     - OT LS       0.22E-06    0.3                    -1777.7567200596
   132 OT CG       0.22E-06    0.5     0.00000277     -1777.7567200596 -2.27E-13
     - OT LS       0.44E-06    0.3                    -1777.7567200596
   133 OT CG       0.44E-06    0.5     0.00000277     -1777.7567200596  2.27E-13
     - OT LS       0.14E-06    0.2                    -1777.7567200596
   134 OT CG       0.14E-06    0.5     0.00000277     -1777.7567200596  4.55E-13
     - OT LS       0.29E-06    0.2                    -1777.7567200596
   135 OT CG       0.29E-06    0.5     0.00000277     -1777.7567200596  6.82E-13
     - OT LS       0.19E-06    0.2                    -1777.7567200596
   136 OT CG       0.19E-06    0.5     0.00000277     -1777.7567200596 -2.27E-13
     - OT LS       0.37E-06    0.3                    -1777.7567200596
   137 OT CG       0.37E-06    0.5     0.00000277     -1777.7567200596  0.00E+00
     - OT LS       0.12E-06    0.3                    -1777.7567200596
   138 OT CG       0.12E-06    0.5     0.00000277     -1777.7567200596  6.82E-13
     - OT LS       0.47E-06    0.3                    -1777.7567200596
   139 OT CG       0.47E-06    0.5     0.00000277     -1777.7567200596 -2.27E-13
     - OT LS       0.17E-06    0.2                    -1777.7567200596
   140 OT CG       0.17E-06    0.5     0.00000277     -1777.7567200596  4.55E-13
     - OT LS       0.34E-06    0.3                    -1777.7567200596
   141 OT CG       0.34E-06    0.5     0.00000277     -1777.7567200596  4.55E-13
     - OT LS       0.13E-06    0.3                    -1777.7567200596
   142 OT CG       0.13E-06    0.5     0.00000277     -1777.7567200596  2.27E-13
     - OT LS       0.11E-06    0.3                    -1777.7567200596
   143 OT CG       0.11E-06    0.5     0.00000277     -1777.7567200596 -4.55E-13
     - OT LS       0.85E-07    0.2                    -1777.7567200596
   144 OT CG       0.85E-07    0.5     0.00000277     -1777.7567200596  2.27E-13
     - OT LS       0.17E-06    0.2                    -1777.7567200596
   145 OT CG       0.17E-06    0.5     0.00000277     -1777.7567200596  2.27E-13
     - OT LS       0.99E-07    0.3                    -1777.7567200596
   146 OT CG       0.99E-07    0.5     0.00000277     -1777.7567200596 -4.55E-13
     - OT LS       0.20E-06    0.2                    -1777.7567200596
   147 OT CG       0.20E-06    0.5     0.00000277     -1777.7567200596  4.55E-13
     - OT LS       0.89E-07    0.2                    -1777.7567200596
   148 OT CG       0.89E-07    0.5     0.00000277     -1777.7567200596  0.00E+00
     - OT LS       0.18E-06    0.3                    -1777.7567200596
