      96
 i =        1, E =     -1777.7567217251
 Ca         2.2311556095        0.0000006879        2.2267258229
 Ca         4.1519294563       -0.0000004834        5.6809532719
 Ca         5.4253057256        3.5254672948        2.2266759926
 Ca         0.9596485988        3.5251006581        5.6808681762
  S         1.0622796689       -0.0000047479        5.7243671019
  S         5.3221857210       -0.0000013572        2.1870661039
  S         4.2529627533        3.5267469518        5.7235986663
  S         2.1338690201        3.5287334102        2.1883098176
  O         0.1724874759        5.8745532912        5.7083767143
  O         6.2186449594        5.8784419672        2.2209527103
  O         6.2163567756        1.1766686923        2.2086382161
  O         0.1665542192        1.1756593133        5.7089475321
  O         3.3641929359        2.3452238280        5.7109834277
  O         3.0187138014        2.3444432897        2.2049276954
  O         3.0291257411        4.7057895330        2.2265201497
  O         3.3588517636        4.7039222239        5.7043012391
  O         1.9726236637        0.0000124466        6.9033789674
  O         4.4114876065       -0.0000044234        1.0083867350
  O         1.9250140150        0.0000011054        4.4970235252
  O         4.4587567213        0.0000147327        3.4132571383
  O         5.1635609948        3.5372788919        6.9024131104
  O         1.2265110170        3.5384231582        1.0066174356
  O         5.1170707422        3.5286676707        4.4971903394
  O         1.2667396164        3.5295424908        3.4119496372
 Ca         2.2350738847        7.0568648678        2.2264931630
 Ca         4.1512557335        7.0568727092        5.6806444107
 Ca         5.4253087613       10.5882692596        2.2266807126
 Ca         0.9596460467       10.5886424256        5.6808603415
  S         1.0604367484        7.0568735269        5.7245163609
  S         5.3258405421        7.0568729869        2.1888871119
  S         4.2529633936       10.5869870234        5.7235980078
  S         2.1338698009       10.5849986899        2.1883103577
  O         0.1665529025       12.9380741600        5.7089639730
  O         6.2163543414       12.9370677033        2.2086413704
  O         6.2186457752        8.2353017487        2.2209517464
  O         0.1724795108        8.2391885846        5.7083738907
  O         3.3588462252        9.4098166025        5.7042871813
  O         3.0291287573        9.4079450981        2.2265104579
  O         3.0187057241       11.7692935263        2.2049369439
  O         3.3642077559       11.7685194218        5.7110036684
  O         1.9698986230        7.0568618232        6.9042932580
  O         4.4204711864        7.0568729450        1.0056010560
  O         1.9259011488        7.0568667675        4.4989609404
  O         4.4548013677        7.0568695681        3.4094702946
  O         5.1635649799       10.5764536534        6.9024126195
  O         1.2265115481       10.5753316438        1.0066179887
  O         5.1170680980       10.5850838618        4.4971864626
  O         1.2667367519       10.5842040304        3.4119491143
 Ca         8.6153685523       -0.0000016586        2.2267319483
 Ca        10.5361455640       -0.0000051625        5.6809399880
 Ca        11.8095039545        3.5254628681        2.2266800932
 Ca         7.3438559950        3.5250899711        5.6808603573
  S         7.4464988120        0.0000005687        5.7243735243
  S        11.7064000462       -0.0000006962        2.1870695378
  S        10.6371762686        3.5267473472        5.7235887050
  S         8.5180813070        3.5287348667        2.1883126845
  O         6.5566857630        5.8745548056        5.7083776223
  O        12.6028627064        5.8784428946        2.2209564691
  O        12.6005666212        1.1766716073        2.2086394470
  O         6.5507668070        1.1756599315        5.7089560143
  O         9.7484087674        2.3452230824        5.7110010808
  O         9.4029182287        2.3444393235        2.2049202158
  O         9.4133384524        4.7057893473        2.2265131210
  O         9.7430648247        4.7039214471        5.7043088272
  O         8.3568348806       -0.0000107914        6.9033906034
  O        10.7956906551        0.0000032069        1.0083984588
  O         8.3092120636        0.0000099150        4.4970183672
  O        10.8429660411        0.0000005229        3.4132560405
  O        11.5477673095        3.5372854986        6.9024113754
  O         7.6107012514        3.5384193956        1.0066381750
  O        11.5012879091        3.5286677595        4.4971824383
  O         7.6509502477        3.5295361969        3.4119527979
 Ca         8.6192792533        7.0568734305        2.2264997291
 Ca        10.5354687371        7.0568715900        5.6806448107
 Ca        11.8095186327       10.5882791892        2.2266825440
 Ca         7.3438644374       10.5886399221        5.6808608392
  S         7.4446463253        7.0568666768        5.7245166039
  S        11.7100490528        7.0568669915        2.1888911307
  S        10.6371807732       10.5869931794        5.7235960758
  S         8.5180773005       10.5849998475        2.1883118854
  O         6.5507609801       12.9380834195        5.7089434517
  O        12.6005645037       12.9370639125        2.2086378496
  O        12.6028528253        8.2352982361        2.2209518730
  O         6.5566970531        8.2391874396        5.7083708670
  O         9.7430633203        9.4098208396        5.7042953680
  O         9.4133475558        9.4079526711        2.2265206247
  O         9.4029123695       11.7692947446        2.2049207186
  O         9.7484109561       11.7685163084        5.7110029735
  O         8.3541124337        7.0568729695        6.9042926611
  O        10.8046938356        7.0568781839        1.0055932127
  O         8.3101095480        7.0568692194        4.4989621439
  O        10.8390051797        7.0568656460        3.4094673264
  O        11.5477724992       10.5764526810        6.9024190901
  O         7.6107119001       10.5753286761        1.0066267604
  O        11.5012657857       10.5850722783        4.4971722181
  O         7.6509491617       10.5841987096        3.4119547622
      96
 i =        2, E =     -1777.7813129625
 Ca         2.2478244977       -0.0000009484        2.2634276810
 Ca         4.1351979803       -0.0000008039        5.6511988255
 Ca         5.4465687128        3.5257784334        2.2647202412
 Ca         0.9401442127        3.5260226206        5.6504191145
  S         1.0634440182        0.0000043774        5.7239931637
  S         5.3185374130        0.0000018884        2.1892313321
  S         4.2578195006        3.5345766904        5.7220062868
  S         2.1286488446        3.5352675184        2.1937484203
  O         0.1624357755        5.8658540947        5.7145008171
  O         6.2306087766        5.8679060010        2.2089286193
  O         6.2235789468        1.1901800588        2.1964948495
  O         0.1592673376        1.1909977890        5.7196779987
  O         3.3554422595        2.3420764686        5.7163020020
  O         3.0301154022        2.3421639324        2.2003996887
  O         3.0426981676        4.7204342214        2.2134204101
  O         3.3459495538        4.7208531758        5.7116253273
  O         2.0041864035        0.0000079885        6.8720454963
  O         4.3859118047       -0.0000057231        1.0346765866
  O         1.9420094193       -0.0000052188        4.5006691380
  O         4.4368150305        0.0000182871        3.4095790568
  O         5.1927282011        3.5387790939        6.8747813329
  O         1.2020524100        3.5420543338        1.0338072302
  O         5.1413366000        3.5260129285        4.5017602059
  O         1.2406991503        3.5256837513        3.4101820128
 Ca         2.2554589659        7.0568625375        2.2675324330
 Ca         4.1289026412        7.0568687314        5.6470565904
 Ca         5.4465714111       10.5879599587        2.2647233031
 Ca         0.9401433362       10.5877179639        5.6504122716
  S         1.0679149894        7.0568684026        5.7209104932
  S         5.3227704997        7.0568734413        2.2033638770
  S         4.2578226503       10.5791637894        5.7220044893
  S         2.1286477163       10.5784751127        2.1937488287
  O         0.1592743190       12.9227481515        5.7196905786
  O         6.2235704133       12.9235585435        2.1965064909
  O         6.2306092589        8.2458394419        2.2089306768
  O         0.1624355114        8.2478830359        5.7144996829
  O         3.3459437139        9.3928939739        5.7116071426
  O         3.0426969905        9.3933098585        2.2134201803
  O         3.0301140305       11.7715780178        2.2004032627
  O         3.3554492602       11.7716666734        5.7163117744
  O         2.0017021213        7.0568648448        6.8743533386
  O         4.3794525940        7.0568809112        1.0572617175
  O         1.9528514200        7.0568734861        4.5014785832
  O         4.4264141444        7.0568728104        3.4134923798
  O         5.1927325108       10.5749459276        6.8747804025
  O         1.2020486615       10.5716810865        1.0338096486
  O         5.1413374756       10.5877345988        4.5017568159
  O         1.2406977356       10.5880542622        3.4101843792
 Ca         8.6320258772       -0.0000037053        2.2634347121
 Ca        10.5194116791       -0.0000026764        5.6511986899
 Ca        11.8307727171        3.5257784788        2.2647179304
 Ca         7.3243450580        3.5260138256        5.6504193552
  S         7.4476527138       -0.0000018315        5.7239956291
  S        11.7027424735        0.0000020814        2.1892330008
  S        10.6420354633        3.5345784874        5.7220084549
  S         8.5128526995        3.5352635612        2.1937523487
  O         6.5466398260        5.8658602725        5.7145010194
  O        12.6148218962        5.8679057943        2.2089320206
  O        12.6077859053        1.1901780970        2.1965026370
  O         6.5434855943        1.1909986184        5.7196977387
  O         9.7396586413        2.3420778898        5.7163002904
  O         9.4143240580        2.3421630474        2.2004010262
  O         9.4269079676        4.7204249366        2.2134179877
  O         9.7301656576        4.7208547418        5.7116238316
  O         8.3883916915       -0.0000113462        6.8720491541
  O        10.7701178719        0.0000050244        1.0346781270
  O         8.3262162530        0.0000132700        4.5006738313
  O        10.8210307673       -0.0000000122        3.4095882910
  O        11.5769520855        3.5387796917        6.8747800027
  O         7.5862591812        3.5420453472        1.0338109272
  O        11.5255443593        3.5260109400        4.5017566896
  O         7.6249150436        3.5256817334        3.4101959426
 Ca         8.6396661212        7.0568717930        2.2675379030
 Ca        10.5131161945        7.0568693937        5.6470548916
 Ca        11.8307830037       10.5879609274        2.2647192797
 Ca         7.3243569990       10.5877181789        5.6504151884
  S         7.4521254535        7.0568696021        5.7209103613
  S        11.7069829576        7.0568731658        2.2033678132
  S        10.6420288752       10.5791605563        5.7220069955
  S         8.5128578116       10.5784736946        2.1937508774
  O         6.5434807108       12.9227392900        5.7196808276
  O        12.6077827925       12.9235624740        2.1965027183
  O        12.6148207200        8.2458413023        2.2089385284
  O         6.5466486757        8.2478866656        5.7144981345
  O         9.7301578279        9.3928827597        5.7116206738
  O         9.4269177704        9.3933137657        2.2134167980
  O         9.4143200624       11.7715794688        2.2004029057
  O         9.7396580922       11.7716659132        5.7163099271
  O         8.3859076098        7.0568705495        6.8743586565
  O        10.7636602378        7.0568941196        1.0572693555
  O         8.3370581914        7.0568662132        4.5014769120
  O        10.8106237431        7.0568661698        3.4134907099
  O        11.5769466885       10.5749589563        6.8747772435
  O         7.5862594557       10.5716804200        1.0338134232
  O        11.5255332692       10.5877240974        4.5017556305
  O         7.6249137158       10.5880502147        3.4101900150
      96
 i =        3, E =     -1777.7858428114
 Ca         2.2428392321        0.0000006402        2.2528687685
 Ca         4.1398989619       -0.0000004210        5.6601812000
 Ca         5.4409417668        3.5232685026        2.2533637658
 Ca         0.9457411732        3.5243212646        5.6616455562
  S         1.0671978261        0.0000022998        5.7291671146
  S         5.3172427863        0.0000046376        2.1856120068
  S         4.2561613388        3.5345613527        5.7274276123
  S         2.1334268974        3.5339090314        2.1907432719
  O         0.1634773798        5.8563089271        5.7157428367
  O         6.2286522260        5.8596956741        2.2048609977
  O         6.2228696031        1.1956487138        2.2000304199
  O         0.1606893315        1.1951596042        5.7171136607
  O         3.3556142092        2.3348508312        5.7172544145
  O         3.0320630319        2.3329066568        2.2014832735
  O         3.0459306927        4.7261181534        2.2060759990
  O         3.3452733587        4.7276290286        5.7166400897
  O         2.0007126693        0.0000062294        6.8790094807
  O         4.3855191927        0.0000014715        1.0343821203
  O         1.9416825478       -0.0000069590        4.4990664600
  O         4.4414935356        0.0000278103        3.4141595769
  O         5.1893251965        3.5448946316        6.8776402749
  O         1.2040354908        3.5463503196        1.0373457648
  O         5.1362716371        3.5256951224        4.5006015163
  O         1.2467489120        3.5232496570        3.4124179742
 Ca         2.2534547502        7.0568697287        2.2569436756
 Ca         4.1340159300        7.0568706112        5.6655898968
 Ca         5.4409432655       10.5904704813        2.2533646421
 Ca         0.9457408853       10.5894184805        5.6616451427
  S         1.0646350228        7.0568674553        5.7299897300
  S         5.3228881864        7.0568745154        2.1929866671
  S         4.2561621314       10.5791791630        5.7274270386
  S         2.1334260517       10.5798313045        2.1907434282
  O         0.1606950078       12.9185822706        5.7171216115
  O         6.2228492190       12.9180869304        2.2000452133
  O         6.2286562933        8.2540497957        2.2048660100
  O         0.1634776934        8.2574268616        5.7157452825
  O         3.3452661586        9.3861165780        5.7166343740
  O         3.0459300180        9.3876232777        2.2060782661
  O         3.0320592959       11.7808351958        2.2014833549
  O         3.3556201286       11.7788936030        5.7172577238
  O         2.0056060424        7.0568629490        6.8744443940
  O         4.3857712061        7.0568852652        1.0448054395
  O         1.9466352874        7.0568712361        4.5053086600
  O         4.4453612703        7.0568713157        3.4215137402
  O         5.1893247268       10.5688429705        6.8776411696
  O         1.2040351793       10.5673900262        1.0373455549
  O         5.1362728452       10.5880482396        4.5006019565
  O         1.2467490212       10.5904896954        3.4124206334
 Ca         8.6270448221       -0.0000019314        2.2528727714
 Ca        10.5241133288       -0.0000011128        5.6601831845
 Ca        11.8251500920        3.5232693161        2.2533623525
 Ca         7.3299440216        3.5243160949        5.6616525236
  S         7.4514092826        0.0000004963        5.7291701903
  S        11.7014497662        0.0000021512        2.1856142277
  S        10.6403825141        3.5345624962        5.7274290508
  S         8.5176352935        3.5339066319        2.1907476918
  O         6.5476775001        5.8563162884        5.7157422327
  O        12.6128591810        5.8596990867        2.2048588183
  O        12.6070695116        1.1956510094        2.2000381418
  O         6.5449050418        1.1951614244        5.7171298788
  O         9.7398322809        2.3348536420        5.7172556885
  O         9.4162701019        2.3329024909        2.2014865020
  O         9.4301395044        4.7261151790        2.2060742405
  O         9.7294979257        4.7276325037        5.7166420618
  O         8.3849175108       -0.0000078362        6.8790158142
  O        10.7697266910        0.0000030781        1.0343849228
  O         8.3258900076        0.0000178762        4.4990693208
  O        10.8257046536        0.0000002882        3.4141643520
  O        11.5735517368        3.5448907178        6.8776389650
  O         7.5882451014        3.5463506029        1.0373508363
  O        11.5204843464        3.5256974136        4.5005979958
  O         7.6309614262        3.5232497006        3.4124261497
 Ca         8.6376653328        7.0568718173        2.2569458865
 Ca        10.5182286301        7.0568691827        5.6655903673
 Ca        11.8251556588       10.5904710757        2.2533624340
 Ca         7.3299517665       10.5894167099        5.6616487314
  S         7.4488423455        7.0568701842        5.7299900136
  S        11.7070948996        7.0568785167        2.1929880012
  S        10.6403781599       10.5791772904        5.7274256326
  S         8.5176366316       10.5798313904        2.1907456419
  O         6.5449025650       12.9185798979        5.7171131573
  O        12.6070654173       12.9180894544        2.2000377453
  O        12.6128677506        8.2540516006        2.2048729534
  O         6.5476914746        8.2574347933        5.7157437809
  O         9.7294841544        9.3861116265        5.7166422410
  O         9.4301507879        9.3876283968        2.2060730381
  O         9.4162638751       11.7808399141        2.2014872598
  O         9.7398301920       11.7788885680        5.7172567765
  O         8.3898085699        7.0568665187        6.8744485526
  O        10.7699876223        7.0569035641        1.0447994036
  O         8.3308431449        7.0568663331        4.5053103366
  O        10.8295747783        7.0568677401        3.4215183810
  O        11.5735424204       10.5688456589        6.8776385602
  O         7.5882486635       10.5673883462        1.0373474259
  O        11.5204783357       10.5880410710        4.5005958960
  O         7.6309636109       10.5904814699        3.4124249610
      96
 i =        4, E =     -1777.7886599684
 Ca         2.2337557601        0.0000025550        2.2512225600
 Ca         4.1505365732        0.0000003500        5.6638911178
 Ca         5.4366042858        3.5239408733        2.2507135636
 Ca         0.9525397461        3.5242874475        5.6659735012
  S         1.0700488435       -0.0000020526        5.7307125905
  S         5.3143748534        0.0000103995        2.1856938117
  S         4.2558295194        3.5310550013        5.7305065507
  S         2.1352400937        3.5287584443        2.1886839055
  O         0.1693353304        5.8532086374        5.7252802540
  O         6.2308795309        5.8531222452        2.1972086712
  O         6.2214846692        1.1986788604        2.1997171733
  O         0.1628037547        1.1985584718        5.7177753913
  O         3.3543956489        2.3275882722        5.7224458216
  O         3.0358636325        2.3245355003        2.1972489833
  O         3.0526488922        4.7217678312        2.1978197563
  O         3.3414237015        4.7257275625        5.7193041811
  O         1.9931252553        0.0000012926        6.8847557491
  O         4.3908524377        0.0000074837        1.0320425047
  O         1.9457187611       -0.0000096112        4.4993206585
  O         4.4396735002        0.0000428086        3.4173488529
  O         5.1797856522        3.5437039324        6.8841212399
  O         1.2126851264        3.5429422457        1.0341481802
  O         5.1321367142        3.5252254818        4.4982670850
  O         1.2542466893        3.5208092404        3.4179160040
 Ca         2.2494061533        7.0568732353        2.2563702874
 Ca         4.1373960459        7.0568708969        5.6677295808
 Ca         5.4366047007       10.5897988111        2.2507153746
 Ca         0.9525401503       10.5894523573        5.6659760844
  S         1.0724594619        7.0568672397        5.7334121981
  S         5.3272314318        7.0568767114        2.1883563041
  S         4.2558282015       10.5826867085        5.7305085757
  S         2.1352388275       10.5849825622        2.1886852382
  O         0.1628053117       12.9151768016        5.7177771651
  O         6.2214469003       12.9150562743        2.1997286870
  O         6.2308950222        8.2606197561        2.1972156911
  O         0.1693386307        8.2605291872        5.7252838048
  O         3.3414153382        9.3880174767        5.7193138156
  O         3.0526472396        9.3919733357        2.1978221518
  O         3.0358593826       11.7892077191        2.1972491348
  O         3.3544007988       11.7861589828        5.7224464330
  O         2.0041061331        7.0568580873        6.8819415873
  O         4.3944767714        7.0569044212        1.0399678019
  O         1.9448602749        7.0568684618        4.4990667042
  O         4.4537775713        7.0568733731        3.4220965441
  O         5.1797828589       10.5700369044        6.8841236860
  O         1.2126875295       10.5707989438        1.0341470356
  O         5.1321345398       10.5885120967        4.4982693151
  O         1.2542468066       10.5929318866        3.4179191403
 Ca         8.6179635514        0.0000004007        2.2512261767
 Ca        10.5347505681        0.0000004500        5.6638924374
 Ca        11.8208134788        3.5239426785        2.2507114697
 Ca         7.3367408720        3.5242858195        5.6659784830
  S         7.4542611154        0.0000059773        5.7307165588
  S        11.6985817252        0.0000018007        2.1856942052
  S        10.6400583312        3.5310562399        5.7305072827
  S         8.5194490913        3.5287587442        2.1886878447
  O         6.5535271472        5.8532177805        5.7252744525
  O        12.6150816212        5.8531215791        2.1972033518
  O        12.6056752641        1.1986819029        2.1997205929
  O         6.5470123032        1.1985650128        5.7177827985
  O         9.7386180559        2.3275933583        5.7224495132
  O         9.4200688503        2.3245320256        2.1972525580
  O         9.4368584408        4.7217687293        2.1978215185
  O         9.7256627732        4.7257356619        5.7193026545
  O         8.3773325495       -0.0000013601        6.8847618760
  O        10.7750617027        0.0000053008        1.0320421641
  O         8.3299278824        0.0000289286        4.4993245176
  O        10.8238825950        0.0000015595        3.4173501787
  O        11.5640120413        3.5437022479        6.8841236979
  O         7.5968961575        3.5429439064        1.0341516603
  O        11.5163552560        3.5252275039        4.4982626546
  O         7.6384598255        3.5208133900        3.4179227761
 Ca         8.6336181129        7.0568718015        2.2563714110
 Ca        10.5216095031        7.0568698763        5.6677304967
 Ca        11.8208172960       10.5898010430        2.2507142487
 Ca         7.3367488681       10.5894513050        5.6659781918
  S         7.4566658652        7.0568680390        5.7334108973
  S        11.7114435999        7.0568843627        2.1883562579
  S        10.6400489669       10.5826842403        5.7305051791
  S         8.5194497748       10.5849818874        2.1886878543
  O         6.5470173599       12.9151826784        5.7177714783
  O        12.6056704087       12.9150577401        2.1997203644
  O        12.6151137782        8.2606234134        2.1972221548
  O         6.5535543627        8.2605370204        5.7252845748
  O         9.7256376283        9.3880132171        5.7193080436
  O         9.4368695786        9.3919784457        2.1978193987
  O         9.4200605840       11.7892144856        2.1972551855
  O         9.7386144998       11.7861524533        5.7224448962
  O         8.3883062130        7.0568563359        6.8819441403
  O        10.7786977848        7.0569448498        1.0399619545
  O         8.3290673954        7.0568682873        4.4990663581
  O        10.8379902156        7.0568691046        3.4220954500
  O        11.5640014869       10.5700348986        6.8841216636
  O         7.5969013646       10.5707975836        1.0341487461
  O        11.5163468850       10.5885091179        4.4982627354
  O         7.6384618631       10.5929175216        3.4179237952
      96
 i =        5, E =     -1777.7899222751
 Ca         2.2228277426        0.0000045149        2.2532147449
 Ca         4.1625290588        0.0000022104        5.6646774110
 Ca         5.4298015630        3.5250226813        2.2525278703
 Ca         0.9629388180        3.5242174150        5.6659163890
  S         1.0716731057       -0.0000067536        5.7322439728
  S         5.3129493187        0.0000202081        2.1859220761
  S         4.2503792346        3.5262734313        5.7328277343
  S         2.1422784836        3.5226868673        2.1873207851
  O         0.1755395169        5.8502198312        5.7299279396
  O         6.2390509392        5.8524407040        2.1938059674
  O         6.2213823337        1.1999361463        2.1998627823
  O         0.1638692083        1.2001954657        5.7181318122
  O         3.3516583123        2.3181715149        5.7263654622
  O         3.0442366422        2.3160652146        2.1939233451
  O         3.0593315284        4.7184636588        2.2041609806
  O         3.3307757908        4.7198459768        5.7203049749
  O         1.9886036229       -0.0000036803        6.8881430182
  O         4.3945156932        0.0000150191        1.0312787756
  O         1.9487467003       -0.0000155441        4.5015628809
  O         4.4373699331        0.0000753961        3.4173823588
  O         5.1715981881        3.5411402159        6.8858586617
  O         1.2214352069        3.5393117392        1.0342251676
  O         5.1289520997        3.5250573721        4.5015313797
  O         1.2619526546        3.5186139374        3.4182478371
 Ca         2.2492502304        7.0568762423        2.2566860576
 Ca         4.1461263330        7.0568703922        5.6650999673
 Ca         5.4298031887       10.5887159053        2.2525320054
 Ca         0.9629386863       10.5895217970        5.6659187882
  S         1.0773042319        7.0568645772        5.7398154983
  S         5.3321663397        7.0568853424        2.1872506828
  S         4.2503783348       10.5874693445        5.7328304968
  S         2.1422768978       10.5910568807        2.1873224162
  O         0.1638640015       12.9135344385        5.7181338657
  O         6.2213202761       12.9138020549        2.1998878607
  O         6.2390997620        8.2612950372        2.1938135853
  O         0.1755487392        8.2635174237        5.7299327239
  O         3.3307647824        9.3939011261        5.7203126545
  O         3.0593320143        9.3952815145        2.2041616670
  O         3.0442310714       11.7976820706        2.1939262436
  O         3.3516669192       11.7955793346        5.7263630707
  O         2.0087142298        7.0568428453        6.8867066058
  O         4.4082596681        7.0569552968        1.0349927896
  O         1.9455639489        7.0568657747        4.5024309991
  O         4.4559386153        7.0568797804        3.4200891677
  O         5.1715950923       10.5726010048        6.8858617578
  O         1.2214377403       10.5744296611        1.0342242375
  O         5.1289470182       10.5886770554        4.5015318659
  O         1.2619522075       10.5951284152        3.4182498526
 Ca         8.6070361724        0.0000040562        2.2532184501
 Ca        10.5467429916        0.0000031495        5.6646763018
 Ca        11.8140102860        3.5250246995        2.2525250439
 Ca         7.3471353140        3.5242191469        5.6659167486
  S         7.4558854043        0.0000144939        5.7322471936
  S        11.6971550118        0.0000030054        2.1859201994
  S        10.6346158396        3.5262763818        5.7328293279
  S         8.5264860571        3.5226895551        2.1873228509
  O         6.5597410782        5.8502177176        5.7299346507
  O        12.6232396142        5.8524377052        2.1938004678
  O        12.6055613824        1.1999379274        2.1998739508
  O         6.5480668288        1.2002080280        5.7181396893
  O         9.7358910967        2.3181770443        5.7263656120
  O         9.4284387631        2.3160630023        2.1939272789
  O         9.4435451779        4.7184642019        2.2041596147
  O         9.7150258059        4.7198575409        5.7203018741
  O         8.3728126564        0.0000031330        6.8881474082
  O        10.7787243610        0.0000103729        1.0312756177
  O         8.3329572416        0.0000501990        4.5015665304
  O        10.8215798825        0.0000039563        3.4173826337
  O        11.5558304219        3.5411396697        6.8858623614
  O         7.6056467246        3.5393130778        1.0342250648
  O        11.5131786333        3.5250585677        4.5015295290
  O         7.6461642876        3.5186257618        3.4182517036
 Ca         8.6334637289        7.0568749821        2.2566866197
 Ca        10.5303416646        7.0568700582        5.6650987857
 Ca        11.8140171771       10.5887190881        2.2525323701
 Ca         7.3471448191       10.5895230972        5.6659191428
  S         7.4615094851        7.0568624930        5.7398136660
  S        11.7163801728        7.0569017894        2.1872500700
  S        10.6346006251       10.5874656004        5.7328283441
  S         8.5264817578       10.5910552735        2.1873281181
  O         6.5480857263       12.9135477184        5.7181262803
  O        12.6055539907       12.9138027204        2.1998733469
  O        12.6233378552        8.2612945212        2.1938163685
  O         6.5597558031        8.2635175419        5.7299272299
  O         9.7149924729        9.3938937020        5.7203070602
  O         9.4435405538        9.3952811769        2.2041778773
  O         9.4284253294       11.7976885608        2.1939335840
  O         9.7358852037       11.7955735303        5.7263645295
  O         8.3929100708        7.0568324854        6.8867097365
  O        10.7924840425        7.0570534481        1.0349860071
  O         8.3297687478        7.0568681931        4.5024289938
  O        10.8401498379        7.0568776483        3.4200859264
  O        11.5558146016       10.5725987970        6.8858609529
  O         7.6056498046       10.5744274768        1.0342252289
  O        11.5131656081       10.5886757234        4.5015301929
  O         7.6461608730       10.5951135682        3.4182568366
      96
 i =        6, E =     -1777.7899050662
 Ca         2.2114512134        0.0000084271        2.2576104080
 Ca         4.1757624026        0.0000073412        5.6642014569
 Ca         5.4238283268        3.5259604990        2.2583254420
 Ca         0.9758515472        3.5237984732        5.6634323444
  S         1.0724928657       -0.0000134295        5.7342096463
  S         5.3124945543        0.0000425168        2.1857036117
  S         4.2440082204        3.5206747265        5.7331343200
  S         2.1513519480        3.5175262344        2.1872185778
  O         0.1742635650        5.8542515407        5.7241344589
  O         6.2524562895        5.8545042052        2.1991052171
  O         6.2224387546        1.1997785773        2.2005480339
  O         0.1638700059        1.2002979324        5.7181434486
  O         3.3484922973        2.3084169362        5.7266178855
  O         3.0576624277        2.3114886461        2.1926396991
  O         3.0702181666        4.7136532582        2.2093089299
  O         3.3199000564        4.7126587399        5.7141127541
  O         1.9870643937       -0.0000102022        6.8897608630
  O         4.3970387388        0.0000314680        1.0309265256
  O         1.9490696734       -0.0000312166        4.5042709858
  O         4.4366106030        0.0001500633        3.4159357774
  O         5.1626515837        3.5408367560        6.8862327242
  O         1.2301465123        3.5366436218        1.0359265120
  O         5.1262344460        3.5227335746        4.5048340996
  O         1.2676766942        3.5140814482        3.4157285876
 Ca         2.2508004919        7.0568840021        2.2601412385
 Ca         4.1585298836        7.0568677088        5.6606620124
 Ca         5.4238348877       10.5877742238        2.2583342688
 Ca         0.9758505640       10.5899393464        5.6634323375
  S         1.0823827016        7.0568584195        5.7425394069
  S         5.3410115777        7.0568999573        2.1864469625
  S         4.2440125949       10.5930686862        5.7331351440
  S         2.1513482877       10.5962237347        2.1872222948
  O         0.1638535477       12.9134257195        5.7181505681
  O         6.2223361762       12.9139768725        2.2005906182
  O         6.2525402602        8.2592316872        2.1991745933
  O         0.1742707801        8.2594736211        5.7241343371
  O         3.3198987068        9.4010855074        5.7140985405
  O         3.0702168970        9.4000985567        2.2093161799
  O         3.0576559542       11.8022650562        2.1926452167
  O         3.3485134537       11.8053396478        5.7266179983
  O         2.0155578059        7.0568194021        6.8879745440
  O         4.4242635927        7.0570629484        1.0306967169
  O         1.9524836428        7.0568652768        4.5074786439
  O         4.4568610763        7.0568882025        3.4137503770
  O         5.1626520590       10.5729004775        6.8862347976
  O         1.2301472098       10.5771020611        1.0359274949
  O         5.1262336690       10.5909992678        4.5048329992
  O         1.2676740825       10.5996656971        3.4157317270
 Ca         8.5956585928        0.0000087753        2.2576131880
 Ca        10.5599777374        0.0000094558        5.6641982259
 Ca        11.8080349915        3.5259605673        2.2583207471
 Ca         7.3600404671        3.5238053360        5.6634284412
  S         7.4567046300        0.0000295060        5.7342112746
  S        11.6966988237        0.0000077344        2.1857003603
  S        10.6282491521        3.5206833924        5.7331399298
  S         8.5355586813        3.5175287737        2.1872179643
  O         6.5584689244        5.8542450606        5.7241431825
  O        12.6366276411        5.8545040664        2.1990685881
  O        12.6066011208        1.1997729903        2.2005696445
  O         6.5480493901        1.2003203876        5.7181610012
  O         9.7327565082        2.3084116135        5.7266179768
  O         9.4418669807        2.3114884457        2.1926396010
  O         9.4544325661        4.7136537687        2.2093088470
  O         9.7041257737        4.7126575908        5.7141521687
  O         8.3712727620        0.0000065149        6.8897639827
  O        10.7812445685        0.0000271082        1.0309228908
  O         8.3332796545        0.0000991655        4.5042725168
  O        10.8208202561        0.0000099658        3.4159351494
  O        11.5468893797        3.5408396402        6.8862380115
  O         7.6143568586        3.5366448853        1.0359238992
  O        11.5104643712        3.5227389638        4.5048355743
  O         7.6518882416        3.5140884218        3.4157295358
 Ca         8.6350150507        7.0568860517        2.2601428487
 Ca        10.5427496164        7.0568678503        5.6606584036
 Ca        11.8080595745       10.5877766487        2.2583392334
 Ca         7.3600522607       10.5899422637        5.6634319392
  S         7.4665890082        7.0568544063        5.7425401284
  S        11.7252239189        7.0569327691        2.1864439677
  S        10.6282344264       10.5930637628        5.7331377230
  S         8.5355494251       10.5962218037        2.1872272754
  O         6.5480936782       12.9134482848        5.7181339518
  O        12.6065847842       12.9139710300        2.2005666987
  O        12.6367969581        8.2592308648        2.1992200496
  O         6.5584807799        8.2594732621        5.7241369169
  O         9.7041138796        9.4010849196        5.7141205170
  O         9.4544272828        9.4001024560        2.2093112711
  O         9.4418473449       11.8022701260        2.1926476175
  O         9.7327426921       11.8053401092        5.7266181972
  O         8.3997535787        7.0567968631        6.8879799062
  O        10.8084880186        7.0572916227        1.0306861777
  O         8.3366854211        7.0568674738        4.5074764835
  O        10.8410714716        7.0568819672        3.4137456543
  O        11.5468705045       10.5728990750        6.8862383732
  O         7.6143537143       10.5770991372        1.0359291445
  O        11.5104517785       10.5909962988        4.5048351135
  O         7.6518756018       10.5996633677        3.4157358616
      96
 i =        7, E =     -1777.7895932070
 Ca         2.2127718513        0.0000129772        2.2587751407
 Ca         4.1756484242        0.0000126030        5.6623336424
 Ca         5.4254664792        3.5251280959        2.2605440487
 Ca         0.9773244569        3.5209630020        5.6605205449
  S         1.0722879101       -0.0000176891        5.7343757589
  S         5.3134166681        0.0000649862        2.1854101113
  S         4.2442086598        3.5206763646        5.7317976371
  S         2.1503383935        3.5214535704        2.1887498129
  O         0.1773400675        5.8550850463        5.7239295447
  O         6.2555764184        5.8568751801        2.2088236309
  O         6.2237821243        1.1980714496        2.2010659424
  O         0.1631388678        1.1984333645        5.7184268049
  O         3.3478493345        2.3100625902        5.7243011550
  O         3.0564136208        2.3171325791        2.2016992864
  O         3.0695419182        4.7162212876        2.2102196742
  O         3.3191321053        4.7109515203        5.7106594540
  O         1.9898971801       -0.0000108388        6.8884492320
  O         4.3960708934        0.0000441945        1.0312122223
  O         1.9471264651       -0.0000493675        4.5047068663
  O         4.4383824801        0.0002270728        3.4147606308
  O         5.1639267393        3.5417856758        6.8851408772
  O         1.2290371399        3.5353580832        1.0362023356
  O         5.1270945686        3.5203913629        4.5050840658
  O         1.2662824544        3.5139154348        3.4153707798
 Ca         2.2543177418        7.0568894496        2.2611812697
 Ca         4.1671472760        7.0568658415        5.6576672710
 Ca         5.4254820266       10.5886021941        2.2605562952
 Ca         0.9773222671       10.5927720444        5.6605171334
  S         1.0841771274        7.0568565842        5.7394190593
  S         5.3438460500        7.0569153151        2.1878348671
  S         4.2442183601       10.5930615345        5.7317992532
  S         2.1503344207       10.5923023806        2.1887569849
  O         0.1631141806       12.9152874045        5.7184408499
  O         6.2236387889       12.9157017240        2.2011310735
  O         6.2556850599        8.2568776460        2.2088715636
  O         0.1773556810        8.2586416825        5.7239410761
  O         3.3191268637        9.4027933603        5.7106630152
  O         3.0695368558        9.3975350674        2.2102269182
  O         3.0564058262       11.7966286012        2.2017083422
  O         3.3478870907       11.8036947551        5.7243048238
  O         2.0186261977        7.0568280134        6.8850804778
  O         4.4267314995        7.0570081875        1.0310575225
  O         1.9580201470        7.0568663075        4.5081577078
  O         4.4552184653        7.0568965632        3.4110201844
  O         5.1639333358       10.5719473865        6.8851432218
  O         1.2290384014       10.5783904141        1.0362058052
  O         5.1270994260       10.5933416374        4.5050843053
  O         1.2662789675       10.5998398013        3.4153774763
 Ca         8.5969776249        0.0000116155        2.2587778539
 Ca        10.5598663863        0.0000144633        5.6623308737
 Ca        11.8096696864        3.5251240604        2.2605383224
 Ca         7.3615173782        3.5209733345        5.6605183219
  S         7.4564988580        0.0000420911        5.7343766476
  S        11.6976174695        0.0000139016        2.1854054499
  S        10.6284578037        3.5206791710        5.7318021403
  S         8.5345474337        3.5214539973        2.1887469874
  O         6.5615411234        5.8550827354        5.7239258171
  O        12.6397350378        5.8568838438        2.2087968454
  O        12.6079281594        1.1980580183        2.2010986689
  O         6.5473032833        1.1984630936        5.7184580999
  O         9.7321487473        2.3100347811        5.7243060878
  O         9.4406249722        2.3171328705        2.2016941331
  O         9.4537551627        4.7162225354        2.2102138662
  O         9.7033555763        4.7109368625        5.7106594565
  O         8.3741038660        0.0000064981        6.8884520335
  O        10.7802670290        0.0000449390        1.0312109838
  O         8.3313346871        0.0001505768        4.5047071508
  O        10.8225920385        0.0000172597        3.4147608088
  O        11.5481650037        3.5418004379        6.8851506823
  O         7.6132472754        3.5353593442        1.0361998410
  O        11.5113286466        3.5204025579        4.5050819043
  O         7.6504989700        3.5139187894        3.4153715811
 Ca         8.6385290898        7.0568974084        2.2611827880
 Ca        10.5513688918        7.0568661945        5.6576632161
 Ca        11.8097145519       10.5886002236        2.2605674197
 Ca         7.3615278859       10.5927741603        5.6605176821
  S         7.4683845681        7.0568527061        5.7394215475
  S        11.7280576066        7.0569627640        2.1878316617
  S        10.6284422214       10.5930621103        5.7318025378
  S         8.5345345889       10.5923062098        2.1887597825
  O         6.5473687425       12.9153159185        5.7184118682
  O        12.6078999214       12.9156901495        2.2010930171
  O        12.6399540416        8.2568856084        2.2088991051
  O         6.5615650825        8.2586403525        5.7239425705
  O         9.7033430429        9.4027988115        5.7106638237
  O         9.4537413490        9.3975420399        2.2102281279
  O         9.4406019056       11.7966359322        2.2017014452
  O         9.7321261537       11.8037059899        5.7243058204
  O         8.4028228144        7.0568097525        6.8850884464
  O        10.8109381669        7.0571510403        1.0310590712
  O         8.3422267114        7.0568666226        4.5081600963
  O        10.8394283641        7.0568922388        3.4110152170
  O        11.5481507676       10.5719431294        6.8851495885
  O         7.6132424150       10.5783872921        1.0362065655
  O        11.5113155689       10.5933353345        4.5050846398
  O         7.6504773101       10.5998424818        3.4153786038
      96
 i =        8, E =     -1777.7899607627
 Ca         2.2165822339        0.0000248688        2.2585796098
 Ca         4.1729610789        0.0000208219        5.6619017248
 Ca         5.4286467598        3.5237567953        2.2603928971
 Ca         0.9769149114        3.5185106224        5.6615792122
  S         1.0734360003       -0.0000250681        5.7346042217
  S         5.3138611948        0.0000987598        2.1851320806
  S         4.2456162653        3.5218748504        5.7310196776
  S         2.1495804115        3.5225069517        2.1897439186
  O         0.1816583389        5.8547423479        5.7240188677
  O         6.2577573198        5.8560418433        2.2064816960
  O         6.2249892360        1.1972055140        2.2012092871
  O         0.1632752555        1.1973327532        5.7186850395
  O         3.3468417514        2.3129557269        5.7228813702
  O         3.0562562728        2.3191128389        2.1985813463
  O         3.0674951551        4.7178692561        2.2083368057
  O         3.3213312511        4.7126489778        5.7115057021
  O         1.9928305636       -0.0000114820        6.8878864710
  O         4.3948217567        0.0000545142        1.0316069699
  O         1.9463017924       -0.0000783191        4.5040462612
  O         4.4398641521        0.0003436453        3.4147196366
  O         5.1657341753        3.5427394580        6.8846612203
  O         1.2280852205        3.5368141522        1.0366366070
  O         5.1279410872        3.5178157928        4.5039456677
  O         1.2651708010        3.5145577365        3.4157818076
 Ca         2.2581004025        7.0568832828        2.2609507995
 Ca         4.1738684096        7.0568637547        5.6596290473
 Ca         5.4286680901       10.5899820998        2.2604034338
 Ca         0.9769122588       10.5952229864        5.6615845867
  S         1.0874380951        7.0568564247        5.7373580517
  S         5.3480318557        7.0569031167        2.1879064732
  S         4.2456366121       10.5918625285        5.7310244349
  S         2.1495818936       10.5912539457        2.1897531807
  O         0.1632364132       12.9163829645        5.7187074403
  O         6.2247614046       12.9165789343        2.2013229928
  O         6.2577956077        8.2577361907        2.2065312825
  O         0.1816668703        8.2589794172        5.7240228224
  O         3.3213282358        9.4011016627        5.7115152623
  O         3.0674897711        9.3958883682        2.2083446670
  O         3.0562539973       11.7946537532        2.1985904854
  O         3.3469095198       11.8008123391        5.7228833733
  O         2.0236352473        7.0568358906        6.8823685177
  O         4.4283740643        7.0568988041        1.0320119932
  O         1.9570795653        7.0568668735        4.5032841933
  O         4.4582640966        7.0569109318        3.4108818164
  O         5.1657501943       10.5709900576        6.8846674006
  O         1.2280919382       10.5769378476        1.0366419342
  O         5.1279518472       10.5959135963        4.5039458404
  O         1.2651689173       10.5992026381        3.4157892530
 Ca         8.6007881760        0.0000214277        2.2585819334
 Ca        10.5571842745        0.0000203178        5.6619002067
 Ca        11.8128434630        3.5237551609        2.2603859944
 Ca         7.3611122702        3.5185197813        5.6615760197
  S         7.4576463008        0.0000623091        5.7346054068
  S        11.6980569072        0.0000197060        2.1851296535
  S        10.6298788814        3.5218778654        5.7310230093
  S         8.5337918674        3.5225067895        2.1897413096
  O         6.5658652189        5.8547379189        5.7240191171
  O        12.6419512512        5.8560601436        2.2064475639
  O        12.6090973089        1.1971860245        2.2012683004
  O         6.5474125106        1.1973721707        5.7187351888
  O         9.7312077081        2.3128950112        5.7228882051
  O         9.4404710380        2.3191127884        2.1985799793
  O         9.4517067908        4.7178724623        2.2083304746
  O         9.7055461337        4.7126204820        5.7115014664
  O         8.3770352764        0.0000108225        6.8878902241
  O        10.7790088128        0.0000442714        1.0316106076
  O         8.3305089111        0.0002278572        4.5040467286
  O        10.8240704116        0.0000306425        3.4147225359
  O        11.5499774333        3.5427659657        6.8846749348
  O         7.6122963558        3.5368147019        1.0366356463
  O        11.5121862463        3.5178409742        4.5039411727
  O         7.6493911103        3.5145593612        3.4157838905
 Ca         8.6423092504        7.0568923734        2.2609536543
 Ca        10.5580869573        7.0568641098        5.6596277649
 Ca        11.8129067371       10.5899826399        2.2604154721
 Ca         7.3611209899       10.5952255148        5.6615835757
  S         7.4716471397        7.0568533052        5.7373606613
  S        11.7322394449        7.0569325874        2.1879047604
  S        10.6298633565       10.5918643235        5.7310260558
  S         8.5337798644       10.5912560698        2.1897545608
  O         6.5475154805       12.9164213523        5.7186596606
  O        12.6090496152       12.9165611752        2.2012641082
  O        12.6420210832        8.2577538957        2.2065611302
  O         6.5658758468        8.2589776632        5.7240239804
  O         9.7055392783        9.4011129392        5.7115125162
  O         9.4516913698        9.3958930210        2.2083520389
  O         9.4404503885       11.7946570549        2.1985896228
  O         9.7311674146       11.8008353419        5.7228840533
  O         8.4078364653        7.0568214801        6.8823747916
  O        10.8125822280        7.0569360574        1.0320108783
  O         8.3412908819        7.0568717816        4.5032890415
  O        10.8424754957        7.0569090128        3.4108825019
  O        11.5499663640       10.5709814121        6.8846743914
  O         7.6122943093       10.5769347258        1.0366406977
  O        11.5121706801       10.5958990799        4.5039444592
  O         7.6493650894       10.5992072118        3.4157895743
      96
 i =        9, E =     -1777.7902039848
 Ca         2.2194963773        0.0000517857        2.2574580540
 Ca         4.1727318114        0.0000405633        5.6611800033
 Ca         5.4334319451        3.5232853591        2.2585416999
 Ca         0.9800013841        3.5168671396        5.6627031803
  S         1.0751568385       -0.0000443637        5.7348142286
  S         5.3152426633        0.0001724229        2.1855016628
  S         4.2453729308        3.5220605058        5.7303958243
  S         2.1500715629        3.5222965204        2.1899614083
  O         0.1859153027        5.8558753432        5.7203825673
  O         6.2615931768        5.8550517004        2.2048944938
  O         6.2270640262        1.1968830628        2.2006638214
  O         0.1649692876        1.1973089079        5.7199569057
  O         3.3429043306        2.3148417033        5.7227584174
  O         3.0568160374        2.3188620656        2.1963315996
  O         3.0685571904        4.7174306055        2.2082244105
  O         3.3224246820        4.7142011042        5.7122873105
  O         1.9958119680       -0.0000171995        6.8873633863
  O         4.3953118628        0.0000716452        1.0325002890
  O         1.9472162627       -0.0001503842        4.5042475674
  O         4.4407422303        0.0006331910        3.4143976817
  O         5.1649791588        3.5420247330        6.8846205808
  O         1.2276221743        3.5371375827        1.0371058048
  O         5.1288196461        3.5147826728        4.5039734758
  O         1.2664082733        3.5141306119        3.4165562354
 Ca         2.2649348319        7.0568690540        2.2588199106
 Ca         4.1846084966        7.0568623148        5.6597588514
 Ca         5.4334488705       10.5904750275        2.2585452813
 Ca         0.9799970638       10.5968644251        5.6627174144
  S         1.0935850064        7.0568548810        5.7358320458
  S         5.3536733013        7.0568920677        2.1873706905
  S         4.2454170242       10.5916804814        5.7304035175
  S         2.1500857670       10.5914711838        2.1899728589
  O         0.1648928118       12.9163939754        5.7200002273
  O         6.2265787557       12.9168784672        2.2009757704
  O         6.2615833158        8.2587378970        2.2048692425
  O         0.1859288240        8.2578470060        5.7203941597
  O         3.3224263207        9.3995666916        5.7123006849
  O         3.0685578330        9.3963290197        2.2082252128
  O         3.0568245179       11.7949136952        2.1963478880
  O         3.3430479549       11.7989617335        5.7227537562
  O         2.0286464098        7.0568279984        6.8822540302
  O         4.4320957141        7.0568366999        1.0320315036
  O         1.9621744474        7.0568653179        4.5018566555
  O         4.4651595478        7.0569592889        3.4124055674
  O         5.1650127573       10.5716977185        6.8846334153
  O         1.2276394947       10.5766219102        1.0371143744
  O         5.1288472557       10.5989377473        4.5039730232
  O         1.2664135574       10.5996313750        3.4165637828
 Ca         8.6037035001        0.0000427632        2.2574615418
 Ca        10.5569696857        0.0000310403        5.6611829869
 Ca        11.8176228760        3.5232924944        2.2585346321
 Ca         7.3641988522        3.5168707062        5.6626976628
  S         7.4593652632        0.0001132678        5.7348155585
  S        11.6994237996        0.0000275974        2.1855046819
  S        10.6296790341        3.5220627261        5.7304008124
  S         8.5342854242        3.5222938857        2.1899625414
  O         6.5701253137        5.8558712462        5.7203778628
  O        12.6458189897        5.8550715648        2.2048974335
  O        12.6110446618        1.1968722819        2.2008249882
  O         6.5490348718        1.1973715327        5.7200485639
  O         9.7274353224        2.3147045586        5.7227536466
  O         9.4410359659        2.3188607373        2.1963357414
  O         9.4527674750        4.7174331263        2.2082259433
  O         9.7066308592        4.7141380905        5.7122874956
  O         8.3800135121        0.0000252918        6.8873676970
  O        10.7794958865        0.0000270397        1.0325001348
  O         8.3314222498        0.0004195303        4.5042492618
  O        10.8249370335        0.0000686809        3.4144059288
  O        11.5492504045        3.5420733765        6.8846444498
  O         7.6118388536        3.5371373868        1.0371067744
  O        11.5130939709        3.5148480428        4.5039631943
  O         7.6506302869        3.5141323336        3.4165618156
 Ca         8.6491423912        7.0568765745        2.2588228022
 Ca        10.5688238552        7.0568649541        5.6597582049
 Ca        11.8176963550       10.5904814540        2.2585554940
 Ca         7.3642103435       10.5968709627        5.6627139690
  S         7.4777973622        7.0568523470        5.7358314553
  S        11.7378792032        7.0568982810        2.1873709047
  S        10.6296536738       10.5916831590        5.7304030662
  S         8.5342814602       10.5914687834        2.1899722788
  O         6.5492364358       12.9164563123        5.7199102495
  O        12.6109549139       12.9168645189        2.2008466529
  O        12.6457716573        8.2587581377        2.2048608845
  O         6.5701387363        8.2578444024        5.7203996795
  O         9.7066293868        9.3995896209        5.7122985022
  O         9.4527568707        9.3963285492        2.2082284232
  O         9.4410194832       11.7949106771        2.1963474614
  O         9.7273515584       11.7990093755        5.7227477195
  O         8.4128650319        7.0568087391        6.8822473651
  O        10.8163033390        7.0567930641        1.0320315029
  O         8.3463823108        7.0568792796        4.5018533315
  O        10.8493715601        7.0569434791        3.4124098825
  O        11.5492317305       10.5716819124        6.8846421818
  O         7.6118377909       10.5766184817        1.0371122595
  O        11.5130738468       10.5989017028        4.5039688622
  O         7.6506060140       10.5996386117        3.4165625579
      96
 i =       10, E =     -1777.7905674536
 Ca         2.2234927869        0.0001000703        2.2557790596
 Ca         4.1715933969        0.0000812721        5.6616736665
 Ca         5.4412591955        3.5229742096        2.2568235824
 Ca         0.9830451890        3.5165331001        5.6648255790
  S         1.0782697297       -0.0000883357        5.7349951349
  S         5.3186343638        0.0003202518        2.1859924090
  S         4.2445600306        3.5222190042        5.7301505033
  S         2.1514742381        3.5215864762        2.1897463835
  O         0.1906483114        5.8559926830        5.7184233912
  O         6.2648888531        5.8537661651        2.2032019426
  O         6.2312031898        1.1967148224        2.1994888990
  O         0.1689204959        1.1978688913        5.7210885540
  O         3.3348174098        2.3188000478        5.7235205495
  O         3.0570756681        2.3172867147        2.1943206069
  O         3.0697245714        4.7168885264        2.2083429543
  O         3.3256836243        4.7174087474        5.7124195718
  O         2.0000813622       -0.0000306515        6.8872182885
  O         4.3982346690        0.0001465247        1.0329906208
  O         1.9486509049       -0.0003160613        4.5035469239
  O         4.4426938317        0.0012743324        3.4139474477
  O         5.1645054151        3.5401445429        6.8844388734
  O         1.2272465361        3.5380340231        1.0375984726
  O         5.1292392155        3.5120488296        4.5043867836
  O         1.2682646576        3.5138263983        3.4167813830
 Ca         2.2718419947        7.0568593198        2.2574877908
 Ca         4.1905344547        7.0568657696        5.6608580595
 Ca         5.4412488995       10.5908061126        2.2568133903
 Ca         0.9830366938       10.5972004369        5.6648402093
  S         1.0992397042        7.0568504432        5.7347234664
  S         5.3596387792        7.0568843753        2.1861957126
  S         4.2446407111       10.5915349544        5.7301601666
  S         2.1515047165       10.5921911465        2.1897621290
  O         0.1687635867       12.9158015383        5.7211766270
  O         6.2300766591       12.9169193091        2.2000931449
  O         6.2648851443        8.2599982451        2.2031569454
  O         0.1906604126        8.2577211547        5.7184311372
  O         3.3256964444        9.3963899756        5.7124322853
  O         3.0697309816        9.3968737010        2.2083396058
  O         3.0570986242       11.7965028500        2.1943591309
  O         3.3350654619       11.7950577919        5.7234934943
  O         2.0288195237        7.0568051401        6.8853893744
  O         4.4308934847        7.0568164839        1.0349896332
  O         1.9657181282        7.0568653482        4.5005759880
  O         4.4784477664        7.0570997978        3.4172204548
  O         5.1645641743       10.5735675546        6.8844613078
  O         1.2272797556       10.5757470162        1.0376108303
  O         5.1293025758       10.6016603186        4.5043915365
  O         1.2682841693       10.5999270324        3.4167943767
 Ca         8.6077021675        0.0000786882        2.2557832155
 Ca        10.5558658981        0.0000507389        5.6616856382
 Ca        11.8254418669        3.5229987618        2.2568228557
 Ca         7.3672298633        3.5165238084        5.6648171968
  S         7.4624750126        0.0002275544        5.7349959632
  S        11.7027928550        0.0000375133        2.1859988137
  S        10.6289366090        3.5222120349        5.7301586858
  S         8.5356925216        3.5215777806        2.1897561076
  O         6.5748675596        5.8559816908        5.7184174136
  O        12.6491453558        5.8537631402        2.2032109315
  O        12.6148710438        1.1967573094        2.1997722114
  O         6.5528357214        1.1979903289        5.7212588039
  O         9.7195541713        2.3185725617        5.7234615010
  O         9.4413012511        2.3172793838        2.1943377559
  O         9.4539368634        4.7168849304        2.2083521523
  O         9.7098903427        4.7172910971        5.7124417849
  O         8.3842758457        0.0000585665        6.8872240620
  O        10.7824061905        0.0000062369        1.0329858686
  O         8.3328552861        0.0008568971        4.5035506274
  O        10.8268713323        0.0001582105        3.4139591593
  O        11.5488262575        3.5402231470        6.8844773889
  O         7.6114718927        3.5380308815        1.0376060008
  O        11.5135713736        3.5121667071        4.5043773321
  O         7.6524862888        3.5138285455        3.4167942189
 Ca         8.6560522587        7.0568596347        2.2574828005
 Ca        10.5747506604        7.0568669114        5.6608541498
 Ca        11.8255109026       10.5908248417        2.2568140080
 Ca         7.3672528438       10.5972166558        5.6648343954
  S         7.4834550330        7.0568461041        5.7347233268
  S        11.7438449495        7.0568447335        2.1861987299
  S        10.6288917177       10.5915411664        5.7301545066
  S         8.5356969222       10.5921795289        2.1897580110
  O         6.5532437634       12.9159244273        5.7210052531
  O        12.6146943206       12.9169444745        2.1998414411
  O        12.6490417760        8.2599956039        2.2031527582
  O         6.5748693329        8.2577138188        5.7184380687
  O         9.7098908042        9.3964300031        5.7124375300
  O         9.4539299043        9.3968655621        2.2083324633
  O         9.4412880208       11.7964896108        2.1943539675
  O         9.7194162602       11.7951310924        5.7234619055
  O         8.4130279155        7.0567733622        6.8853942028
  O        10.8151049763        7.0567425024        1.0349895777
  O         8.3499321460        7.0568891324        4.5005758320
  O        10.8626606043        7.0570228800        3.4172277577
  O        11.5487863093       10.5735448133        6.8844714024
  O         7.6114700364       10.5757408873        1.0376080565
  O        11.5135409223       10.6015989797        4.5043819755
  O         7.6524726656       10.5999358003        3.4167918933
      96
 i =       11, E =     -1777.7904097691
 Ca         2.2316806720        0.0002495716        2.2529626274
 Ca         4.1710339984        0.0002116527        5.6629359874
 Ca         5.4614913557        3.5207785506        2.2564891638
 Ca         0.9906874267        3.5168343961        5.6682468159
  S         1.0876731227       -0.0002476744        5.7357827095
  S         5.3301877930        0.0007400909        2.1868790988
  S         4.2419686782        3.5222375850        5.7300328745
  S         2.1565492933        3.5203364182        2.1894897285
  O         0.1998447499        5.8550815641        5.7154362455
  O         6.2771095011        5.8513817301        2.2007610310
  O         6.2468308158        1.1950419717        2.1960613693
  O         0.1799137921        1.1987115203        5.7236549523
  O         3.3169254905        2.3262019013        5.7257331525
  O         3.0592751221        2.3139838742        2.1935690257
  O         3.0741497223        4.7160557889        2.2085691120
  O         3.3305944031        4.7231502871        5.7134749800
  O         2.0119279105       -0.0000758227        6.8873854644
  O         4.4101097475        0.0004618186        1.0331228598
  O         1.9534197101       -0.0009437610        4.5017129374
  O         4.4499767074        0.0035152233        3.4123545703
  O         5.1618456462        3.5352299619        6.8847068719
  O         1.2293876779        3.5385214963        1.0382318119
  O         5.1287020952        3.5065253219        4.5053908633
  O         1.2743507915        3.5131239008        3.4174187881
 Ca         2.2859641215        7.0568620878        2.2599524343
 Ca         4.2027334138        7.0568887782        5.6636665613
 Ca         5.4613702394       10.5929748810        2.2564528487
 Ca         0.9906537710       10.5969009065        5.6682465925
  S         1.1093813205        7.0568393660        5.7319682911
  S         5.3779095504        7.0569034608        2.1842581667
  S         4.2420940157       10.5915482994        5.7300581198
  S         2.1566213296       10.5934894462        2.1895238905
  O         0.1795071651       12.9148164430        5.7239074561
  O         6.2429482797       12.9176046718        2.1980120827
  O         6.2772298599        8.2623204249        2.2006759022
  O         0.1998668138        8.2586194964        5.7154625937
  O         3.3306574521        9.3906793441        5.7134902316
  O         3.0741684490        9.3977359973        2.2085509398
  O         3.0593320423       11.7998719156        2.1936664825
  O         3.3171862672       11.7876602876        5.7257278924
  O         2.0331891727        7.0567691797        6.8866424486
  O         4.4355075697        7.0567844475        1.0406650420
  O         1.9722598114        7.0568637293        4.4989609882
  O         4.5212731258        7.0574300638        3.4329673337
  O         5.1619558726       10.5784778468        6.8847411520
  O         1.2294644183       10.5753261067        1.0382590164
  O         5.1288418849       10.6071958287        4.5054417378
  O         1.2744113684       10.6006164144        3.4174542145
 Ca         8.6158935075        0.0001847978        2.2529716315
 Ca        10.5553920898        0.0001267002        5.6629720362
 Ca        11.8456333516        3.5208510440        2.2565022228
 Ca         7.3748059131        3.5168003670        5.6682285264
  S         7.4718717322        0.0006377543        5.7357777427
  S        11.7142787826        0.0000646250        2.1868704400
  S        10.6264144899        3.5221988080        5.7300722088
  S         8.5407816786        3.5203037277        2.1895224729
  O         6.5840781710        5.8550479795        5.7154137829
  O        12.6614218872        5.8513255993        2.2007544615
  O        12.6291974366        1.1955096326        2.1968703385
  O         6.5633723279        1.1990917829        5.7241150001
  O         9.7016074936        2.3260441330        5.7257314013
  O         9.4435213515        2.3139540445        2.1936119261
  O         9.4583646195        4.7160327287        2.2085909121
  O         9.7148737546        4.7230040947        5.7135063548
  O         8.3960993566        0.0001625940        6.8873952529
  O        10.7942255600       -0.0000073949        1.0330956565
  O         8.3376312455        0.0024987022        4.5017253754
  O        10.8341108717        0.0004682773        3.4123579065
  O        11.5462557178        3.5353356283        6.8847579256
  O         7.6136335455        3.5385096144        1.0382603473
  O        11.5131386795        3.5066426143        4.5054477493
  O         7.6585718267        3.5131281030        3.4174512820
 Ca         8.6701786543        7.0568450082        2.2599372740
 Ca        10.5869432287        7.0568652152        5.6636594290
 Ca        11.8456821228       10.5930294203        2.2564367419
 Ca         7.3748686703       10.5969425492        5.6682392918
  S         7.4935989092        7.0568242566        5.7319642576
  S        11.7621200926        7.0567668842        2.1842668402
  S        10.6263395359       10.5915751529        5.7300418264
  S         8.5407994216       10.5934530081        2.1895093624
  O         6.5644127800       12.9151985961        5.7234265331
  O        12.6286433652       12.9180019634        2.1971359388
  O        12.6613329272        8.2622665933        2.2006905036
  O         6.5840765862        8.2585993883        5.7154730536
  O         9.7148469286        9.3907342864        5.7134863578
  O         9.4583602078        9.3977066952        2.2085361981
  O         9.4435028641       11.7998294985        2.1936363116
  O         9.7014716398       11.7877191631        5.7256925208
  O         8.4173952696        7.0567112701        6.8866491971
  O        10.8197180223        7.0566159561        1.0406743807
  O         8.3564768440        7.0569016288        4.4989593525
  O        10.9054878524        7.0571380227        3.4329786697
  O        11.5461649787       10.5784547610        6.8847432896
  O         7.6136302225       10.5753094076        1.0382524358
  O        11.5130856542       10.6071418315        4.5054318802
  O         7.6585858428       10.6006307711        3.4174491205
      96
 i =       12, E =     -1777.7910872622
 Ca         2.2269518298        0.0001923863        2.2547095723
 Ca         4.1720214550        0.0001700295        5.6626688471
 Ca         5.4490111573        3.5213386136        2.2581896313
 Ca         0.9846360867        3.5182565332        5.6657205418
  S         1.0832058344       -0.0002019152        5.7354394727
  S         5.3263499316        0.0005082383        2.1859919727
  S         4.2435811964        3.5225170949        5.7305594161
  S         2.1547762724        3.5212217599        2.1893173437
  O         0.1914684127        5.8550098271        5.7186308693
  O         6.2703141629        5.8533657322        2.2014158971
  O         6.2417911402        1.1952884916        2.1980059235
  O         0.1743705285        1.1979517225        5.7217382774
  O         3.3291827776        2.3211690623        5.7242566361
  O         3.0583246536        2.3157369660        2.1966575425
  O         3.0719177904        4.7169843901        2.2085562053
  O         3.3273682228        4.7194326209        5.7131468981
  O         2.0067676166       -0.0000557744        6.8871416307
  O         4.4064126647        0.0003484612        1.0324054320
  O         1.9514506031       -0.0008493219        4.5024314957
  O         4.4483586097        0.0026911511        3.4132348093
  O         5.1631720296        3.5377408743        6.8850680738
  O         1.2293484070        3.5372279105        1.0375923184
  O         5.1281159183        3.5116891185        4.5046891995
  O         1.2726751394        3.5139838726        3.4172009371
 Ca         2.2750840180        7.0568755135        2.2603988507
 Ca         4.1896220318        7.0568800007        5.6620761145
 Ca         5.4489055847       10.5923520039        2.2581762329
 Ca         0.9846185804       10.5954782076        5.6657191789
  S         1.0998889340        7.0568450194        5.7341823552
  S         5.3670678164        7.0569390282        2.1851729138
  S         4.2436689189       10.5912521425        5.7305800566
  S         2.1548301697       10.5925996627        2.1893475987
  O         0.1740532960       12.9156130435        5.7219701793
  O         6.2392176316       12.9177420122        2.1990083300
  O         6.2704909926        8.2603684785        2.2012999250
  O         0.1914868793        8.2586987412        5.7186456774
  O         3.3274095121        9.3943667618        5.7131642386
  O         3.0719306026        9.3968109196        2.2085412213
  O         3.0583612539       11.7981141000        2.1967483645
  O         3.3293959440       11.7926756583        5.7242331473
  O         2.0277374730        7.0567998519        6.8855040324
  O         4.4331982667        7.0568277656        1.0370822403
  O         1.9662620823        7.0568532569        4.5015649730
  O         4.4965030778        7.0574781102        3.4223620377
  O         5.1632514024       10.5759825489        6.8850944839
  O         1.2294086436       10.5765953864        1.0376150397
  O         5.1282145012       10.6020401608        4.5047301526
  O         1.2727251823       10.5997651998        3.4172323785
 Ca         8.6111477491        0.0001439716        2.2547176127
 Ca        10.5563194592        0.0001103769        5.6626873358
 Ca        11.8331584260        3.5213895713        2.2581990528
 Ca         7.3687976119        3.5182392123        5.6657085907
  S         7.4674117044        0.0005185290        5.7354365816
  S        11.7105037788        0.0000442308        2.1859602243
  S        10.6279592013        3.5224978736        5.7305915612
  S         8.5390033542        3.5211937164        2.1893401663
  O         6.5756899277        5.8549903450        5.7186172048
  O        12.6546012402        5.8533295118        2.2013863991
  O        12.6248495002        1.1955569788        2.1983848836
  O         6.5580070067        1.1982703822        5.7221769054
  O         9.7137788169        2.3210304438        5.7242351318
  O         9.4425635815        2.3157111072        2.1966919162
  O         9.4561284707        4.7169675534        2.2085665640
  O         9.7116303829        4.7193404487        5.7131750016
  O         8.3909474276        0.0001135549        6.8871535276
  O        10.7905688438        0.0000178136        1.0323736140
  O         8.3356813541        0.0022270199        4.5024519186
  O        10.8325150629        0.0003557999        3.4131913191
  O        11.5475282867        3.5378110660        6.8851074498
  O         7.6135855820        3.5372183398        1.0376114600
  O        11.5124887564        3.5117633140        4.5047355464
  O         7.6568942403        3.5139876490        3.4172226941
 Ca         8.6592961777        7.0568654657        2.2603920968
 Ca        10.5738352008        7.0568647009        5.6620725647
 Ca        11.8331968629       10.5924031488        2.2581712104
 Ca         7.3688323269       10.5955076248        5.6657156431
  S         7.4841031007        7.0568376053        5.7341804883
  S        11.7512788492        7.0568408858        2.1851750989
  S        10.6279006915       10.5912739276        5.7305669100
  S         8.5390118191       10.5925697145        2.1893369606
  O         6.5588040459       12.9159325189        5.7215252918
  O        12.6244812102       12.9180308872        2.1985107524
  O        12.6546242917        8.2603331440        2.2013333280
  O         6.5756940216        8.2586866427        5.7186572123
  O         9.7116004102        9.3944087865        5.7131605093
  O         9.4561290257        9.3967909881        2.2085363120
  O         9.4425368673       11.7980799765        2.1967183428
  O         9.7136719162       11.7927341375        5.7241978044
  O         8.4119421442        7.0567613819        6.8855097167
  O        10.8174122884        7.0566871361        1.0370826947
  O         8.3504753822        7.0569095670        4.5015644656
  O        10.8807200669        7.0571556609        3.4223676785
  O        11.5474549621       10.5759661131        6.8850957522
  O         7.6135850135       10.5765801618        1.0376080682
  O        11.5124439682       10.6020017406        4.5047211647
  O         7.6569039686       10.5997750311        3.4172280210
      96
 i =       13, E =     -1777.7912669498
 Ca         2.2275017174        0.0002631415        2.2554549346
 Ca         4.1739844542        0.0002394680        5.6620081136
 Ca         5.4506778607        3.5194882493        2.2598626422
 Ca         0.9838804133        3.5179718467        5.6643211517
  S         1.0852162701       -0.0003540580        5.7358258523
  S         5.3332095201        0.0004783494        2.1853781666
  S         4.2435944679        3.5222995075        5.7307152884
  S         2.1568869987        3.5212595039        2.1895008180
  O         0.1890604676        5.8545727578        5.7188505037
  O         6.2714754218        5.8548313583        2.2050599780
  O         6.2526335160        1.1925548062        2.1966840929
  O         0.1755306785        1.1968297449        5.7218420324
  O         3.3332765213        2.3185781300        5.7231825996
  O         3.0608619085        2.3163980607        2.1972750140
  O         3.0724347440        4.7176833306        2.2085360854
  O         3.3253956472        4.7175113633        5.7130456496
  O         2.0100144016       -0.0000629184        6.8869719367
  O         4.4127407049        0.0004411826        1.0323048362
  O         1.9525168844       -0.0015316109        4.5020409641
  O         4.4537831014        0.0035835759        3.4120493799
  O         5.1632875298        3.5390519894        6.8849412291
  O         1.2313193352        3.5354227912        1.0380383189
  O         5.1276136870        3.5128799870        4.5047699524
  O         1.2760423559        3.5148186852        3.4180256618
 Ca         2.2731571970        7.0568970910        2.2603698905
 Ca         4.1870352337        7.0568774222        5.6600829558
 Ca         5.4504751208       10.5940234985        2.2598337807
 Ca         0.9838651178       10.5957672932        5.6643162834
  S         1.0965732364        7.0568445863        5.7349871541
  S         5.3665690494        7.0569927785        2.1848440952
  S         4.2436792040       10.5914612567        5.7307427650
  S         2.1569523729       10.5926145484        2.1895364748
  O         0.1750189633       12.9165834963        5.7221996107
  O         6.2488129549       12.9195313907        2.1978553571
  O         6.2718382308        8.2588717159        2.2048653375
  O         0.1890722518        8.2591297408        5.7188440992
  O         3.3254502793        9.3962672947        5.7130825604
  O         3.0724494461        9.3961587026        2.2085133733
  O         3.0609119673       11.7975163374        2.1973567221
  O         3.3334797651       11.7952512981        5.7231639286
  O         2.0273588857        7.0568321789        6.8839963808
  O         4.4343197781        7.0568714102        1.0360788529
  O         1.9625387943        7.0568408718        4.5019141666
  O         4.4897783017        7.0577165217        3.4151929877
  O         5.1633738113       10.5747092397        6.8849718162
  O         1.2313937963       10.5784247334        1.0380651998
  O         5.1277146233       10.6008800519        4.5048190259
  O         1.2761250480       10.5989471914        3.4180713805
 Ca         8.6116932333        0.0002046690        2.2554682299
 Ca        10.5582576803        0.0001918889        5.6619881932
 Ca        11.8347840032        3.5195858901        2.2598612917
 Ca         7.3680575931        3.5179525289        5.6643065867
  S         7.4694366180        0.0008991492        5.7358199629
  S        11.7174421050        0.0000303306        2.1852963629
  S        10.6279595282        3.5223053374        5.7307591889
  S         8.5411179654        3.5212150321        2.1895266244
  O         6.5732902289        5.8545589048        5.7188333050
  O        12.6558320947        5.8548011715        2.2050750627
  O        12.6352696804        1.1932004408        2.1971328631
  O         6.5588503792        1.1974206415        5.7224845180
  O         9.7178146856        2.3184993208        5.7232029801
  O         9.4451109379        2.3163576851        2.1973077276
  O         9.4566467901        4.7176525193        2.2085431075
  O         9.7096923111        4.7174768047        5.7130806233
  O         8.3941825206        0.0001208474        6.8869996403
  O        10.7969403839        0.0000360278        1.0322498252
  O         8.3368116994        0.0039251138        4.5020902183
  O        10.8379535032        0.0004836556        3.4119065052
  O        11.5476416258        3.5390838798        6.8849898572
  O         7.6155616256        3.5354038550        1.0380575104
  O        11.5119704680        3.5128987991        4.5048195991
  O         7.6602594605        3.5148271911        3.4180441785
 Ca         8.6573663642        7.0568771911        2.2603669821
 Ca        10.5712507116        7.0568650089        5.6600752790
 Ca        11.8348166800       10.5941393994        2.2598391487
 Ca         7.3680768902       10.5957826493        5.6643213029
  S         7.4807863398        7.0568506992        5.7349875985
  S        11.7507802193        7.0568479167        2.1848365226
  S        10.6278863936       10.5914914454        5.7307172403
  S         8.5411227570       10.5925671432        2.1895230490
  O         6.5601152553       12.9171738664        5.7215156093
  O        12.6347175273       12.9202317432        2.1972873336
  O        12.6559031866        8.2588427429        2.2048509774
  O         6.5732643097        8.2591202539        5.7188553201
  O         9.7096261825        9.3963107183        5.7130594244
  O         9.4566468725        9.3961284950        2.2085141506
  O         9.4450658955       11.7974690568        2.1973447270
  O         9.7177081645       11.7953149735        5.7231062571
  O         8.4115628115        7.0568115940        6.8840039097
  O        10.8185325370        7.0565438581        1.0360711712
  O         8.3467527533        7.0569513982        4.5019175880
  O        10.8739659201        7.0572635511        3.4151653991
  O        11.5475420802       10.5746912201        6.8849674660
  O         7.6155638195       10.5784020879        1.0380530362
  O        11.5119167177       10.6008522302        4.5047955203
  O         7.6602903898       10.5989604752        3.4180641277
      96
 i =       14, E =     -1777.7916910123
 Ca         2.2388428592        0.0005833256        2.2544500132
 Ca         4.1779428124        0.0005684292        5.6595596405
 Ca         5.4649850053        3.5125055130        2.2624159529
 Ca         0.9803199638        3.5189226622        5.6629830518
  S         1.0961592541       -0.0010531954        5.7371953675
  S         5.3619866652        0.0011090385        2.1832165623
  S         4.2447955354        3.5235615906        5.7307159728
  S         2.1654358526        3.5221170825        2.1889987666
  O         0.1837315746        5.8537394556        5.7194074257
  O         6.2728078980        5.8553463432        2.1988711051
  O         6.2911187684        1.1872431816        2.1948436463
  O         0.1849879204        1.1941401959        5.7234548297
  O         3.3378022018        2.3177295334        5.7216517194
  O         3.0678483400        2.3175699830        2.1996614717
  O         3.0755062452        4.7206292915        2.2061183979
  O         3.3253714286        4.7169947595        5.7138496543
  O         2.0293875020       -0.0001240353        6.8844386994
  O         4.4358561644        0.0008407685        1.0337496258
  O         1.9587715756       -0.0048335337        4.4995643622
  O         4.4795363375        0.0071626858        3.4097277867
  O         5.1645687478        3.5399901587        6.8847381259
  O         1.2355395722        3.5312673562        1.0402769858
  O         5.1272993827        3.5150529112        4.5039976147
  O         1.2925462790        3.5172787247        3.4225740124
 Ca         2.2738086791        7.0569638050        2.2602407527
 Ca         4.1782937444        7.0568802432        5.6574918357
 Ca         5.4643197632       10.6002842535        2.2623351950
 Ca         0.9803078203       10.5948293417        5.6629550877
  S         1.0907242519        7.0568426066        5.7352485046
  S         5.3692176649        7.0571174196        2.1832414058
  S         4.2448940870       10.5901964701        5.7307857317
  S         2.1655667690       10.5919591695        2.1890775459
  O         0.1835189841       12.9186287233        5.7245839226
  O         6.2871902617       12.9258509340        2.1939647193
  O         6.2736511776        8.2582372199        2.1983151308
  O         0.1837605390        8.2599714104        5.7193990669
  O         3.3255101957        9.3967331875        5.7139550713
  O         3.0755217645        9.3933704107        2.2060619893
  O         3.0679363347       11.7966100807        2.1998775373
  O         3.3380090286       11.7960758862        5.7216859950
  O         2.0233998344        7.0569060512        6.8822025546
  O         4.4336300124        7.0570340464        1.0373875461
  O         1.9583715975        7.0567460066        4.5039259474
  O         4.4992832313        7.0582553132        3.4126377540
  O         5.1647298258       10.5738540030        6.8847857096
  O         1.2356957572       10.5826599874        1.0403340937
  O         5.1274553241       10.5988094463        4.5041186570
  O         1.2927880974       10.5965243824        3.4227039665
 Ca         8.6230134508        0.0004857738        2.2544762973
 Ca        10.5621794876        0.0005754976        5.6594374428
 Ca        11.8489089131        3.5128195769        2.2623969837
 Ca         7.3645341908        3.5189051156        5.6629471500
  S         7.4804515806        0.0026245258        5.7371742836
  S        11.7464482935        0.0000776117        2.1829102570
  S        10.6291644419        3.5236460813        5.7308312936
  S         8.5496873602        3.5219970743        2.1890500587
  O         6.5679987819        5.8537494659        5.7193664491
  O        12.6573392410        5.8552438933        2.1988604534
  O        12.6741392403        1.1872810017        2.1941424876
  O         6.5667508289        1.1958803129        5.7253807255
  O         9.7222057324        2.3178554375        5.7218247422
  O         9.4521391044        2.3174598231        2.1997205422
  O         9.4596958229        4.7205523349        2.2061334463
  O         9.7098093271        4.7171309987        5.7139527574
  O         8.4135111928        0.0002822828        6.8845336247
  O        10.8201922593        0.0000586414        1.0335469423
  O         8.3433983167        0.0120397529        4.4997669108
  O        10.8637863900        0.0009876498        3.4092494801
  O        11.5489972356        3.5399672458        6.8848234228
  O         7.6198172418        3.5312337671        1.0403037195
  O        11.5116760541        3.5149371119        4.5041164760
  O         7.6767501555        3.5173053204        3.4225890513
 Ca         8.6580149496        7.0568953610        2.2602429950
 Ca        10.5625081889        7.0568745269        5.6574774021
 Ca        11.8488785077       10.6007003114        2.2623532742
 Ca         7.3645100932       10.5948290629        5.6629913776
  S         7.4749356546        7.0569068707        5.7352502163
  S        11.7534220835        7.0567492178        2.1832172994
  S        10.6290001788       10.5902861608        5.7306991169
  S         8.5496946780       10.5918422165        2.1890431469
  O         6.5702707230       12.9203851087        5.7224776721
  O        12.6736104659       12.9262537627        2.1940392409
  O        12.6575364766        8.2581313538        2.1983366476
  O         6.5679062131        8.2599835110        5.7194487618
  O         9.7096029791        9.3968182124        5.7138798048
  O         9.4597359654        9.3933103742        2.2060641907
  O         9.4520177734       11.7965051709        2.1998377959
  O         9.7220566243       11.7961994741        5.7215034555
  O         8.4076104469        7.0569381553        6.8822048392
  O        10.8178443878        7.0559034959        1.0373572340
  O         8.3425780692        7.0571465036        4.5039270074
  O        10.8834387883        7.0574108294        3.4125724615
  O        11.5487445906       10.5738637572        6.8847507590
  O         7.6198303329       10.5826306114        1.0403020988
  O        11.5115631426       10.5987917656        4.5040390617
  O         7.6768983269       10.5965548386        3.4226780578
      96
 i =       15, E =     -1777.7923439718
 Ca         2.2400260875        0.0006245644        2.2555289598
 Ca         4.1820729366        0.0006634066        5.6585718527
 Ca         5.4604002979        3.5156936517        2.2621502894
 Ca         0.9828368245        3.5184413662        5.6635270864
  S         1.0942493632       -0.0013004112        5.7359746522
  S         5.3589559682        0.0010817589        2.1815122850
  S         4.2442740769        3.5223564087        5.7304392471
  S         2.1674179187        3.5216203823        2.1893060849
  O         0.1858561680        5.8540307908        5.7221048782
  O         6.2733963157        5.8560132773        2.2025154170
  O         6.2800154587        1.1927933803        2.1972586652
  O         0.1840226193        1.1950757198        5.7223986301
  O         3.3375815734        2.3162383645        5.7229613125
  O         3.0712045048        2.3174753105        2.1976253737
  O         3.0779414766        4.7201530203        2.2061110465
  O         3.3237661441        4.7155154099        5.7123885458
  O         2.0259505707       -0.0001517572        6.8834141633
  O         4.4341839241        0.0007609125        1.0314227582
  O         1.9584601307       -0.0064809200        4.4996833150
  O         4.4836376863        0.0061536981        3.4118284377
  O         5.1634949683        3.5403066227        6.8845453760
  O         1.2369430073        3.5322792565        1.0414131827
  O         5.1276512688        3.5141282057        4.5040476675
  O         1.2964475931        3.5155925087        3.4241229024
 Ca         2.2729788820        7.0569247209        2.2600873669
 Ca         4.1821093695        7.0568385008        5.6576909472
 Ca         5.4599859412       10.5973462598        2.2620134291
 Ca         0.9828027725       10.5953265224        5.6635072253
  S         1.0931819909        7.0568468901        5.7354096254
  S         5.3676575698        7.0570323140        2.1850435532
  S         4.2443976601       10.5914066490        5.7305097884
  S         2.1675264646       10.5924639233        2.1893927284
  O         0.1821093586       12.9175766961        5.7241338092
  O         6.2772767991       12.9209700804        2.1989085839
  O         6.2741955673        8.2574557775        2.2022228105
  O         0.1858922521        8.2596958708        5.7220745814
  O         3.3239618395        9.3982020754        5.7124775916
  O         3.0780055576        9.3938927284        2.2061078944
  O         3.0712782254       11.7967122246        2.1978687626
  O         3.3378350090       11.7975658653        5.7230145554
  O         2.0260551762        7.0569136891        6.8822582394
  O         4.4375198568        7.0571702314        1.0353836278
  O         1.9605743625        7.0567488351        4.5029393417
  O         4.4987785762        7.0577596832        3.4165435807
  O         5.1637248525       10.5735341139        6.8845664485
  O         1.2370919276       10.5816320505        1.0414662051
  O         5.1278225283       10.5997722211        4.5041433592
  O         1.2965795790       10.5981595549        3.4241877520
 Ca         8.6242570820        0.0005901535        2.2555707698
 Ca        10.5663347868        0.0007806798        5.6584455032
 Ca        11.8444223766        3.5159527413        2.2621021187
 Ca         7.3670203934        3.5184241325        5.6634620125
  S         7.4785515217        0.0029964638        5.7360608148
  S        11.7433396774        0.0000752163        2.1811886630
  S        10.6286772537        3.5224720408        5.7305705414
  S         8.5516663703        3.5214985783        2.1893536113
  O         6.5701586085        5.8540590560        5.7220508365
  O        12.6579185017        5.8558676826        2.2024848021
  O        12.6633416541        1.1926376420        2.1976667527
  O         6.5652414766        1.1969515204        5.7252989923
  O         9.7220157450        2.3164252752        5.7231868676
  O         9.4555045828        2.3173713771        2.1976580655
  O         9.4621620498        4.7200544213        2.2061260588
  O         9.7082396417        4.7156756179        5.7124930703
  O         8.4100980334        0.0004076321        6.8836040134
  O        10.8185755421        0.0000249752        1.0311054238
  O         8.3431403071        0.0140770459        4.5000217819
  O        10.8678825925        0.0008405270        3.4113920500
  O        11.5479897976        3.5403217147        6.8846257777
  O         7.6212237455        3.5322362914        1.0414280519
  O        11.5120451580        3.5140130159        4.5041584860
  O         7.6806513165        3.5156435629        3.4241261956
 Ca         8.6571878370        7.0568442235        2.2600863338
 Ca        10.5663260359        7.0568673744        5.6576768964
 Ca        11.8444655085       10.5976561617        2.2620460283
 Ca         7.3670252867       10.5953156209        5.6635646018
  S         7.4773924623        7.0569537687        5.7354131850
  S        11.7518642895        7.0566361670        2.1850327554
  S        10.6284657016       10.5915327606        5.7304019450
  S         8.5516615182       10.5923558356        2.1893525543
  O         6.5694260631       12.9194728887        5.7212593332
  O        12.6629305169       12.9209734479        2.1978445119
  O        12.6580862859        8.2573114329        2.2022443069
  O         6.5700051322        8.2597279622        5.7221435308
  O         9.7079947915        9.3983360935        5.7123958141
  O         9.4621938292        9.3938232713        2.2060975564
  O         9.4553422580       11.7966371455        2.1978361539
  O         9.7218354561       11.7977462205        5.7227822108
  O         8.4102655158        7.0569844764        6.8822613214
  O        10.8217079098        7.0559932794        1.0353898353
  O         8.3447807779        7.0573192350        4.5029417332
  O        10.8829891181        7.0571078152        3.4165307683
  O        11.5476658188       10.5735576590        6.8845308480
  O         7.6212290831       10.5816046850        1.0414360467
  O        11.5119033888       10.5997331784        4.5040585194
  O         7.6807227803       10.5982354751        3.4241806376
      96
 i =       16, E =     -1777.7925338280
 Ca         2.2513702754        0.0006830452        2.2570036980
 Ca         4.1831489235        0.0008997387        5.6574820144
 Ca         5.4605148851        3.5184018794        2.2612060330
 Ca         0.9820620248        3.5183507720        5.6651235611
  S         1.0940471594       -0.0024931462        5.7335777435
  S         5.3569355792        0.0015325365        2.1799483234
  S         4.2453883052        3.5227547261        5.7299294989
  S         2.1687104173        3.5236143966        2.1892213763
  O         0.1850870350        5.8554162750        5.7171408803
  O         6.2699751491        5.8546402696        2.2008389621
  O         6.2695996831        1.1979904486        2.1979448201
  O         0.1847267737        1.1946653128        5.7209584334
  O         3.3380688451        2.3179640883        5.7236154161
  O         3.0739457397        2.3209775628        2.1965336442
  O         3.0782008447        4.7222745739        2.2049671228
  O         3.3250294828        4.7158586983        5.7125371293
  O         2.0249525448       -0.0002005527        6.8812838321
  O         4.4336483772        0.0007342783        1.0282814776
  O         1.9582111971       -0.0126710272        4.4972772589
  O         4.4919901673        0.0055125231        3.4152765807
  O         5.1657703964        3.5401174740        6.8836073277
  O         1.2355624512        3.5341132493        1.0429434050
  O         5.1293761992        3.5136116168        4.5035837424
  O         1.3023244809        3.5160675029        3.4259145853
 Ca         2.2701260635        7.0569064962        2.2604223480
 Ca         4.1824807913        7.0568096348        5.6604214161
 Ca         5.4604302911       10.5951692924        2.2612551118
 Ca         0.9819950653       10.5955353132        5.6650464321
  S         1.0933421900        7.0568581494        5.7344011302
  S         5.3654726771        7.0569561490        2.1867376848
  S         4.2455918259       10.5910010461        5.7300175633
  S         2.1687705616       10.5904776862        2.1893232155
  O         0.1809595554       12.9171128501        5.7243244671
  O         6.2661224755       12.9161259882        2.2008266618
  O         6.2703028235        8.2590228507        2.2003687054
  O         0.1851523803        8.2583575332        5.7170805344
  O         3.3253497042        9.3978338464        5.7126861663
  O         3.0783050404        9.3918099590        2.2048982731
  O         3.0739571185       11.7932388507        2.1968351376
  O         3.3384484301       11.7957891671        5.7238557096
  O         2.0278080936        7.0569700871        6.8808103710
  O         4.4315974467        7.0572520794        1.0397214835
  O         1.9610480184        7.0566622513        4.5011731173
  O         4.4983775830        7.0573903069        3.4204048829
  O         5.1662029435       10.5737406492        6.8835773249
  O         1.2356866681       10.5797597296        1.0429822658
  O         5.1296411324       10.6002919899        4.5036720477
  O         1.3021220913       10.5975320702        3.4257709690
 Ca         8.6356718359        0.0009232741        2.2571730813
 Ca        10.5674394998        0.0015180757        5.6572551545
 Ca        11.8446174988        3.5184920555        2.2612511959
 Ca         7.3662286513        3.5182771777        5.6650003897
  S         7.4783959809        0.0044984065        5.7339226985
  S        11.7412917514        0.0000972246        2.1796279913
  S        10.6298753838        3.5230037290        5.7301297292
  S         8.5529396661        3.5235087046        2.1892686893
  O         6.5695238493        5.8554866813        5.7170278243
  O        12.6544535319        5.8544349357        2.2009562765
  O        12.6523345721        1.1978536300        2.1997322658
  O         6.5639729813        1.1975952407        5.7257962406
  O         9.7225293370        2.3184177374        5.7240950044
  O         9.4582863951        2.3209340960        2.1965141436
  O         9.4624402567        4.7221780008        2.2049698219
  O         9.7096051595        4.7161448808        5.7126781628
  O         8.4090842202        0.0008324350        6.8817738374
  O        10.8184011307       -0.0000210271        1.0276612601
  O         8.3431878240        0.0198732787        4.4980502815
  O        10.8756882672        0.0007157024        3.4144276799
  O        11.5504685461        3.5401913586        6.8836849984
  O         7.6198152988        3.5340854868        1.0429571099
  O        11.5138509949        3.5135341637        4.5037382951
  O         7.6865212946        3.5162009343        3.4259087711
 Ca         8.6543293143        7.0567518342        2.2604311991
 Ca        10.5666920729        7.0568862909        5.6604326788
 Ca        11.8448084465       10.5952314635        2.2611934317
 Ca         7.3662545055       10.5954742064        5.6651528737
  S         7.4775522593        7.0571029967        5.7343965234
  S        11.7496797995        7.0565399964        2.1867464589
  S        10.6295198589       10.5912494447        5.7298512899
  S         8.5529286010       10.5903994740        2.1892735854
  O         6.5703486238       12.9200430870        5.7198316652
  O        12.6517466202       12.9157117748        2.2000251052
  O        12.6542462969        8.2588115320        2.2002450877
  O         6.5691171419        8.2584203457        5.7171538236
  O         9.7092446148        9.3980778849        5.7125220056
  O         9.4624595488        9.3917452338        2.2048987046
  O         9.4579890935       11.7932403706        2.1968722315
  O         9.7222501544       11.7961456665        5.7235150264
  O         8.4120235233        7.0572166037        6.8808012173
  O        10.8158206205        7.0561853539        1.0397234201
  O         8.3452529995        7.0577716535        4.5011656259
  O        10.8825864871        7.0569064501        3.4204120855
  O        11.5499333676       10.5738180575        6.8835172762
  O         7.6198250508       10.5797609805        1.0429638499
  O        11.5135965213       10.6002509474        4.5035563428
  O         7.6863594300       10.5977263762        3.4258140627
      96
 i =       17, E =     -1777.7928483762
 Ca         2.2576872124        0.0006573293        2.2568820114
 Ca         4.1860270810        0.0009629204        5.6576942688
 Ca         5.4616754337        3.5179839286        2.2614488688
 Ca         0.9842270914        3.5180709374        5.6650036905
  S         1.0962121608       -0.0036262219        5.7336954005
  S         5.3604247893        0.0018303912        2.1799055452
  S         4.2449730657        3.5222945719        5.7300026279
  S         2.1718688585        3.5240402520        2.1885291610
  O         0.1870280578        5.8550531933        5.7205284986
  O         6.2719842629        5.8546860637        2.2017802719
  O         6.2728357203        1.1981540003        2.1953041771
  O         0.1871725299        1.1939176873        5.7203407704
  O         3.3371350018        2.3176975987        5.7233620763
  O         3.0771305300        2.3212994317        2.1953352133
  O         3.0811697964        4.7227049855        2.2050123337
  O         3.3251923588        4.7159473999        5.7120726036
  O         2.0286744343       -0.0003677013        6.8801360668
  O         4.4351907923        0.0007937226        1.0295915791
  O         1.9588627651       -0.0172532012        4.4963842817
  O         4.4968622586        0.0070986062        3.4155011835
  O         5.1647747801        3.5401198493        6.8840619710
  O         1.2374906836        3.5339749643        1.0432397115
  O         5.1293966054        3.5130481452        4.5038115810
  O         1.3043958200        3.5172084340        3.4234062743
 Ca         2.2715326103        7.0569965359        2.2601851953
 Ca         4.1848885871        7.0568575137        5.6608968273
 Ca         5.4614593407       10.5957348087        2.2615425120
 Ca         0.9841234642       10.5959117866        5.6648623410
  S         1.0947933738        7.0568340397        5.7353031648
  S         5.3671588507        7.0569805202        2.1856654455
  S         4.2452864816       10.5914196973        5.7301634791
  S         2.1719194003       10.5900791100        2.1887024646
  O         0.1817170385       12.9169498397        5.7250356778
  O         6.2710539331       12.9175652678        2.1963161429
  O         6.2724836118        8.2588981072        2.2018223207
  O         0.1871462587        8.2587145360        5.7203842972
  O         3.3256603179        9.3976823367        5.7122911319
  O         3.0812355305        9.3913703473        2.2050352235
  O         3.0771433106       11.7929285446        2.1956029531
  O         3.3376706297       11.7959649166        5.7236832034
  O         2.0263985879        7.0570566812        6.8838094746
  O         4.4367024469        7.0573427764        1.0360136264
  O         1.9640099633        7.0562595992        4.5029663141
  O         4.4996527264        7.0574889186        3.4189227895
  O         5.1654187295       10.5737629172        6.8840582281
  O         1.2376069269       10.5799160767        1.0433227579
  O         5.1297742441       10.6008336127        4.5039658875
  O         1.3044115925       10.5964209736        3.4235108933
 Ca         8.6419477708        0.0012373377        2.2571786229
 Ca        10.5703210254        0.0021763799        5.6574046469
 Ca        11.8456559347        3.5179874164        2.2615465130
 Ca         7.3684084992        3.5180076779        5.6648530374
  S         7.4804899044        0.0054969146        5.7344518849
  S        11.7446700323        0.0000691019        2.1794277666
  S        10.6295688087        3.5226819004        5.7302808958
  S         8.5560953430        3.5239505188        2.1885893465
  O         6.5716003958        5.8551763025        5.7203803500
  O        12.6564395802        5.8543601976        2.2018602514
  O        12.6563590447        1.1971516453        2.1960659044
  O         6.5649120106        1.1978330668        5.7264059697
  O         9.7217510558        2.3183472935        5.7239165937
  O         9.4615040404        2.3213072056        2.1952359564
  O         9.4653889125        4.7226468218        2.2050407279
  O         9.7098985453        4.7163735176        5.7123031718
  O         8.4126773846        0.0014484652        6.8810668396
  O        10.8201301369        0.0000231877        1.0286051731
  O         8.3441859322        0.0223623647        4.4979237796
  O        10.8800489942        0.0008674206        3.4142100383
  O        11.5496749065        3.5402024330        6.8841698024
  O         7.6217377929        3.5339783569        1.0432626773
  O        11.5139780972        3.5129972602        4.5040341825
  O         7.6886092655        3.5174000358        3.4234206870
 Ca         8.6557371009        7.0567913090        2.2601906393
 Ca        10.5690937682        7.0569778043        5.6609074525
 Ca        11.8459201703       10.5957393327        2.2614810527
 Ca         7.3684387390       10.5958653709        5.6650079936
  S         7.4790062449        7.0572351602        5.7352969089
  S        11.7513675372        7.0564570329        2.1856721349
  S        10.6290785866       10.5917889582        5.7299213082
  S         8.5560880498       10.5900176684        2.1886221960
  O         6.5725450031       12.9207933882        5.7195241768
  O        12.6559935863       12.9165240112        2.1959724840
  O        12.6564542515        8.2585666099        2.2017570496
  O         6.5709973499        8.2588408818        5.7205330436
  O         9.7093842548        9.3980570811        5.7120647551
  O         9.4654031498        9.3913335253        2.2050174896
  O         9.4611658979       11.7929724117        2.1956938174
  O         9.7213395189       11.7965327429        5.7232163089
  O         8.4106037625        7.0576188633        6.8838072643
  O        10.8209225159        7.0560094929        1.0360165161
  O         8.3482126065        7.0580172071        4.5029519039
  O        10.8838558667        7.0568838035        3.4189212301
  O        11.5489411876       10.5738458048        6.8839580366
  O         7.6217584057       10.5799153183        1.0432817025
  O        11.5135965112       10.6007944038        4.5037846999
  O         7.6885753433       10.5966904630        3.4234649524
      96
 i =       18, E =     -1777.7929121281
 Ca         2.2602560458        0.0006099557        2.2551207858
 Ca         4.1856070181        0.0007902829        5.6585973055
 Ca         5.4612309884        3.5182846117        2.2599423679
 Ca         0.9839210208        3.5185396569        5.6638741431
  S         1.0955057959       -0.0045270269        5.7332922251
  S         5.3585866368        0.0023051678        2.1818241610
  S         4.2453290645        3.5224991372        5.7302937334
  S         2.1697624254        3.5243979229        2.1876816416
  O         0.1871029635        5.8547862884        5.7211422479
  O         6.2709445334        5.8549896154        2.2023835206
  O         6.2710493607        1.1982725550        2.1937735855
  O         0.1873050105        1.1940259407        5.7197896824
  O         3.3371074137        2.3181590134        5.7232934594
  O         3.0747504914        2.3212207055        2.1934985841
  O         3.0803528116        4.7223139664        2.2043516839
  O         3.3261890552        4.7167435968        5.7129642316
  O         2.0286554835       -0.0008766671        6.8788591151
  O         4.4307517203        0.0006173660        1.0330877299
  O         1.9596076538       -0.0188648559        4.4969860420
  O         4.4928783728        0.0100955783        3.4158657613
  O         5.1650872984        3.5399739454        6.8844988892
  O         1.2369315790        3.5345895051        1.0414053867
  O         5.1299685058        3.5135519881        4.5040759303
  O         1.3003296782        3.5174685503        3.4207325403
 Ca         2.2723800415        7.0570403600        2.2596850062
 Ca         4.1836346517        7.0568985942        5.6602060880
 Ca         5.4610449023       10.5955651565        2.2599790253
 Ca         0.9836897354       10.5954408341        5.6637378550
  S         1.0945476883        7.0567890845        5.7354413164
  S         5.3652220907        7.0571225793        2.1856426571
  S         4.2458047201       10.5911357597        5.7305552721
  S         2.1698640446       10.5896972484        2.1878601974
  O         0.1806688557       12.9160213933        5.7254486457
  O         6.2694182913       12.9183495107        2.1966930768
  O         6.2713091465        8.2589682216        2.2020503628
  O         0.1873912552        8.2590039093        5.7208741772
  O         3.3268828271        9.3967677882        5.7132492691
  O         3.0804156200        9.3916890815        2.2043796994
  O         3.0749349538       11.7928891149        2.1936617393
  O         3.3378039952       11.7953098827        5.7236924336
  O         2.0272364314        7.0571306385        6.8831899466
  O         4.4341902084        7.0573406738        1.0364352271
  O         1.9624605724        7.0558788716        4.5019453162
  O         4.4972568497        7.0575145128        3.4193467200
  O         5.1659792773       10.5738785185        6.8845511655
  O         1.2370699828       10.5793138051        1.0414975369
  O         5.1304731123       10.6003906462        4.5042803687
  O         1.3002883716       10.5960605681        3.4207610943
 Ca         8.6444645664        0.0016651893        2.2556089178
 Ca        10.5697998911        0.0029599414        5.6581965067
 Ca        11.8452589667        3.5181881962        2.2599704726
 Ca         7.3679834124        3.5186059303        5.6637546194
  S         7.4796522347        0.0056612915        5.7344890007
  S        11.7426279325        0.0000649763        2.1809568442
  S        10.6300903247        3.5230340775        5.7306459402
  S         8.5539885180        3.5243605337        2.1877526354
  O         6.5718668239        5.8549716137        5.7209244755
  O        12.6553474934        5.8545552891        2.2024570481
  O        12.6546682150        1.1966575546        2.1951725569
  O         6.5644699888        1.1985809093        5.7262923314
  O         9.7218940201        2.3190553726        5.7238197346
  O         9.4591727261        2.3213266722        2.1933186671
  O         9.4645815178        4.7223082346        2.2043859691
  O         9.7111060822        4.7173253521        5.7133237177
  O         8.4122933764        0.0026421366        6.8804016614
  O        10.8156922717        0.0000730703        1.0315727395
  O         8.3445291981        0.0201940095        4.4988195353
  O        10.8752959142        0.0011449190        3.4137808158
  O        11.5502101591        3.5400507903        6.8846550642
  O         7.6211896492        3.5346090930        1.0414277817
  O        11.5146924011        3.5134840338        4.5043451665
  O         7.6845716678        3.5176999493        3.4207714264
 Ca         8.6565904977        7.0568641234        2.2596839275
 Ca        10.5678412513        7.0571478465        5.6602032868
 Ca        11.8454705881       10.5955362293        2.2599841649
 Ca         7.3681341506       10.5955484199        5.6638924551
  S         7.4787607701        7.0573880728        5.7354290173
  S        11.7494308254        7.0565285316        2.1856391568
  S        10.6294551090       10.5916341973        5.7302304433
  S         8.5540431383       10.5896756349        2.1877560822
  O         6.5718791620       12.9204624506        5.7197656768
  O        12.6541796152       12.9169486587        2.1950448400
  O        12.6553167604        8.2585404456        2.2019405047
  O         6.5710661448        8.2592014204        5.7210720220
  O         9.7103851156        9.3973039576        5.7129158471
  O         9.4645810012        9.3916904732        2.2043605657
  O         9.4589289373       11.7930077760        2.1938187325
  O         9.7213952706       11.7961414214        5.7231272450
  O         8.4114472176        7.0582054362        6.8831771896
  O        10.8183860415        7.0561037760        1.0364456602
  O         8.3466757942        7.0577247779        4.5019334891
  O        10.8814699507        7.0568674384        3.4193429226
  O        11.5492985335       10.5739574282        6.8844029278
  O         7.6212371583       10.5793222001        1.0414344689
  O        11.5141430296       10.6003191309        4.5040193410
  O         7.6844472000       10.5964154610        3.4206865462
      96
 i =       19, E =     -1777.7930080892
 Ca         2.2635557938        0.0007186682        2.2541676699
 Ca         4.1875545345        0.0006519162        5.6591796769
 Ca         5.4621991689        3.5178005145        2.2599745745
 Ca         0.9846163570        3.5187469817        5.6630352067
  S         1.0973227865       -0.0055094564        5.7330179901
  S         5.3623153892        0.0032819425        2.1827884461
  S         4.2453945650        3.5222713170        5.7304802040
  S         2.1707910004        3.5245192963        2.1874591952
  O         0.1867468854        5.8546245117        5.7208202511
  O         6.2716813818        5.8550735588        2.2024738718
  O         6.2749018693        1.1990267991        2.1930007590
  O         0.1893711244        1.1935529887        5.7196570404
  O         3.3374061872        2.3176328975        5.7231775423
  O         3.0765673175        2.3218007511        2.1929311318
  O         3.0807007603        4.7228240723        2.2042859587
  O         3.3261008969        4.7165356963        5.7131670071
  O         2.0317695659       -0.0016855208        6.8774494524
  O         4.4309922444        0.0005005335        1.0363465205
  O         1.9611963684       -0.0211618247        4.4966200293
  O         4.4973272031        0.0137514386        3.4173408185
  O         5.1649137158        3.5399060262        6.8847295302
  O         1.2379843633        3.5340532351        1.0412567197
  O         5.1302383049        3.5136704421        4.5042979660
  O         1.3047844762        3.5163402900        3.4225506231
 Ca         2.2723150951        7.0570446867        2.2599565053
 Ca         4.1831393336        7.0568992872        5.6592248945
 Ca         5.4621312917       10.5961057066        2.2599610850
 Ca         0.9842039953       10.5951041339        5.6629366559
  S         1.0941061332        7.0567535589        5.7355212278
  S         5.3655766172        7.0572278617        2.1857224961
  S         4.2460699146       10.5912659182        5.7308408994
  S         2.1709510387       10.5896089069        2.1876708284
  O         0.1815846595       12.9155528834        5.7262293090
  O         6.2726808004       12.9189863287        2.1986007310
  O         6.2721393597        8.2590264947        2.2023352219
  O         0.1872260316        8.2592199672        5.7204447130
  O         3.3270923948        9.3968207134        5.7135485173
  O         3.0808030181        9.3911858763        2.2042911976
  O         3.0769113985       11.7922820402        2.1931431919
  O         3.3382990414       11.7956098842        5.7236511208
  O         2.0275743387        7.0572162901        6.8825947555
  O         4.4341570331        7.0573604257        1.0370782729
  O         1.9613546373        7.0556302033        4.5014721518
  O         4.4970509448        7.0576678831        3.4187319107
  O         5.1660518134       10.5739066273        6.8848579337
  O         1.2381983480       10.5799198849        1.0413567880
  O         5.1309092014       10.6003753599        4.5045434272
  O         1.3047251001       10.5971372211        3.4225440081
 Ca         8.6477304222        0.0022780571        2.2547566564
 Ca        10.5715870555        0.0040126407        5.6584886540
 Ca        11.8463319250        3.5176689681        2.2599224846
 Ca         7.3684830151        3.5190354684        5.6629846532
  S         7.4813846801        0.0062760910        5.7342892694
  S        11.7462776777        0.0001040108        2.1812142177
  S        10.6303611866        3.5229754583        5.7309124675
  S         8.5550278385        3.5245311110        2.1875361349
  O         6.5717579445        5.8549039187        5.7206439081
  O        12.6560757769        5.8545408127        2.2026053280
  O        12.6583006012        1.1966625737        2.1956953215
  O         6.5657128553        1.1989833815        5.7267363554
  O         9.7223577216        2.3188345097        5.7237285770
  O         9.4610671938        2.3220021230        2.1927347837
  O         9.4649634849        4.7228555516        2.2043121895
  O         9.7113269847        4.7173220690        5.7136869745
  O         8.4150151184        0.0042071828        6.8793120720
  O        10.8164093830        0.0001594599        1.0337236318
  O         8.3453857519        0.0210540139        4.4980204408
  O        10.8786113910        0.0015095082        3.4137587435
  O        11.5502763811        3.5399571220        6.8849503639
  O         7.6222813907        3.5340857651        1.0412664321
  O        11.5151420597        3.5135439834        4.5046164076
  O         7.6890558156        3.5165989098        3.4225972611
 Ca         8.6565277063        7.0569110240        2.2599480801
 Ca        10.5673487478        7.0573148979        5.6592112345
 Ca        11.8464598239       10.5960504296        2.2599810341
 Ca         7.3687934900       10.5954763849        5.6630670738
  S         7.4783162027        7.0576329412        5.7355047286
  S        11.7497808778        7.0565367925        2.1857088727
  S        10.6295325617       10.5919379426        5.7304283602
  S         8.5551145730       10.5896271945        2.1875438242
  O         6.5735078774       12.9208351551        5.7200859711
  O        12.6575180418       12.9168438337        2.1956586524
  O        12.6561611665        8.2584884096        2.2021582265
  O         6.5706607430        8.2595179259        5.7205975486
  O         9.7102908692        9.3975787708        5.7130754877
  O         9.4649377489        9.3912210142        2.2042683879
  O         9.4608166214       11.7924863264        2.1933119894
  O         9.7217935732       11.7967835042        5.7230139450
  O         8.4117945344        7.0591437646        6.8825668929
  O        10.8183470039        7.0562135961        1.0370793689
  O         8.3455764522        7.0577376465        4.5014633712
  O        10.8812676289        7.0568807812        3.4187241193
  O        11.5491584378       10.5739940264        6.8846335187
  O         7.6223213901       10.5799394955        1.0412910380
  O        11.5143928639       10.6002554855        4.5042060320
  O         7.6888822944       10.5975520787        3.4224671017
      96
 i =       20, E =     -1777.7930206524
 Ca         2.2655018134        0.0009658816        2.2547283091
 Ca         4.1884983161        0.0003618485        5.6608751564
 Ca         5.4611486296        3.5179621864        2.2607181717
 Ca         0.9856071890        3.5183219319        5.6632152161
  S         1.0985596673       -0.0061618014        5.7325637642
  S         5.3617403363        0.0050154699        2.1850890821
  S         4.2456154274        3.5219563235        5.7304625117
  S         2.1712576395        3.5247068836        2.1871587140
  O         0.1869810249        5.8549352988        5.7194312179
  O         6.2718932472        5.8543972413        2.2015851412
  O         6.2742528682        1.2003232006        2.1923792585
  O         0.1902710361        1.1929655191        5.7198098815
  O         3.3370903356        2.3176737224        5.7231067737
  O         3.0781251924        2.3227076726        2.1929998004
  O         3.0805319519        4.7234350579        2.2050394210
  O         3.3262362584        4.7162538584        5.7128328834
  O         2.0328140728       -0.0031591299        6.8768205848
  O         4.4287749206        0.0003745329        1.0395789868
  O         1.9612541727       -0.0215602336        4.4956460389
  O         4.5004743498        0.0187749911        3.4221706030
  O         5.1649526681        3.5395989478        6.8847884474
  O         1.2379693792        3.5339399666        1.0413269502
  O         5.1306170081        3.5130853081        4.5043089636
  O         1.3052468174        3.5154264751        3.4217041433
 Ca         2.2715501024        7.0570106469        2.2604869833
 Ca         4.1843042495        7.0568845959        5.6599378195
 Ca         5.4613104779       10.5962160606        2.2608021680
 Ca         0.9849604050       10.5952009179        5.6631737525
  S         1.0946268219        7.0567240011        5.7353873333
  S         5.3665698024        7.0572709991        2.1856921647
  S         4.2465294643       10.5914534357        5.7309023348
  S         2.1714720199       10.5894963136        2.1874721537
  O         0.1821730256       12.9153173270        5.7265536070
  O         6.2706118298       12.9200812425        2.1999328172
  O         6.2723484465        8.2597898096        2.2018492803
  O         0.1876341534        8.2589708268        5.7189253808
  O         3.3275707491        9.3969234028        5.7133665352
  O         3.0807058663        9.3906452599        2.2050425602
  O         3.0785064926       11.7914956029        2.1934576122
  O         3.3382339999       11.7953200963        5.7235636505
  O         2.0266180574        7.0571092102        6.8835780019
  O         4.4356675154        7.0573872273        1.0367824214
  O         1.9633258230        7.0555973474        4.5024711349
  O         4.4975453581        7.0577861973        3.4186665426
  O         5.1662928780       10.5741612644        6.8850106438
  O         1.2382995968       10.5801415711        1.0414707482
  O         5.1315207654       10.6010308909        4.5046000662
  O         1.3053326833       10.5980942829        3.4218581147
 Ca         8.6496719052        0.0031901248        2.2550834442
 Ca        10.5723980890        0.0054758502        5.6593970308
 Ca        11.8454047252        3.5177389079        2.2606453702
 Ca         7.3691655614        3.5189324441        5.6632655353
  S         7.4824653389        0.0068415809        5.7333294709
  S        11.7456149986        0.0002243993        2.1823058612
  S        10.6308325883        3.5228513431        5.7309561124
  S         8.5555076382        3.5247807819        2.1872284858
  O         6.5722215176        5.8554747886        5.7192917711
  O        12.6562257460        5.8537951246        2.2017757433
  O        12.6570883461        1.1967499918        2.1966307001
  O         6.5663204904        1.1992733370        5.7266480325
  O         9.7222177084        2.3192072225        5.7236901059
  O         9.4626612509        2.3229630064        2.1927459015
  O         9.4648517994        4.7234991694        2.2050617085
  O         9.7118485093        4.7172651112        5.7135309156
  O         8.4159031185        0.0066628853        6.8782081156
  O        10.8156496696        0.0003328520        1.0346017402
  O         8.3447642718        0.0213328844        4.4960452662
  O        10.8795719807        0.0021506755        3.4157900076
  O        11.5505187107        3.5396166959        6.8850923679
  O         7.6223101333        3.5340200516        1.0413267308
  O        11.5157596656        3.5129132780        4.5046820646
  O         7.6895803323        3.5157403236        3.4217706327
 Ca         8.6557572599        7.0569382578        2.2604858891
 Ca        10.5685151914        7.0574911665        5.6599198058
 Ca        11.8454697696       10.5960173530        2.2607265577
 Ca         7.3696884760       10.5959429992        5.6632145753
  S         7.4788286337        7.0580621572        5.7353549052
  S        11.7507771667        7.0565575450        2.1856784501
  S        10.6297745419       10.5923645303        5.7304146025
  S         8.5556166630       10.5895698584        2.1873075623
  O         6.5743546679       12.9212821156        5.7202884358
  O        12.6557417521       12.9166310541        2.1967914132
  O        12.6564620052        8.2591647730        2.2017172157
  O         6.5708345449        8.2595302603        5.7190642931
  O         9.7103921478        9.3979869443        5.7127127472
  O         9.4647684211        9.3906977965        2.2050185527
  O         9.4623775605       11.7917325791        2.1935253734
  O         9.7216665254       11.7969461197        5.7229833151
  O         8.4108929236        7.0605687288        6.8834790459
  O        10.8199002238        7.0563948424        1.0367525757
  O         8.3475602021        7.0579887549        4.5024663444
  O        10.8817422821        7.0569683087        3.4186411384
  O        11.5492191282       10.5742529040        6.8846893426
  O         7.6223110617       10.5801747215        1.0414191496
  O        11.5147872139       10.6008689678        4.5041904325
  O         7.6894590021       10.5985381916        3.4217409762
      96
 i =       21, E =     -1777.7931394636
 Ca         2.2657304041        0.0015943452        2.2555927284
 Ca         4.1889914597       -0.0000746473        5.6633748631
 Ca         5.4604363072        3.5181265743        2.2607633151
 Ca         0.9859847376        3.5178947535        5.6632382401
  S         1.0992790146       -0.0066205857        5.7324950906
  S         5.3610001721        0.0070425352        2.1883406892
  S         4.2458845304        3.5219623789        5.7305961171
  S         2.1708751361        3.5245388183        2.1867622114
  O         0.1871925032        5.8549366006        5.7196056226
  O         6.2720939698        5.8544899832        2.2018253436
  O         6.2735125185        1.2019164721        2.1910887283
  O         0.1907075570        1.1926995262        5.7202248806
  O         3.3372065743        2.3177631546        5.7231697260
  O         3.0780727188        2.3227226712        2.1921602662
  O         3.0799008075        4.7234923993        2.2045827869
  O         3.3265852480        4.7164153024        5.7129546144
  O         2.0339472653       -0.0054923739        6.8762554490
  O         4.4244828247        0.0005434278        1.0452486029
  O         1.9614678264       -0.0200209059        4.4956725553
  O         4.5015041982        0.0237869185        3.4268087497
  O         5.1651942153        3.5395325382        6.8848822955
  O         1.2371385468        3.5339294656        1.0413268378
  O         5.1310556194        3.5131518040        4.5045116784
  O         1.3050171555        3.5139441767        3.4211142141
 Ca         2.2715642781        7.0570001756        2.2602327792
 Ca         4.1843712365        7.0568711856        5.6602829209
 Ca         5.4607814813       10.5965771476        2.2609358705
 Ca         0.9850302385       10.5952160094        5.6632660385
  S         1.0948648447        7.0566836534        5.7352877220
  S         5.3666419404        7.0574325820        2.1855441685
  S         4.2470778067       10.5913031419        5.7311545032
  S         2.1712264211       10.5898805056        2.1871845049
  O         0.1827848796       12.9148783057        5.7263761750
  O         6.2695708914       12.9222082981        2.2003517373
  O         6.2723638822        8.2601397159        2.2016691645
  O         0.1879722266        8.2589900435        5.7193157490
  O         3.3283681512        9.3965387939        5.7136932112
  O         3.0801751349        9.3907594826        2.2046037107
  O         3.0784273706       11.7919072730        2.1928602088
  O         3.3386373560       11.7949602791        5.7235229734
  O         2.0268291384        7.0566671555        6.8834204279
  O         4.4352490994        7.0574085595        1.0370474055
  O         1.9635479126        7.0558558796        4.5023879475
  O         4.4983244206        7.0581851570        3.4193292426
  O         5.1667479846       10.5742425761        6.8852348835
  O         1.2376728339       10.5802978342        1.0415262199
  O         5.1322664629       10.6010955951        4.5049145465
  O         1.3050345660       10.5995473094        3.4211983229
 Ca         8.6502077647        0.0046085960        2.2550483454
 Ca        10.5728871777        0.0077115598        5.6605545161
 Ca        11.8448227525        3.5176338753        2.2606544883
 Ca         7.3691709361        3.5188385541        5.6633884480
  S         7.4830081532        0.0075045375        5.7326304546
  S        11.7448609312        0.0005083129        2.1841790142
  S        10.6314069963        3.5231386979        5.7311892161
  S         8.5551230561        3.5246991415        2.1868273282
  O         6.5726936178        5.8559490156        5.7198226969
  O        12.6563430056        5.8537993578        2.2019630288
  O        12.6566791208        1.1963859047        2.1966928728
  O         6.5666195881        1.1998569189        5.7262436401
  O         9.7225114053        2.3197369624        5.7236633887
  O         9.4626053628        2.3230072793        2.1919366232
  O         9.4642951309        4.7235848416        2.2046077369
  O         9.7126835366        4.7177440397        5.7139147689
  O         8.4173783703        0.0101107883        6.8766438669
  O        10.8137315141        0.0006964790        1.0370659426
  O         8.3450123169        0.0200203704        4.4954747485
  O        10.8801481308        0.0037265725        3.4187974471
  O        11.5509769149        3.5395135905        6.8853124776
  O         7.6215536353        3.5340820481        1.0413043923
  O        11.5164918240        3.5128980530        4.5049911103
  O         7.6893988746        3.5143709117        3.4211979748
 Ca         8.6557711548        7.0569962336        2.2602175806
 Ca        10.5685826924        7.0577517903        5.6602609242
 Ca        11.8447530986       10.5961437042        2.2608377928
 Ca         7.3699923815       10.5963163431        5.6632026203
  S         7.4790477166        7.0587444187        5.7351725491
  S        11.7508566796        7.0567023727        2.1855221656
  S        10.6300642698       10.5925520485        5.7305505999
  S         8.5553402409       10.5899871287        2.1869761422
  O         6.5750514556       12.9214860930        5.7205948640
  O        12.6546765617       12.9170949322        2.1968828478
  O        12.6565273142        8.2594665068        2.2014608157
  O         6.5708677682        8.2600039491        5.7190865429
  O         9.7106990096        9.3980351409        5.7127581225
  O         9.4641394356        9.3907899296        2.2045612844
  O         9.4623265996       11.7920524469        2.1928937475
  O         9.7220379695       11.7971948816        5.7229610479
  O         8.4111533809        7.0624932149        6.8831631168
  O        10.8194788155        7.0567077559        1.0370194212
  O         8.3477389071        7.0581197844        4.5022882483
  O        10.8825354735        7.0571410152        3.4193030545
  O        11.5494730018       10.5743014062        6.8847781630
  O         7.6215171173       10.5803410813        1.0414944329
  O        11.5152651713       10.6009038828        4.5043797017
  O         7.6891478009       10.6000093183        3.4210662638
      96
 i =       22, E =     -1777.7931675328
 Ca         2.2623680416        0.0025172051        2.2567418358
 Ca         4.1886969910       -0.0004739256        5.6651702322
 Ca         5.4596552260        3.5185186418        2.2606537642
 Ca         0.9858770264        3.5176072088        5.6634369507
  S         1.0987392247       -0.0064494434        5.7326756435
  S         5.3594065253        0.0076030755        2.1891561637
  S         4.2459777924        3.5220654727        5.7306985965
  S         2.1700617064        3.5242842242        2.1867761053
  O         0.1872399343        5.8548036585        5.7201783175
  O         6.2715689646        5.8546692455        2.2015701902
  O         6.2708361515        1.2031865531        2.1908834041
  O         0.1901077218        1.1929569830        5.7208164486
  O         3.3375032871        2.3178020756        5.7234954522
  O         3.0771181613        2.3224702940        2.1920053696
  O         3.0793767955        4.7231255228        2.2047013152
  O         3.3266373187        4.7164585785        5.7129475203
  O         2.0328476921       -0.0074763845        6.8769397704
  O         4.4228538860        0.0010566308        1.0462724648
  O         1.9604960293       -0.0176033816        4.4959010509
  O         4.4969167900        0.0201456795        3.4254077422
  O         5.1653576458        3.5397566675        6.8849192223
  O         1.2364759285        3.5343011214        1.0412640851
  O         5.1311431596        3.5134154490        4.5046943276
  O         1.3032844725        3.5132158705        3.4206194957
 Ca         2.2715174245        7.0570750722        2.2598929995
 Ca         4.1841670354        7.0568620576        5.6604918180
 Ca         5.4602183292       10.5968644827        2.2608470450
 Ca         0.9847229148       10.5952924010        5.6635540948
  S         1.0948518355        7.0565532971        5.7351836043
  S         5.3661581770        7.0575389304        2.1853954990
  S         4.2473274648       10.5911493348        5.7313157704
  S         2.1704826775       10.5904051016        2.1872959526
  O         0.1828359315       12.9147450084        5.7256560836
  O         6.2691824604       12.9237393082        2.2006190163
  O         6.2720247976        8.2600402864        2.2017469459
  O         0.1879107115        8.2588318695        5.7198787976
  O         3.3287000111        9.3964009936        5.7138200446
  O         3.0797231713        9.3913929162        2.2047277146
  O         3.0774390015       11.7926250805        2.1931294393
  O         3.3390433805       11.7948179567        5.7236672228
  O         2.0269478714        7.0558441352        6.8831822657
  O         4.4349400479        7.0577183790        1.0367491822
  O         1.9631862759        7.0561752441        4.5021012969
  O         4.4981830756        7.0582298922        3.4195262726
  O         5.1669301777       10.5741196710        6.8853744672
  O         1.2371724651       10.5801036361        1.0414905917
  O         5.1325709585       10.6009450919        4.5051949135
  O         1.3033249516       10.6003797504        3.4207523678
 Ca         8.6474853782        0.0058933677        2.2551472634
 Ca        10.5727610488        0.0097323924        5.6615638104
 Ca        11.8443272803        3.5176278524        2.2605758815
 Ca         7.3688644299        3.5187381320        5.6636762991
  S         7.4825970078        0.0078191165        5.7323857902
  S        11.7435810374        0.0010343666        2.1859248132
  S        10.6316793588        3.5234885629        5.7313447515
  S         8.5542999418        3.5244807745        2.1868370908
  O         6.5728413608        5.8565409994        5.7206876085
  O        12.6558097625        5.8539886105        2.2017115973
  O        12.6559807143        1.1963044397        2.1965095635
  O         6.5662006806        1.2000861069        5.7256024933
  O         9.7227941252        2.3201308460        5.7237806306
  O         9.4615929526        2.3226642149        2.1918251958
  O         9.4638504068        4.7231713592        2.2047084017
  O         9.7130317638        4.7180407329        5.7140553161
  O         8.4168384186        0.0122506876        6.8765700440
  O        10.8113336227        0.0011664585        1.0396610890
  O         8.3447360150        0.0187487841        4.4956090315
  O        10.8805138468        0.0063501271        3.4220865460
  O        11.5511605023        3.5397304219        6.8854572482
  O         7.6209605015        3.5344426458        1.0412246010
  O        11.5167567288        3.5131170716        4.5052550571
  O         7.6877024839        3.5136793988        3.4207196522
 Ca         8.6557154848        7.0570980686        2.2598652681
 Ca        10.5683963887        7.0579450881        5.6604715938
 Ca        11.8441747848       10.5961909205        2.2607978921
 Ca         7.3699444094       10.5965260324        5.6634070642
  S         7.4790054646        7.0595049204        5.7349269332
  S        11.7503781133        7.0568337795        2.1853651413
  S        10.6301597927       10.5926581900        5.7306457446
  S         8.5545810014       10.5905497653        2.1870722992
  O         6.5750246936       12.9214479993        5.7208196456
  O        12.6532855386       12.9176629449        2.1970333083
  O        12.6562246814        8.2593654360        2.2015764209
  O         6.5706682605        8.2605694449        5.7194501368
  O         9.7107233292        9.3982008447        5.7126889092
  O         9.4636373367        9.3914218332        2.2046987961
  O         9.4613136353       11.7927204911        2.1929472474
  O         9.7224980078       11.7974758197        5.7231673522
  O         8.4114060068        7.0647979065        6.8826080542
  O        10.8191714401        7.0569595143        1.0367116552
  O         8.3473538888        7.0581775259        4.5018771616
  O        10.8823919768        7.0572739144        3.4194862257
  O        11.5496090803       10.5740967123        6.8848112691
  O         7.6209131488       10.5801514815        1.0414689735
  O        11.5154075848       10.6007342147        4.5045694973
  O         7.6874074653       10.6008456614        3.4206062133
      96
 i =       23, E =     -1777.7932358724
 Ca         2.2618759927        0.0039349417        2.2570165895
 Ca         4.1894107573       -0.0012592716        5.6667168780
 Ca         5.4596668706        3.5191824770        2.2602819282
 Ca         0.9858278693        3.5177013063        5.6632499529
  S         1.0986486911       -0.0070075977        5.7324515120
  S         5.3592111480        0.0082986765        2.1897207787
  S         4.2461741710        3.5221340345        5.7308310306
  S         2.1701432054        3.5244305428        2.1866955034
  O         0.1868560918        5.8544743094        5.7203827141
  O         6.2712379178        5.8552493921        2.2017242842
  O         6.2688050990        1.2051264421        2.1900052288
  O         0.1908763646        1.1932377401        5.7213672558
  O         3.3381234508        2.3176988788        5.7238405036
  O         3.0771895199        2.3228411188        2.1915508520
  O         3.0795183090        4.7231976779        2.2048028733
  O         3.3267306253        4.7163866780        5.7131278034
  O         2.0329775944       -0.0103897066        6.8767416697
  O         4.4237052459        0.0015800115        1.0461235954
  O         1.9599758462       -0.0178133907        4.4957258899
  O         4.4975070799        0.0189986102        3.4265112650
  O         5.1655491903        3.5399821052        6.8850591273
  O         1.2368387102        3.5347226516        1.0410211013
  O         5.1314204777        3.5136796659        4.5049347830
  O         1.3032496528        3.5131567535        3.4203516922
 Ca         2.2716943338        7.0573368790        2.2596775879
 Ca         4.1836823402        7.0569403757        5.6600724741
 Ca         5.4607213254       10.5975455395        2.2606315795
 Ca         0.9844064887       10.5951850680        5.6634570953
  S         1.0945196346        7.0560992641        5.7352412177
  S         5.3655505565        7.0578592625        2.1854688653
  S         4.2478054405       10.5910051829        5.7315469999
  S         2.1705996204       10.5906531844        2.1873569861
  O         0.1826930891       12.9144435993        5.7252811421
  O         6.2708144684       12.9257545369        2.2021747659
  O         6.2718970895        8.2599295096        2.2019221258
  O         0.1878553226        8.2585689392        5.7204868674
  O         3.3292474204        9.3963306336        5.7142224789
  O         3.0799238532        9.3917068760        2.2048477197
  O         3.0774822630       11.7928408551        2.1933215829
  O         3.3397813594       11.7946849524        5.7239176302
  O         2.0272323327        7.0538438007        6.8827907308
  O         4.4344559213        7.0584917043        1.0367688282
  O         1.9624005640        7.0561037738        4.5018299704
  O         4.4974584511        7.0582468986        3.4192880317
  O         5.1672425859       10.5740685513        6.8856609320
  O         1.2376251306       10.5799160060        1.0413157282
  O         5.1332355335       10.6007806369        4.5056065928
  O         1.3032279716       10.6005447191        3.4205461299
 Ca         8.6470648033        0.0079822939        2.2550585998
 Ca        10.5737532165        0.0134039147        5.6631540858
 Ca        11.8449592093        3.5176526067        2.2603475740
 Ca         7.3686328558        3.5191240943        5.6636000531
  S         7.4828485839        0.0086188969        5.7320776725
  S        11.7444945442        0.0023352942        2.1884937697
  S        10.6321658156        3.5240783015        5.7315811971
  S         8.5543483952        3.5247106290        2.1867666294
  O         6.5729442654        5.8575938764        5.7215401286
  O        12.6555266393        5.8544759135        2.2019880099
  O        12.6575392907        1.1969163369        2.1957009606
  O         6.5659077399        1.2003687768        5.7251066674
  O         9.7232694796        2.3208524316        5.7239633918
  O         9.4616548724        2.3229784824        2.1913576013
  O         9.4640858228        4.7231960821        2.2047819523
  O         9.7135934281        4.7185063961        5.7144931445
  O         8.4172584634        0.0146279101        6.8762752353
  O        10.8085592818        0.0019922617        1.0449492669
  O         8.3448279870        0.0192656209        4.4955060847
  O        10.8846331679        0.0126154237        3.4271923199
  O        11.5514522597        3.5399469593        6.8857525845
  O         7.6213806809        3.5347654746        1.0409811326
  O        11.5173274775        3.5134122014        4.5056417961
  O         7.6876913144        3.5136391218        3.4204718082
 Ca         8.6559125109        7.0573706476        2.2596206136
 Ca        10.5679747113        7.0583739489        5.6600315274
 Ca        11.8447490015       10.5962740744        2.2606763225
 Ca         7.3701302239       10.5966023112        5.6632146250
  S         7.4786108435        7.0609429627        5.7346752900
  S        11.7497766010        7.0570307967        2.1854392681
  S        10.6303515612       10.5929762099        5.7307548767
  S         8.5547304190       10.5909245390        2.1871371371
  O         6.5759751219       12.9216061642        5.7210561275
  O        12.6532219341       12.9183416820        2.1976431295
  O        12.6560726466        8.2591506704        2.2017262645
  O         6.5700264883        8.2616769166        5.7194033827
  O         9.7108147856        9.3986004668        5.7127648433
  O         9.4638167382        9.3918136063        2.2048205865
  O         9.4613814564       11.7929870694        2.1929562684
  O         9.7232929693       11.7980695131        5.7234488354
  O         8.4120198846        7.0690036319        6.8814905457
  O        10.8186804625        7.0572351518        1.0367312207
  O         8.3465627718        7.0582640068        4.5013771883
  O        10.8816547483        7.0574198383        3.4192324047
  O        11.5497872883       10.5739016920        6.8849205186
  O         7.6214288902       10.5800117693        1.0412375633
  O        11.5157679624       10.6005453368        4.5048014111
  O         7.6873018089       10.6011442166        3.4203769484
      96
 i =       24, E =     -1777.7931990550
 Ca         2.2623068719        0.0062888585        2.2564860512
 Ca         4.1902234865       -0.0028464707        5.6665409314
 Ca         5.4602348832        3.5200940550        2.2599365962
 Ca         0.9859396286        3.5183139615        5.6631949292
  S         1.0985595008       -0.0079012488        5.7323384639
  S         5.3599515864        0.0094137052        2.1884421591
  S         4.2463011183        3.5220267772        5.7309422315
  S         2.1707990499        3.5247391703        2.1866778658
  O         0.1860342782        5.8535288685        5.7197973602
  O         6.2712433744        5.8560579843        2.2017860072
  O         6.2675818380        1.2082152877        2.1891743260
  O         0.1924852039        1.1937601897        5.7217323517
  O         3.3386018431        2.3173653769        5.7238392280
  O         3.0774922624        2.3232154958        2.1911765837
  O         3.0801129735        4.7235112876        2.2045192814
  O         3.3267514178        4.7161058356        5.7130895016
  O         2.0323183710       -0.0128808443        6.8774452729
  O         4.4268608124        0.0022939335        1.0433053268
  O         1.9602399556       -0.0190978919        4.4960529418
  O         4.4995186373        0.0172212518        3.4262110895
  O         5.1656498132        3.5401876292        6.8852373109
  O         1.2374592370        3.5346790905        1.0410461425
  O         5.1314836581        3.5136494163        4.5050627429
  O         1.3047736680        3.5140387436        3.4210979547
 Ca         2.2718422032        7.0577995692        2.2598499787
 Ca         4.1833748098        7.0570768214        5.6598113189
 Ca         5.4620581080       10.5984440362        2.2607926649
 Ca         0.9841299140       10.5950687741        5.6635287181
  S         1.0942094209        7.0547583517        5.7353536815
  S         5.3656233502        7.0585753155        2.1857489466
  S         4.2482639381       10.5908969560        5.7317965655
  S         2.1712669378       10.5909478299        2.1875711200
  O         0.1815496179       12.9146467175        5.7248668263
  O         6.2735500264       12.9280202821        2.2026825293
  O         6.2723424373        8.2601449029        2.2025031576
  O         0.1880335929        8.2576807939        5.7207840036
  O         3.3297025226        9.3963485062        5.7144434795
  O         3.0804515044        9.3918877868        2.2045966348
  O         3.0775969190       11.7933404941        2.1936526637
  O         3.3402686727       11.7945561139        5.7239340714
  O         2.0271296842        7.0494603085        6.8827652980
  O         4.4345921524        7.0605166192        1.0369817854
  O         1.9621069859        7.0557001423        4.5020149436
  O         4.4973999132        7.0582342706        3.4189719387
  O         5.1674358013       10.5740709527        6.8860522241
  O         1.2382301660       10.5803166209        1.0415088941
  O         5.1337502633       10.6008369746        4.5060026032
  O         1.3044277069       10.5997529549        3.4212917243
 Ca         8.6466078313        0.0112494465        2.2560117776
 Ca        10.5744474978        0.0190060963        5.6665195113
 Ca        11.8459566247        3.5180403104        2.2602837564
 Ca         7.3684030328        3.5199514541        5.6633589217
  S         7.4830568078        0.0088821036        5.7324173800
  S        11.7459955520        0.0053182501        2.1918836823
  S        10.6325732732        3.5249540870        5.7318307791
  S         8.5548770666        3.5252581984        2.1868042498
  O         6.5731887850        5.8595430669        5.7222065220
  O        12.6555896802        5.8549265756        2.2021087138
  O        12.6607145679        1.1987056137        2.1941968753
  O         6.5655229691        1.2000782705        5.7250018783
  O         9.7233029760        2.3220084143        5.7240627237
  O         9.4620405657        2.3235446009        2.1910245588
  O         9.4646152208        4.7236270639        2.2045559916
  O         9.7140717172        4.7192098191        5.7147227528
  O         8.4159153069        0.0121768620        6.8780683226
  O        10.8085215456        0.0032553058        1.0497940176
  O         8.3454934039        0.0211310134        4.4964698801
  O        10.8887745426        0.0234454351        3.4325650240
  O        11.5515880496        3.5401366369        6.8861191540
  O         7.6219530599        3.5347334022        1.0410529741
  O        11.5177232806        3.5135632344        4.5060237061
  O         7.6891339292        3.5145805849        3.4212585305
 Ca         8.6561190229        7.0578389530        2.2596499233
 Ca        10.5677595874        7.0591616665        5.6597147931
 Ca        11.8457063582       10.5962127698        2.2608352756
 Ca         7.3706420407       10.5967625469        5.6630119537
  S         7.4782533882        7.0634468331        5.7340819215
  S        11.7498398165        7.0573326132        2.1857053260
  S        10.6305057159       10.5936868618        5.7308224931
  S         8.5555805513       10.5914234971        2.1874179378
  O         6.5766292903       12.9214836992        5.7205857250
  O        12.6531101434       12.9199078350        2.1997112026
  O        12.6564213628        8.2590331033        2.2020723383
  O         6.5691025518        8.2636395928        5.7183920277
  O         9.7108590333        9.3993655585        5.7126332000
  O         9.4644133007        9.3920868420        2.2045567990
  O         9.4617792433       11.7935911984        2.1936906576
  O         9.7241216077       11.7991352546        5.7234882287
  O         8.4127978435        7.0750059845        6.8797560372
  O        10.8188648028        7.0579972603        1.0368814505
  O         8.3462937178        7.0586700496        4.5010293143
  O        10.8816485206        7.0579215426        3.4189381904
  O        11.5499305028       10.5738054613        6.8850446322
  O         7.6223317577       10.5805415560        1.0413828929
  O        11.5160232352       10.6006374447        4.5049192612
  O         7.6885514410       10.6005307262        3.4210552759
      96
 i =       25, E =     -1777.7931634871
 Ca         2.2640339423        0.0058023410        2.2555209726
 Ca         4.1898562888       -0.0029001215        5.6643995938
 Ca         5.4606231754        3.5198810601        2.2600840453
 Ca         0.9861282110        3.5184420476        5.6631274098
  S         1.0985920931       -0.0077456701        5.7324095772
  S         5.3609434877        0.0088710948        2.1869797716
  S         4.2461479022        3.5218741173        5.7307963345
  S         2.1711380051        3.5249641001        2.1867677539
  O         0.1860500573        5.8533577713        5.7192984217
  O         6.2715488613        5.8559382441        2.2016554825
  O         6.2695304885        1.2073434713        2.1893785232
  O         0.1925021602        1.1937633126        5.7212493165
  O         3.3381833563        2.3172962959        5.7235112425
  O         3.0779246974        2.3233882953        2.1916769338
  O         3.0805008989        4.7236915684        2.2047001523
  O         3.3267020508        4.7160521030        5.7130026305
  O         2.0325235586       -0.0107827887        6.8773437713
  O         4.4275432234        0.0020855940        1.0420359390
  O         1.9607723664       -0.0207862451        4.4960910176
  O         4.5012323999        0.0189136900        3.4252627077
  O         5.1654648834        3.5400289473        6.8851513938
  O         1.2378643171        3.5344540929        1.0410410352
  O         5.1313072026        3.5133787923        4.5048467231
  O         1.3054094502        3.5147812756        3.4214505051
 Ca         2.2719076074        7.0577789786        2.2601707538
 Ca         4.1837875052        7.0570438038        5.6597584583
 Ca         5.4623509083       10.5980851911        2.2609067044
 Ca         0.9843711790       10.5951196021        5.6633635351
  S         1.0943501660        7.0545496791        5.7352496619
  S         5.3661183338        7.0586464088        2.1857997142
  S         4.2479356569       10.5910042530        5.7316353810
  S         2.1715188207       10.5905648607        2.1876118718
  O         0.1810176676       12.9151404153        5.7253549494
  O         6.2733402808       12.9264258431        2.2019558106
  O         6.2726018197        8.2604125571        2.2024123303
  O         0.1882310487        8.2575395485        5.7203668548
  O         3.3293177876        9.3964128730        5.7142372849
  O         3.0807378604        9.3915407692        2.2048211714
  O         3.0780457546       11.7928080894        2.1938222366
  O         3.3396298855       11.7946019948        5.7237784715
  O         2.0272803339        7.0494580834        6.8826552397
  O         4.4349366195        7.0607740854        1.0371192065
  O         1.9624577656        7.0554231586        4.5020348465
  O         4.4975170956        7.0581481816        3.4187601817
  O         5.1671449090       10.5741315885        6.8859359596
  O         1.2384454358       10.5804364954        1.0415086761
  O         5.1332861229       10.6010305792        4.5057144673
  O         1.3051113835       10.5989881727        3.4217301428
 Ca         8.6478624737        0.0104833799        2.2562771722
 Ca        10.5739776184        0.0171354936        5.6653752251
 Ca        11.8460829867        3.5181363260        2.2603750602
 Ca         7.3685357669        3.5200220880        5.6631715772
  S         7.4828644521        0.0082356860        5.7329871122
  S        11.7464254942        0.0045694340        2.1891945143
  S        10.6321966227        3.5246841455        5.7316806305
  S         8.5552027234        3.5254969808        2.1868991048
  O         6.5732311119        5.8592779815        5.7217068737
  O        12.6559310009        5.8547298696        2.2021555255
  O        12.6602901854        1.1989041741        2.1947032086
  O         6.5655881145        1.1996617883        5.7256876999
  O         9.7227310801        2.3217502444        5.7240157377
  O         9.4624474094        2.3238226606        2.1914632889
  O         9.4648971071        4.7238943724        2.2047542429
  O         9.7136980098        4.7190295245        5.7145556200
  O         8.4158600194        0.0102083525        6.8785009473
  O        10.8107165952        0.0030758106        1.0459385592
  O         8.3453902980        0.0219679242        4.4968419833
  O        10.8844524264        0.0159074125        3.4258727764
  O        11.5512720398        3.5399611159        6.8860030100
  O         7.6222530574        3.5345606863        1.0410765029
  O        11.5172768012        3.5133066722        4.5057690918
  O         7.6897221948        3.5153064903        3.4216157023
 Ca         8.6561751926        7.0578192463        2.2598648850
 Ca        10.5681543391        7.0590747303        5.6596335548
 Ca        11.8459144426       10.5962721041        2.2609050487
 Ca         7.3707342561       10.5967617178        5.6629620686
  S         7.4785825756        7.0629733395        5.7342395478
  S        11.7503365308        7.0572908087        2.1857408163
  S        10.6303987011       10.5936826244        5.7306988810
  S         8.5559036536       10.5910672822        2.1874777417
  O         6.5758941038       12.9213426369        5.7204894855
  O        12.6543998834       12.9195907147        2.1994743546
  O        12.6566836742        8.2592052441        2.2019704212
  O         6.5695319149        8.2632989547        5.7182266563
  O         9.7108161668        9.3992904071        5.7126082105
  O         9.4648042919        9.3917860020        2.2047691745
  O         9.4621813549       11.7932639880        2.1940568469
  O         9.7236762116       11.7989667891        5.7232197237
  O         8.4126867010        7.0732770912        6.8802723712
  O        10.8192625891        7.0580325225        1.0369595539
  O         8.3467067857        7.0587222188        4.5012165673
  O        10.8817396802        7.0577621330        3.4186827461
  O        11.5497826794       10.5739708415        6.8850101810
  O         7.6227039547       10.5806526878        1.0413794791
  O        11.5158466044       10.6008319486        4.5047125429
  O         7.6892581939       10.5997576106        3.4214634496
      96
 i =       26, E =     -1777.7932036504
 Ca         2.2637755519        0.0069695057        2.2562530211
 Ca         4.1895262784       -0.0042611151        5.6651165493
 Ca         5.4595716314        3.5202363619        2.2604071385
 Ca         0.9868533128        3.5178736954        5.6632224616
  S         1.0988615373       -0.0079121104        5.7325546743
  S         5.3602017562        0.0106791932        2.1883848718
  S         4.2462623438        3.5216544740        5.7307515173
  S         2.1705844443        3.5250250841        2.1865498142
  O         0.1861994206        5.8527586780        5.7190881665
  O         6.2713414794        5.8559926777        2.2009653690
  O         6.2683343384        1.2095699356        2.1876929535
  O         0.1924726751        1.1937292721        5.7213671753
  O         3.3380644661        2.3171763408        5.7234217818
  O         3.0778237061        2.3236255989        2.1916013936
  O         3.0800241633        4.7237966564        2.2047204774
  O         3.3269724524        4.7160434065        5.7129197084
  O         2.0326618415       -0.0127626666        6.8773777709
  O         4.4231683029        0.0026509015        1.0460829330
  O         1.9607907590       -0.0197898988        4.4962160652
  O         4.4993750648        0.0215550089        3.4257437813
  O         5.1656133699        3.5399229190        6.8850694401
  O         1.2370818710        3.5344644407        1.0410359545
  O         5.1316631191        3.5133307812        4.5049038488
  O         1.3044516722        3.5139344178        3.4207916190
 Ca         2.2717003191        7.0578788868        2.2601018892
 Ca         4.1843122340        7.0569330282        5.6602471631
 Ca         5.4616142310       10.5980479061        2.2612336527
 Ca         0.9845558736       10.5952915089        5.6634567988
  S         1.0947369926        7.0537409299        5.7348471079
  S         5.3663431159        7.0591891617        2.1856051564
  S         4.2481858951       10.5908659753        5.7317841201
  S         2.1710681099       10.5908258487        2.1875392515
  O         0.1806518181       12.9154399455        5.7252038074
  O         6.2716464959       12.9276880851        2.2019358129
  O         6.2725931732        8.2612231426        2.2023668045
  O         0.1888270381        8.2568922815        5.7204447118
  O         3.3297759882        9.3960126591        5.7144064944
  O         3.0802397220        9.3916417570        2.2049430490
  O         3.0779588628       11.7929595026        2.1938865362
  O         3.3394425675       11.7941697686        5.7237503334
  O         2.0274595244        7.0469233322        6.8822849985
  O         4.4349861407        7.0622247258        1.0370920906
  O         1.9631130210        7.0555136145        4.5018434228
  O         4.4979642987        7.0583185319        3.4191447244
  O         5.1673125375       10.5741991464        6.8860834238
  O         1.2378073629       10.5805344598        1.0415679598
  O         5.1336381635       10.6012574227        4.5058853570
  O         1.3042125742       10.5998783456        3.4212160761
 Ca         8.6486470335        0.0124507629        2.2566955245
 Ca        10.5736858658        0.0191538714        5.6655718971
 Ca        11.8450434386        3.5183324673        2.2605418750
 Ca         7.3683651725        3.5199583582        5.6633353144
  S         7.4827271428        0.0084343717        5.7329106119
  S        11.7443186579        0.0048636089        2.1897415099
  S        10.6324353468        3.5248705472        5.7318177384
  S         8.5546284984        3.5256965551        2.1866615520
  O         6.5738725333        5.8601766936        5.7221054327
  O        12.6556217809        5.8544475018        2.2016101198
  O        12.6583269058        1.1988849198        2.1950901387
  O         6.5654856209        1.1999468057        5.7258304650
  O         9.7224772334        2.3221900632        5.7240768157
  O         9.4622452893        2.3241627074        2.1912609094
  O         9.4644138166        4.7241097985        2.2047937711
  O         9.7142365265        4.7194425240        5.7148041551
  O         8.4164729117        0.0131403121        6.8777023218
  O        10.8083534347        0.0040104846        1.0465169286
  O         8.3449926830        0.0212333153        4.4967434151
  O        10.8834290620        0.0170350322        3.4270681841
  O        11.5514217285        3.5397606035        6.8861521321
  O         7.6214696355        3.5347814104        1.0410547535
  O        11.5175704128        3.5130565384        4.5059349407
  O         7.6888244532        3.5146186523        3.4210256784
 Ca         8.6559447748        7.0580614221        2.2596621616
 Ca        10.5686711115        7.0594594851        5.6600719752
 Ca        11.8448281707       10.5967449448        2.2612024592
 Ca         7.3712381644       10.5973594090        5.6630274009
  S         7.4791504666        7.0639555545        5.7339791113
  S        11.7505789231        7.0575745221        2.1854842912
  S        10.6306179877       10.5940622109        5.7306890347
  S         8.5554864393       10.5914646686        2.1873110353
  O         6.5755765140       12.9214342654        5.7209624831
  O        12.6528307650       12.9204194762        2.1995763629
  O        12.6567962916        8.2597152021        2.2018346796
  O         6.5698071948        8.2639340542        5.7178220304
  O         9.7110177599        9.3995161723        5.7125252049
  O         9.4643117687        9.3919582323        2.2048650161
  O         9.4619256773       11.7936393177        2.1940255962
  O         9.7239985835       11.7993998562        5.7230293472
  O         8.4127257996        7.0762351081        6.8802454056
  O        10.8194067126        7.0590147002        1.0367939155
  O         8.3473923328        7.0589456636        4.5010925172
  O        10.8821820488        7.0580040516        3.4189803159
  O        11.5499643823       10.5740906710        6.8850245767
  O         7.6219104898       10.5807279023        1.0414685179
  O        11.5163410623       10.6009360321        4.5048254484
  O         7.6883321892       10.6007875921        3.4208339914
      96
 i =       27, E =     -1777.7931761878
 Ca         2.2638902908        0.0088115646        2.2564154766
 Ca         4.1891581203       -0.0064094316        5.6643574214
 Ca         5.4593818269        3.5208556333        2.2603277383
 Ca         0.9869286830        3.5177320791        5.6633505220
  S         1.0986276037       -0.0079165413        5.7327916690
  S         5.3606569182        0.0119826532        2.1873545498
  S         4.2463327365        3.5214950193        5.7306810696
  S         2.1707208223        3.5252105088        2.1865388235
  O         0.1856448668        5.8516046536        5.7185794674
  O         6.2711631624        5.8570390657        2.2008389871
  O         6.2683173283        1.2118352540        2.1864396036
  O         0.1927029000        1.1941525211        5.7216105950
  O         3.3384028817        2.3168502933        5.7234139141
  O         3.0776626793        2.3236415107        2.1915373706
  O         3.0801417336        4.7239544783        2.2044186567
  O         3.3270660546        4.7158370853        5.7128570870
  O         2.0323148949       -0.0128331556        6.8778020363
  O         4.4248921767        0.0034874808        1.0441734926
  O         1.9608503250       -0.0199520729        4.4965668175
  O         4.4996709609        0.0220353812        3.4246940736
  O         5.1657173437        3.5399030548        6.8850060141
  O         1.2370544405        3.5345493770        1.0411514511
  O         5.1318061625        3.5134414554        4.5048717569
  O         1.3045296984        3.5144228032        3.4208388412
 Ca         2.2718002320        7.0582105950        2.2598215683
 Ca         4.1841729108        7.0567725272        5.6602156032
 Ca         5.4618192383       10.5982847899        2.2613120661
 Ca         0.9842454797       10.5953110679        5.6635221210
  S         1.0946011477        7.0522395278        5.7344587192
  S         5.3662338863        7.0602703623        2.1857742224
  S         4.2482548800       10.5905763482        5.7318753215
  S         2.1712432951       10.5911075980        2.1876730316
  O         0.1799257787       12.9160032423        5.7248773836
  O         6.2725177972       12.9291293927        2.2023980780
  O         6.2727693223        8.2619477623        2.2024954796
  O         0.1891667662        8.2557818143        5.7212732589
  O         3.3298859262        9.3957254141        5.7145380345
  O         3.0802599804        9.3918137947        2.2047863021
  O         3.0777339274       11.7934583615        2.1941428778
  O         3.3394017742       11.7938352630        5.7238564669
  O         2.0277126675        7.0429527884        6.8814320185
  O         4.4345969545        7.0655923830        1.0374728913
  O         1.9630469358        7.0552081715        4.5015429002
  O         4.4982202995        7.0583827612        3.4194407696
  O         5.1673244693       10.5742341904        6.8861825115
  O         1.2378119692       10.5806553525        1.0417622426
  O         5.1336650226       10.6012413457        4.5060046362
  O         1.3040925238       10.5995294492        3.4212903422
 Ca         8.6493344739        0.0149589160        2.2573347138
 Ca        10.5736012845        0.0210706730        5.6654543532
 Ca        11.8451281838        3.5186387386        2.2605592564
 Ca         7.3677932869        3.5202246336        5.6635187496
  S         7.4824638030        0.0086057123        5.7333404179
  S        11.7443045991        0.0058796971        2.1895818539
  S        10.6324850613        3.5252956699        5.7319146957
  S         8.5546908954        3.5260495846        2.1866511221
  O         6.5740003000        5.8615559263        5.7228111102
  O        12.6554236134        5.8549833410        2.2017578652
  O        12.6583594818        1.1999201603        2.1949766542
  O         6.5651126473        1.1999572063        5.7261857823
  O         9.7223794645        2.3226261050        5.7241807992
  O         9.4620468079        2.3243633183        2.1910793225
  O         9.4645121954        4.7243463428        2.2045215384
  O         9.7144835592        4.7198723784        5.7149890175
  O         8.4163159897        0.0123100057        6.8781660565
  O        10.8096315701        0.0052200372        1.0454803135
  O         8.3449748508        0.0220411766        4.4973562092
  O        10.8835713422        0.0190187755        3.4269492275
  O        11.5514364821        3.5397617551        6.8862454933
  O         7.6214354770        3.5349809444        1.0411462378
  O        11.5174683362        3.5131283090        4.5060021360
  O         7.6888630520        3.5151977611        3.4211205260
 Ca         8.6561173915        7.0584552704        2.2593588427
 Ca        10.5685763194        7.0598883753        5.6599558939
 Ca        11.8450513164       10.5971542165        2.2612967685
 Ca         7.3713065337       10.5975059865        5.6631299069
  S         7.4792513079        7.0653897155        5.7337257631
  S        11.7504760756        7.0581513650        2.1855508538
  S        10.6308240933       10.5944408863        5.7306427301
  S         8.5557200160       10.5919134282        2.1874207072
  O         6.5755372402       12.9214986316        5.7208267467
  O        12.6532264172       12.9215511812        2.2001086892
  O        12.6569025485        8.2600307910        2.2016354082
  O         6.5697503105        8.2651189862        5.7176459833
  O         9.7110835024        9.3999680658        5.7124722582
  O         9.4644167412        9.3922711065        2.2046437043
  O         9.4617899077       11.7942699997        2.1945084256
  O         9.7247568230       11.8000523732        5.7228849003
  O         8.4132757591        7.0782859066        6.8794142092
  O        10.8191170653        7.0604592457        1.0369545694
  O         8.3473441564        7.0594303645        4.5008257513
  O        10.8824596254        7.0583931958        3.4191893225
  O        11.5501276185       10.5741548544        6.8850577328
  O         7.6220106275       10.5808976721        1.0416018752
  O        11.5167028508       10.6008462409        4.5048852120
  O         7.6882932062       10.6005881535        3.4209124780
      96
 i =       28, E =     -1777.7925971395
 Ca         2.2661648199        0.0237933685        2.2569648696
 Ca         4.1874726216       -0.0246128002        5.6595156466
 Ca         5.4576903348        3.5257420349        2.2596291796
 Ca         0.9880357100        3.5166124869        5.6637845738
  S         1.0971761974       -0.0078276180        5.7341401975
  S         5.3638647469        0.0240813301        2.1811816700
  S         4.2469129557        3.5198163430        5.7303174578
  S         2.1709092098        3.5271262320        2.1862749662
  O         0.1825370555        5.8419121351        5.7155193215
  O         6.2682845222        5.8648021449        2.1964827715
  O         6.2673331854        1.2315205805        2.1763880186
  O         0.1943745982        1.1974176209        5.7227843213
  O         3.3408105120        2.3140634375        5.7229419753
  O         3.0772148920        2.3252356468        2.1902354720
  O         3.0808945354        4.7252838897        2.2036538071
  O         3.3278848837        4.7139770315        5.7121420646
  O         2.0299765951       -0.0130825919        6.8802395372
  O         4.4312787993        0.0121098648        1.0358801022
  O         1.9609223797       -0.0212389383        4.4983438345
  O         4.5017390116        0.0294235569        3.4182757494
  O         5.1664737548        3.5400217841        6.8847820143
  O         1.2370802852        3.5357180424        1.0411650678
  O         5.1332312225        3.5138855840        4.5048938176
  O         1.3048774147        3.5164759875        3.4210417704
 Ca         2.2717350118        7.0608969430        2.2584292905
 Ca         4.1838197846        7.0551275683        5.6602081298
 Ca         5.4634566999       10.6009461793        2.2616793138
 Ca         0.9822003044       10.5948310158        5.6635958134
  S         1.0939568151        7.0401781002        5.7312827181
  S         5.3658027295        7.0699651559        2.1875174119
  S         4.2489701920       10.5884514377        5.7327291063
  S         2.1717441503       10.5932568675        2.1886903439
  O         0.1755164070       12.9197362681        5.7234659674
  O         6.2779143018       12.9418731661        2.2050847464
  O         6.2754783809        8.2684447646        2.2062499531
  O         0.1914195164        8.2460837806        5.7255808662
  O         3.3309858834        9.3934920076        5.7156165602
  O         3.0801429436        9.3934426666        2.2050239732
  O         3.0765546467       11.7964240690        2.1965955581
  O         3.3386193442       11.7909311407        5.7243256220
  O         2.0306955905        7.0117939293        6.8741113692
  O         4.4315905785        7.0970848821        1.0415831056
  O         1.9627479529        7.0527827109        4.4989909491
  O         4.4984804822        7.0591518785        3.4209931317
  O         5.1673297661       10.5743317801        6.8872931145
  O         1.2382208635       10.5812954503        1.0424159950
  O         5.1341560538       10.6014705721        4.5070867127
  O         1.3031167200       10.5988184339        3.4220796132
 Ca         8.6547539479        0.0351740419        2.2604923129
 Ca        10.5733192593        0.0346466802        5.6648226140
 Ca        11.8452222489        3.5212745014        2.2606266903
 Ca         7.3641505171        3.5227656773        5.6645026620
  S         7.4809342158        0.0100550851        5.7358809317
  S        11.7444963609        0.0136838598        2.1888926553
  S        10.6331938802        3.5282802966        5.7326859194
  S         8.5543578369        3.5293073346        2.1864372671
  O         6.5752195538        5.8713301220        5.7283343899
  O        12.6529539822        5.8582865526        2.2001025308
  O        12.6581700079        1.2082303610        2.1927549127
  O         6.5627970342        1.2003468564        5.7286510854
  O         9.7213944473        2.3260580969        5.7245847950
  O         9.4614214232        2.3273992494        2.1893355109
  O         9.4651014898        4.7263536299        2.2039084058
  O         9.7166017242        4.7229366097        5.7164822571
  O         8.4149878824        0.0091195082        6.8810577385
  O        10.8145288379        0.0146189923        1.0417335652
  O         8.3444558698        0.0263141582        4.5006614703
  O        10.8830179059        0.0329658305        3.4249745485
  O        11.5516405866        3.5397960466        6.8871636130
  O         7.6211856794        3.5369664196        1.0412192221
  O        11.5170867043        3.5132547491        4.5065019682
  O         7.6890778281        3.5184263955        3.4218340925
 Ca         8.6567593914        7.0617110782        2.2577761750
 Ca        10.5685475273        7.0627487037        5.6594450316
 Ca        11.8463836087       10.5998234896        2.2617160560
 Ca         7.3728054527       10.5990967061        5.6630959655
  S         7.4805236923        7.0752432615        5.7323538782
  S        11.7499861125        7.0629340570        2.1860267305
  S        10.6326044361       10.5975716147        5.7305358303
  S         8.5567192006       10.5952512044        2.1881834722
  O         6.5754154411       12.9220453036        5.7202723570
  O        12.6542611383       12.9290517758        2.2030105853
  O        12.6588647427        8.2624603671        2.2033733605
  O         6.5702085754        8.2732689044        5.7155082900
  O         9.7115880353        9.4036445469        5.7120818557
  O         9.4650338010        9.3948800800        2.2044939702
  O         9.4611711322       11.7983331120        2.1979063093
  O         9.7308833220       11.8053422634        5.7214592233
  O         8.4171705959        7.0920479789        6.8744999880
  O        10.8183238638        7.0743048558        1.0375328114
  O         8.3472866328        7.0623080211        4.4991427416
  O        10.8827565047        7.0610639863        3.4196657821
  O        11.5514804194       10.5741821854        6.8856112146
  O         7.6229492382       10.5819541550        1.0419423201
  O        11.5199156869       10.6004090292        4.5056729694
  O         7.6875626219       10.6005808065        3.4213138187
      96
 i =       29, E =     -1777.7931190450
 Ca         2.2648745739        0.0132863820        2.2563867441
 Ca         4.1887520272       -0.0122199248        5.6626732092
 Ca         5.4589776346        3.5224414274        2.2601222685
 Ca         0.9871883102        3.5173730815        5.6635613755
  S         1.0980835330       -0.0075342743        5.7331769264
  S         5.3615329692        0.0146838132        2.1843966817
  S         4.2464900247        3.5208190333        5.7305755751
  S         2.1706230837        3.5259897541        2.1864865819
  O         0.1849678552        5.8486928189        5.7178544182
  O         6.2700206993        5.8601055924        2.1988503208
  O         6.2698346564        1.2154169042        2.1798397151
  O         0.1927197946        1.1951217160        5.7218171093
  O         3.3393876445        2.3157152792        5.7231324814
  O         3.0775246665        2.3243577971        2.1910657898
  O         3.0803527085        4.7244312995        2.2043133785
  O         3.3271959217        4.7150193700        5.7125717540
  O         2.0316151036       -0.0114573499        6.8783381076
  O         4.4268075160        0.0061248098        1.0405503305
  O         1.9607558009       -0.0203549887        4.4968805718
  O         4.5003545930        0.0252661065        3.4219381565
  O         5.1659228517        3.5400129099        6.8849595778
  O         1.2371301106        3.5350379379        1.0410328309
  O         5.1322374706        3.5135640935        4.5048569666
  O         1.3046698945        3.5150856482        3.4210641237
 Ca         2.2715948710        7.0591875103        2.2593393449
 Ca         4.1840095257        7.0559310433        5.6603029195
 Ca         5.4624005716       10.5993984391        2.2611882749
 Ca         0.9834628370       10.5947830173        5.6634079870
  S         1.0947592503        7.0484450849        5.7338587831
  S         5.3658253880        7.0639037415        2.1863746733
  S         4.2482626809       10.5898008104        5.7320999755
  S         2.1712458782       10.5918895945        2.1880407997
  O         0.1792909629       12.9169129870        5.7247784572
  O         6.2734062516       12.9316659382        2.2022767164
  O         6.2735810068        8.2643852070        2.2037557583
  O         0.1899300944        8.2524551688        5.7231016132
  O         3.3299784804        9.3949711311        5.7148218202
  O         3.0801994268        9.3925762626        2.2050246454
  O         3.0772332824       11.7944816789        2.1950161399
  O         3.3389496738       11.7928812533        5.7239612331
  O         2.0289202943        7.0348841864        6.8795592431
  O         4.4332768056        7.0750119008        1.0390058666
  O         1.9629237852        7.0541171668        4.5008703076
  O         4.4979781543        7.0588274482        3.4199307375
  O         5.1671262984       10.5741840333        6.8864844583
  O         1.2380194353       10.5808492609        1.0418524776
  O         5.1334974807       10.6012610060        4.5062445985
  O         1.3037547813       10.5994657615        3.4217201975
 Ca         8.6507132134        0.0195358408        2.2574350455
 Ca        10.5734128806        0.0225378663        5.6642180778
 Ca        11.8450827513        3.5196540126        2.2605225818
 Ca         7.3666068404        3.5211771343        5.6638924685
  S         7.4819995241        0.0090519611        5.7340559727
  S        11.7448824953        0.0084380379        2.1881679300
  S        10.6325457051        3.5260090006        5.7320520807
  S         8.5544739271        3.5272395964        2.1866488825
  O         6.5742283934        5.8637804302        5.7246904427
  O        12.6545312126        5.8563742875        2.2009751468
  O        12.6579909651        1.2033470538        2.1938407064
  O         6.5646210815        1.2002046213        5.7270331030
  O         9.7221370036        2.3232881969        5.7241772701
  O         9.4618801190        2.3255170008        2.1905188261
  O         9.4646628498        4.7250589638        2.2044373486
  O         9.7148886257        4.7205520183        5.7152635539
  O         8.4154952232        0.0106999687        6.8792387984
  O        10.8115665129        0.0076262582        1.0431470635
  O         8.3447991806        0.0233862796        4.4980835032
  O        10.8832767967        0.0232174038        3.4247439470
  O        11.5514101866        3.5398391027        6.8863987158
  O         7.6214065891        3.5357746357        1.0411230591
  O        11.5170745892        3.5131827290        4.5059483925
  O         7.6890016617        3.5163646396        3.4215554741
 Ca         8.6561679704        7.0595515934        2.2590260512
 Ca        10.5685180032        7.0603783086        5.6598521182
 Ca        11.8455128785       10.5978540871        2.2612030673
 Ca         7.3717389431       10.5979383820        5.6629788928
  S         7.4797800756        7.0673631484        5.7337868871
  S        11.7502732925        7.0600785502        2.1859552359
  S        10.6315862408       10.5952389505        5.7306740507
  S         8.5558451222       10.5930023910        2.1876775722
  O         6.5754286194       12.9217744950        5.7204944611
  O        12.6535158304       12.9236397765        2.2007276435
  O        12.6575650070        8.2611308115        2.2024434937
  O         6.5703424704        8.2667871800        5.7172770176
  O         9.7110971297        9.4012053501        5.7124792264
  O         9.4645909060        9.3932814734        2.2047080868
  O         9.4614615354       11.7955623771        2.1954273734
  O         9.7274983420       11.8018859827        5.7223722008
  O         8.4144863796        7.0791266634        6.8786024203
  O        10.8185903250        7.0658981657        1.0376463147
  O         8.3471827361        7.0602069569        4.5005398693
  O        10.8823393750        7.0590752128        3.4194884456
  O        11.5506660277       10.5739578180        6.8853483107
  O         7.6223151721       10.5812188852        1.0416085188
  O        11.5178548505       10.6005914246        4.5051824948
  O         7.6880095409       10.6007036628        3.4211981471
      96
 i =       30, E =     -1777.7930585845
 Ca         2.2663709507        0.0170260690        2.2562636377
 Ca         4.1887543122       -0.0170305984        5.6618954866
 Ca         5.4587701673        3.5234056272        2.2599865943
 Ca         0.9874205453        3.5169239739        5.6637467138
  S         1.0982668332       -0.0076063364        5.7332785526
  S         5.3623182194        0.0164902404        2.1801079130
  S         4.2467491029        3.5202583192        5.7305546654
  S         2.1705698046        3.5266941756        2.1862285235
  O         0.1852394317        5.8469634498        5.7171507038
  O         6.2699089629        5.8631348939        2.1983035001
  O         6.2705184451        1.2179036205        2.1584526796
  O         0.1928856213        1.1951907465        5.7219290690
  O         3.3401661093        2.3149061578        5.7228876674
  O         3.0776352567        2.3250861048        2.1905281397
  O         3.0803981144        4.7249963156        2.2041037704
  O         3.3273537169        4.7143752647        5.7124276029
  O         2.0319145067       -0.0110770988        6.8782358355
  O         4.4257125733        0.0067520860        1.0379406818
  O         1.9610029968       -0.0210637857        4.4967618843
  O         4.5023681920        0.0296947096        3.4189460429
  O         5.1660863462        3.5399994034        6.8850624281
  O         1.2369640098        3.5353428883        1.0409161150
  O         5.1326455531        3.5135210476        4.5047889617
  O         1.3050241027        3.5156099581        3.4209974792
 Ca         2.2714665902        7.0599215074        2.2591873851
 Ca         4.1841552551        7.0551970884        5.6605928127
 Ca         5.4625270832       10.6000702243        2.2611412049
 Ca         0.9830934323       10.5940975498        5.6633332914
  S         1.0953260989        7.0462507863        5.7337976043
  S         5.3655971210        7.0669310341        2.1870958124
  S         4.2483653994       10.5892314584        5.7322831893
  S         2.1712919189       10.5925122356        2.1881537125
  O         0.1793647451       12.9171292307        5.7247260686
  O         6.2732582023       12.9327828139        2.2036283053
  O         6.2736463248        8.2669840118        2.2038466496
  O         0.1903287077        8.2500836162        5.7242972820
  O         3.3302299363        9.3943728943        5.7150402339
  O         3.0800222417        9.3930883204        2.2050963728
  O         3.0770623824       11.7952585793        2.1955108633
  O         3.3385231921       11.7920657780        5.7240602868
  O         2.0296861209        7.0327711335        6.8790437294
  O         4.4318256681        7.0810960863        1.0409352486
  O         1.9630728320        7.0531886395        4.5006082432
  O         4.4982782022        7.0593700368        3.4209490620
  O         5.1671133220       10.5741583419        6.8866950083
  O         1.2380200375       10.5812749032        1.0419219439
  O         5.1333851608       10.6013207168        4.5063162544
  O         1.3036893009       10.5995464474        3.4218058865
 Ca         8.6520106969        0.0222554794        2.2571544594
 Ca        10.5734218931        0.0232570371        5.6635446808
 Ca        11.8445911006        3.5203705243        2.2604679734
 Ca         7.3660871896        3.5218228931        5.6641480537
  S         7.4820791929        0.0094889762        5.7343637269
  S        11.7451614513        0.0105695030        2.1868708867
  S        10.6326591341        3.5262116855        5.7321081870
  S         8.5543696369        3.5281267127        2.1864691567
  O         6.5739568559        5.8651421320        5.7248736143
  O        12.6541247687        5.8580239542        2.2007421436
  O        12.6572935677        1.2062898793        2.1925744903
  O         6.5648053904        1.2006007332        5.7274797025
  O         9.7219675241        2.3235489813        5.7242214517
  O         9.4618723478        2.3263594577        2.1897634398
  O         9.4646334364        4.7257626694        2.2042555453
  O         9.7152777216        4.7208060437        5.7153990876
  O         8.4153455852        0.0099891443        6.8796531069
  O        10.8124703995        0.0100526687        1.0413219225
  O         8.3449747299        0.0241139338        4.4983083527
  O        10.8828995824        0.0247167603        3.4229228220
  O        11.5515231218        3.5398627115        6.8864297120
  O         7.6211597376        3.5363742852        1.0411464528
  O        11.5168873983        3.5132452356        4.5057929193
  O         7.6892645632        3.5171836898        3.4215992565
 Ca         8.6561174448        7.0602572460        2.2590034098
 Ca        10.5687105748        7.0603909948        5.6601703276
 Ca        11.8456199560       10.5984255330        2.2610962419
 Ca         7.3720259220       10.5982828892        5.6628956138
  S         7.4802362873        7.0681457531        5.7339669556
  S        11.7503178619        7.0621957928        2.1864364710
  S        10.6325592491       10.5956197154        5.7308233841
  S         8.5559596133       10.5936659240        2.1877152473
  O         6.5753180968       12.9222271974        5.7201412319
  O        12.6534861082       12.9254979185        2.2016645632
  O        12.6579706971        8.2628647664        2.2023579333
  O         6.5712995216        8.2676753487        5.7170653597
  O         9.7112014783        9.4021010697        5.7126007756
  O         9.4645113059        9.3937517817        2.2047184851
  O         9.4614466558       11.7962688275        2.1960592575
  O         9.7302859710       11.8032889474        5.7219329872
  O         8.4145892209        7.0789595615        6.8789161641
  O        10.8181678088        7.0726435359        1.0386110590
  O         8.3473734479        7.0605618561        4.5005859101
  O        10.8826061215        7.0593762233        3.4201362860
  O        11.5512687998       10.5737149412        6.8857827784
  O         7.6224368867       10.5816819592        1.0415738405
  O        11.5189380618       10.6003798181        4.5053829422
  O         7.6881051011       10.6011057951        3.4212982093
      96
 i =       31, E =     -1777.7930557560
 Ca         2.2682780810        0.0216021161        2.2555089537
 Ca         4.1897373020       -0.0223143448        5.6596042628
 Ca         5.4590233990        3.5242494889        2.2589081360
 Ca         0.9874986852        3.5162389855        5.6632273375
  S         1.0988144223       -0.0081444305        5.7331216072
  S         5.3629095506        0.0201082717        2.1710770263
  S         4.2469542548        3.5194206093        5.7305985652
  S         2.1704200294        3.5276742878        2.1859720530
  O         0.1867164667        5.8458969450        5.7171918547
  O         6.2693336169        5.8655283242        2.1952217964
  O         6.2681637063        1.2239315373        2.1327409238
  O         0.1933843702        1.1946910511        5.7217111853
  O         3.3417294643        2.3133892061        5.7227670356
  O         3.0779831517        2.3262861746        2.1893977937
  O         3.0805446219        4.7257157077        2.2040160237
  O         3.3272008878        4.7133904015        5.7124168232
  O         2.0324344274       -0.0115444031        6.8779032078
  O         4.4210157433        0.0021256987        1.0333486297
  O         1.9619335087       -0.0212697641        4.4966820969
  O         4.5072418333        0.0404358552        3.4133694450
  O         5.1662352842        3.5401910169        6.8851435421
  O         1.2368097020        3.5358916348        1.0408313774
  O         5.1332327928        3.5134952009        4.5048646211
  O         1.3053443790        3.5161438564        3.4208371461
 Ca         2.2709951063        7.0608404103        2.2595052726
 Ca         4.1843938886        7.0546313338        5.6605739543
 Ca         5.4621757963       10.6008495466        2.2611452689
 Ca         0.9830381489       10.5929418106        5.6629607996
  S         1.0956520930        7.0456620436        5.7341845407
  S         5.3646496908        7.0691308109        2.1875202667
  S         4.2485500645       10.5886327358        5.7323771417
  S         2.1713889004       10.5933118772        2.1883590825
  O         0.1797356208       12.9167596340        5.7246190610
  O         6.2735731405       12.9362090231        2.2032581168
  O         6.2730067944        8.2688416556        2.2058358715
  O         0.1893903278        8.2483974408        5.7250902998
  O         3.3303394338        9.3940193212        5.7152411670
  O         3.0798722673        9.3937738831        2.2052386535
  O         3.0772429124       11.7960663289        2.1964404391
  O         3.3386188619       11.7915292517        5.7242779185
  O         2.0301620951        7.0361775920        6.8791757632
  O         4.4301072515        7.0818477531        1.0424352066
  O         1.9630290476        7.0525676051        4.5007799826
  O         4.4970425384        7.0605781903        3.4209466559
  O         5.1672783379       10.5740983299        6.8867222789
  O         1.2383717139       10.5817320949        1.0419416260
  O         5.1334779430       10.6012985381        4.5064155296
  O         1.3035316079       10.5998047573        3.4217478339
 Ca         8.6527044350        0.0243257841        2.2555861282
 Ca        10.5743912129        0.0240609924        5.6629468040
 Ca        11.8441151329        3.5213234181        2.2602767026
 Ca         7.3663250605        3.5226205372        5.6641450795
  S         7.4824338343        0.0099822928        5.7346481157
  S        11.7460414478        0.0136305278        2.1860301450
  S        10.6327397116        3.5259849587        5.7320685254
  S         8.5541610663        3.5290858745        2.1862419833
  O         6.5736709643        5.8650458541        5.7254224972
  O        12.6525651980        5.8603377279        2.1982920047
  O        12.6561083113        1.2110998604        2.1896136231
  O         6.5658623177        1.2014206952        5.7292131779
  O         9.7222203860        2.3232256958        5.7244446422
  O         9.4620630371        2.3274432988        2.1888569664
  O         9.4648203902        4.7264000408        2.2043485777
  O         9.7152579620        4.7204545254        5.7155215947
  O         8.4154919683        0.0093743036        6.8798560722
  O        10.8135759374        0.0124321241        1.0402765470
  O         8.3450313534        0.0245800536        4.4981932969
  O        10.8835781042        0.0253400996        3.4222238974
  O        11.5517190975        3.5398618696        6.8862635247
  O         7.6210350093        3.5374869249        1.0411109240
  O        11.5168653022        3.5133174303        4.5056380507
  O         7.6894357037        3.5175379242        3.4215602604
 Ca         8.6555784197        7.0609752011        2.2593092441
 Ca        10.5689854990        7.0600782571        5.6600640360
 Ca        11.8460198168       10.5993350802        2.2611714418
 Ca         7.3722871904       10.5984971202        5.6623712511
  S         7.4798499928        7.0680082407        5.7340650377
  S        11.7500355406        7.0656291267        2.1876665603
  S        10.6344206172       10.5958428204        5.7311565808
  S         8.5560961406       10.5943660767        2.1877652504
  O         6.5750066986       12.9228541946        5.7199270638
  O        12.6548411294       12.9289629538        2.2016548361
  O        12.6593503555        8.2650387208        2.2054843319
  O         6.5714963148        8.2677849891        5.7160376135
  O         9.7110884698        9.4035905435        5.7128426292
  O         9.4643664461        9.3942618365        2.2050336006
  O         9.4616978412       11.7969053163        2.1965837559
  O         9.7364168674       11.8061160163        5.7215978975
  O         8.4140659654        7.0791469420        6.8791703413
  O        10.8159969038        7.0827809970        1.0417970472
  O         8.3473464101        7.0600829853        4.5008761269
  O        10.8816676151        7.0598416282        3.4207231595
  O        11.5524226533       10.5727082268        6.8864903412
  O         7.6228551063       10.5820239047        1.0414693984
  O        11.5208200632       10.5994779431        4.5058178081
  O         7.6879018706       10.6016872127        3.4210225904
      96
 i =       32, E =     -1777.7932034594
 Ca         2.2680928933        0.0237467028        2.2553286190
 Ca         4.1905985410       -0.0235827156        5.6573580077
 Ca         5.4584623020        3.5253179994        2.2584313164
 Ca         0.9878670944        3.5157692496        5.6631257275
  S         1.0992645262       -0.0083114182        5.7327192210
  S         5.3610583196        0.0221782542        2.1658720047
  S         4.2472750944        3.5189010700        5.7306380700
  S         2.1699033668        3.5282447805        2.1858308497
  O         0.1875284151        5.8464868723        5.7165248720
  O         6.2701575097        5.8671549159        2.1959117643
  O         6.2646338544        1.2271546838        2.1185269402
  O         0.1933161622        1.1941787354        5.7212021287
  O         3.3431957054        2.3123058280        5.7225492087
  O         3.0778516380        2.3270438933        2.1885048111
  O         3.0801032106        4.7262273199        2.2043309476
  O         3.3269520241        4.7127119383        5.7124100908
  O         2.0326007285       -0.0124203978        6.8775640451
  O         4.4154360400       -0.0046163136        1.0314142916
  O         1.9619581650       -0.0204410255        4.4959322489
  O         4.5083561127        0.0473562849        3.4107369977
  O         5.1665091723        3.5403671829        6.8851635584
  O         1.2363606960        3.5364671249        1.0407919498
  O         5.1337449199        3.5135315269        4.5049057541
  O         1.3051359412        3.5157102974        3.4208502575
 Ca         2.2705025225        7.0609722598        2.2599415752
 Ca         4.1840682026        7.0544363356        5.6608988832
 Ca         5.4618717124       10.6017454949        2.2611133385
 Ca         0.9828838968       10.5922384218        5.6630630993
  S         1.0954492631        7.0468240846        5.7343481053
  S         5.3637377109        7.0694771395        2.1874240463
  S         4.2487349671       10.5884002301        5.7323223984
  S         2.1711654508       10.5939727974        2.1885960239
  O         0.1807210832       12.9161114769        5.7245763474
  O         6.2734357654       12.9395330749        2.2028684294
  O         6.2711857535        8.2696802430        2.2048650271
  O         0.1886903434        8.2490636298        5.7249654847
  O         3.3306456883        9.3939298767        5.7150993734
  O         3.0797144763        9.3943919284        2.2055375543
  O         3.0771678219       11.7967185179        2.1970510581
  O         3.3389643646       11.7914902443        5.7239726703
  O         2.0292164416        7.0371356418        6.8799606455
  O         4.4297292727        7.0811011789        1.0422156136
  O         1.9628228141        7.0533161787        4.5009518836
  O         4.4966591132        7.0608695365        3.4212338115
  O         5.1675052876       10.5739478865        6.8865781771
  O         1.2384784290       10.5819397360        1.0419779545
  O         5.1338065542       10.6013139228        4.5065146942
  O         1.3033754184       10.6008377544        3.4220008886
 Ca         8.6520927971        0.0245987554        2.2546493133
 Ca        10.5752258310        0.0242371447        5.6629304369
 Ca        11.8433725328        3.5225138334        2.2601398187
 Ca         7.3664343999        3.5227342915        5.6643410091
  S         7.4826094588        0.0103605606        5.7344547572
  S        11.7468831923        0.0160318477        2.1862024574
  S        10.6327124463        3.5256519088        5.7319948368
  S         8.5538305520        3.5293778974        2.1860268405
  O         6.5729451358        5.8646974160        5.7244217273
  O        12.6525794795        5.8637241836        2.1990135980
  O        12.6540467576        1.2161186612        2.1870803019
  O         6.5672045583        1.2025690333        5.7296925413
  O         9.7223889907        2.3228901550        5.7243229633
  O         9.4619362923        2.3277532062        2.1883274626
  O         9.4646734717        4.7266771173        2.2045371083
  O         9.7151239057        4.7201412047        5.7153201189
  O         8.4159185879        0.0100964069        6.8792431034
  O        10.8123352155        0.0114212998        1.0419356736
  O         8.3445491294        0.0237092510        4.4974775456
  O        10.8835298615        0.0255390769        3.4221217361
  O        11.5518896570        3.5397329015        6.8860154709
  O         7.6209420701        3.5382587647        1.0409814403
  O        11.5170249844        3.5131896272        4.5056515566
  O         7.6891329140        3.5167886334        3.4214147861
 Ca         8.6549491621        7.0613164984        2.2596769013
 Ca        10.5687108292        7.0598675890        5.6608161296
 Ca        11.8462186401       10.6001101428        2.2616719366
 Ca         7.3727160655       10.5984523635        5.6621081713
  S         7.4795718680        7.0672714873        5.7342043184
  S        11.7487438231        7.0681020456        2.1880121139
  S        10.6375122951       10.5956106444        5.7315780611
  S         8.5556090769       10.5947965987        2.1879405336
  O         6.5745578001       12.9232738961        5.7199948338
  O        12.6559802323       12.9316625769        2.2030452758
  O        12.6574408296        8.2678235475        2.2036180163
  O         6.5718032164        8.2674874317        5.7170517571
  O         9.7109737495        9.4054837033        5.7130064797
  O         9.4637606630        9.3946657006        2.2055712417
  O         9.4614605508       11.7972476020        2.1965201179
  O         9.7460591373       11.8099194814        5.7220756285
  O         8.4133129887        7.0787320012        6.8798519320
  O        10.8144073478        7.0825917794        1.0428541815
  O         8.3471594773        7.0591205244        4.5009652936
  O        10.8806123116        7.0604601862        3.4212189489
  O        11.5544372157       10.5711716325        6.8873955211
  O         7.6225318756       10.5821624041        1.0416124882
  O        11.5232300663       10.5982383475        4.5059659614
  O         7.6875458256       10.6029293902        3.4212980610
      96
 i =       33, E =     -1777.7932564098
 Ca         2.2670159617        0.0218621796        2.2554801486
 Ca         4.1907365758       -0.0204760617        5.6567137389
 Ca         5.4584656857        3.5256787120        2.2587073127
 Ca         0.9878346650        3.5160311173        5.6633106472
  S         1.0995108560       -0.0081342819        5.7324600317
  S         5.3604202185        0.0206476995        2.1680245106
  S         4.2475246684        3.5190685172        5.7305945781
  S         2.1698706870        3.5280503354        2.1857656615
  O         0.1873480297        5.8476993227        5.7169073831
  O         6.2704756744        5.8656956933        2.1965777675
  O         6.2649428185        1.2246591245        2.1278902611
  O         0.1931178626        1.1938903762        5.7209888981
  O         3.3437858920        2.3122815137        5.7223873231
  O         3.0777012212        2.3268150502        2.1882918751
  O         3.0798303880        4.7261722679        2.2042424547
  O         3.3267788757        4.7127414632        5.7124179698
  O         2.0331788116       -0.0123968671        6.8771296404
  O         4.4161957568       -0.0066365802        1.0327298207
  O         1.9617837805       -0.0194593947        4.4954596807
  O         4.5075560582        0.0441911369        3.4129621077
  O         5.1666339933        3.5404043790        6.8851595186
  O         1.2361810317        3.5366321673        1.0408492639
  O         5.1338685716        3.5136590524        4.5048531685
  O         1.3050935401        3.5152681209        3.4208752254
 Ca         2.2705661495        7.0605219519        2.2600263333
 Ca         4.1837058102        7.0546755443        5.6607898908
 Ca         5.4620199423       10.6020851997        2.2609310791
 Ca         0.9832303298       10.5926716385        5.6634116393
  S         1.0949972687        7.0483939421        5.7342401357
  S         5.3641441331        7.0679100760        2.1870781706
  S         4.2487935805       10.5886302558        5.7321173350
  S         2.1713305943       10.5939962828        2.1885601521
  O         0.1816206364       12.9156814427        5.7245869051
  O         6.2740875211       12.9389511916        2.2031187885
  O         6.2712525260        8.2683460374        2.2046045390
  O         0.1885594129        8.2508637476        5.7239902887
  O         3.3307953538        9.3942123891        5.7149585668
  O         3.0798271206        9.3943049492        2.2052789723
  O         3.0771876761       11.7968415002        2.1969387816
  O         3.3391963843       11.7918528825        5.7236333637
  O         2.0285714134        7.0372943693        6.8801956517
  O         4.4303147577        7.0793309815        1.0416159693
  O         1.9627003509        7.0546376816        4.5010885805
  O         4.4973689407        7.0603218226        3.4210808282
  O         5.1675932991       10.5739285222        6.8863778636
  O         1.2384678003       10.5819390837        1.0421003622
  O         5.1340738259       10.6012859499        4.5064573776
  O         1.3033874579       10.6011235437        3.4218489887
 Ca         8.6516768577        0.0227450177        2.2546738618
 Ca        10.5757271449        0.0233835005        5.6630236759
 Ca        11.8433570222        3.5234046109        2.2601563421
 Ca         7.3666012227        3.5222457261        5.6643042840
  S         7.4828787227        0.0104079303        5.7339868987
  S        11.7474556452        0.0163153056        2.1865172507
  S        10.6325987420        3.5254317045        5.7318529224
  S         8.5539822930        3.5287963387        2.1859403735
  O         6.5730109893        5.8634195918        5.7241653563
  O        12.6532354371        5.8638847166        2.1978936930
  O        12.6541485595        1.2172951924        2.1870796113
  O         6.5681687788        1.2031752450        5.7289245814
  O         9.7222448111        2.3228139422        5.7241489470
  O         9.4618949508        2.3270884760        2.1886496305
  O         9.4645767303        4.7263663892        2.2044710585
  O         9.7148972984        4.7199900765        5.7151235413
  O         8.4169671496        0.0109591368        6.8782076017
  O        10.8116433836        0.0093802588        1.0431465329
  O         8.3445998011        0.0224422479        4.4969508623
  O        10.8842054705        0.0250670109        3.4227640941
  O        11.5518179173        3.5396100372        6.8858777780
  O         7.6210147204        3.5380819256        1.0409847867
  O        11.5171691555        3.5130474771        4.5056870300
  O         7.6890347262        3.5159014229        3.4212614926
 Ca         8.6548744586        7.0608624361        2.2596998957
 Ca        10.5683137904        7.0596944681        5.6611232227
 Ca        11.8465637675       10.6007169056        2.2617977452
 Ca         7.3726494832       10.5983036378        5.6623843941
  S         7.4793468840        7.0662136833        5.7342562409
  S        11.7482664115        7.0672708924        2.1875186062
  S        10.6401498028       10.5950144179        5.7319176287
  S         8.5554910213       10.5945413048        2.1879514009
  O         6.5745777858       12.9233921398        5.7201902104
  O        12.6572783137       12.9324788032        2.2030325409
  O        12.6563506572        8.2673298202        2.2040929898
  O         6.5712312975        8.2664532345        5.7171948054
  O         9.7112124178        9.4065903219        5.7132850354
  O         9.4634399496        9.3944032175        2.2053969984
  O         9.4613643042       11.7969994353        2.1962819503
  O         9.7529563013       11.8118341045        5.7228525994
  O         8.4130884048        7.0778169816        6.8801217233
  O        10.8145892685        7.0770226939        1.0418722452
  O         8.3470553734        7.0586314328        4.5010967605
  O        10.8810244834        7.0607651311        3.4213133528
  O        11.5564173299       10.5699128069        6.8879607318
  O         7.6221739146       10.5819891825        1.0418491350
  O        11.5248500583       10.5970937238        4.5058297255
  O         7.6874829853       10.6033161813        3.4214189864
      96
 i =       34, E =     -1777.7932054726
 Ca         2.2674312459        0.0219126675        2.2551657125
 Ca         4.1905305039       -0.0204236703        5.6563688720
 Ca         5.4586323545        3.5265511579        2.2588859170
 Ca         0.9879195136        3.5163239957        5.6635164914
  S         1.0995753702       -0.0080369127        5.7324372479
  S         5.3613572388        0.0199419481        2.1687928300
  S         4.2479336710        3.5190135363        5.7305015231
  S         2.1699977280        3.5282942312        2.1855646669
  O         0.1866794045        5.8474491928        5.7169790796
  O         6.2698823441        5.8653087594        2.1954049828
  O         6.2656815194        1.2243168161        2.1293137457
  O         0.1932341769        1.1939589848        5.7212602147
  O         3.3448141707        2.3118678823        5.7219226059
  O         3.0778093124        2.3271027923        2.1881065856
  O         3.0800584038        4.7262654032        2.2041294694
  O         3.3268866307        4.7125586131        5.7122848765
  O         2.0336692558       -0.0113399467        6.8768430700
  O         4.4194529722       -0.0057509025        1.0321407008
  O         1.9617064613       -0.0195306443        4.4952532935
  O         4.5069619340        0.0438515563        3.4128054851
  O         5.1667749115        3.5404682318        6.8852891317
  O         1.2363029473        3.5370134025        1.0406389347
  O         5.1342672897        3.5138307227        4.5048277624
  O         1.3054030549        3.5155323583        3.4208167050
 Ca         2.2708423008        7.0608203891        2.2597175933
 Ca         4.1839518778        7.0545521925        5.6606942474
 Ca         5.4623695235       10.6023271091        2.2606564326
 Ca         0.9846068831       10.5932541396        5.6636203075
  S         1.0951640309        7.0476248910        5.7339605157
  S         5.3649165389        7.0683360075        2.1869200214
  S         4.2489318257       10.5885387381        5.7321014855
  S         2.1716340049       10.5940826279        2.1885426772
  O         0.1819292566       12.9157128676        5.7245699915
  O         6.2744034669       12.9377574090        2.2025948973
  O         6.2726029879        8.2682871477        2.2052788716
  O         0.1895433672        8.2506386321        5.7241636380
  O         3.3311819139        9.3940519541        5.7151797273
  O         3.0801091046        9.3943636747        2.2052378399
  O         3.0771632823       11.7970546834        2.1972268668
  O         3.3389191325       11.7915157984        5.7236406236
  O         2.0294351692        7.0347039430        6.8794445385
  O         4.4306984299        7.0810114467        1.0416330389
  O         1.9629938601        7.0549196261        4.5009831989
  O         4.4979263069        7.0597542494        3.4207332152
  O         5.1676713522       10.5740519581        6.8864750669
  O         1.2386922187       10.5818673186        1.0420045400
  O         5.1343250440       10.6013847867        4.5065443362
  O         1.3035565949       10.6009788370        3.4217165553
 Ca         8.6528268534        0.0226293311        2.2546597298
 Ca        10.5763937185        0.0233912525        5.6626462529
 Ca        11.8434403608        3.5250080075        2.2599541013
 Ca         7.3668459150        3.5222114738        5.6642854310
  S         7.4833990709        0.0107242298        5.7337846046
  S        11.7475287475        0.0179469137        2.1857012114
  S        10.6325334812        3.5256862305        5.7318355343
  S         8.5541001111        3.5288024872        2.1857872285
  O         6.5737762916        5.8632697551        5.7248495805
  O        12.6538409063        5.8641961617        2.1967908910
  O        12.6534080527        1.2201707379        2.1869508967
  O         6.5690959965        1.2037809476        5.7291884814
  O         9.7216292138        2.3234538342        5.7241098658
  O         9.4620521058        2.3272225359        2.1885631532
  O         9.4646159144        4.7263875218        2.2044714551
  O         9.7150925701        4.7204543890        5.7152360051
  O         8.4175345571        0.0102917419        6.8780187983
  O        10.8125040344        0.0097715587        1.0417063837
  O         8.3447657673        0.0224087341        4.4965500302
  O        10.8844905628        0.0269583625        3.4220013948
  O        11.5516563803        3.5395337983        6.8860189284
  O         7.6211374632        3.5380772401        1.0408019603
  O        11.5170872442        3.5129796347        4.5057056509
  O         7.6892529956        3.5158058868        3.4212289784
 Ca         8.6552043142        7.0607528849        2.2594805149
 Ca        10.5685711565        7.0599715580        5.6608914970
 Ca        11.8472467266       10.6016510791        2.2615834047
 Ca         7.3726376690       10.5985654554        5.6626711318
  S         7.4796311832        7.0663802383        5.7341792633
  S        11.7489040965        7.0674816133        2.1872938949
  S        10.6432773333       10.5951910751        5.7319749190
  S         8.5557563528       10.5945389556        2.1879284666
  O         6.5748133605       12.9238857916        5.7200393449
  O        12.6583866281       12.9347372366        2.2029027427
  O        12.6567132107        8.2674601468        2.2052393199
  O         6.5711368108        8.2664162309        5.7169607123
  O         9.7127352426        9.4079910172        5.7142707456
  O         9.4636396757        9.3944607984        2.2053652813
  O         9.4614122114       11.7970594434        2.1965833316
  O         9.7580753808       11.8126737010        5.7183895451
  O         8.4141555848        7.0779676163        6.8795270424
  O        10.8155484425        7.0801205190        1.0412883733
  O         8.3471515706        7.0592371715        4.5010134286
  O        10.8818536962        7.0610763959        3.4211890125
  O        11.5591248123       10.5690781747        6.8882676627
  O         7.6223525504       10.5816965558        1.0418016367
  O        11.5277094133       10.5954437767        4.5060633857
  O         7.6875767782       10.6032866640        3.4213961635
      96
 i =       35, E =     -1777.7931881377
 Ca         2.2678526495        0.0215957538        2.2547155854
 Ca         4.1907085657       -0.0195669085        5.6571773043
 Ca         5.4586138987        3.5261662412        2.2589334510
 Ca         0.9876922899        3.5165480756        5.6631361999
  S         1.0998749812       -0.0079521828        5.7322681823
  S         5.3622254799        0.0192382265        2.1694683092
  S         4.2486152966        3.5190576792        5.7305097056
  S         2.1701605982        3.5283889624        2.1853991753
  O         0.1866033237        5.8473476127        5.7174501351
  O         6.2705223121        5.8655603793        2.1961653254
  O         6.2658431586        1.2240254460        2.1304311002
  O         0.1933976151        1.1938959522        5.7211598641
  O         3.3466409677        2.3112171832        5.7215552423
  O         3.0779843183        2.3272494598        2.1879112835
  O         3.0802899548        4.7263083729        2.2042280360
  O         3.3268799001        4.7122208799        5.7122903642
  O         2.0340784071       -0.0110051337        6.8765570919
  O         4.4199345758       -0.0057155983        1.0331894951
  O         1.9618767632       -0.0195358771        4.4950204195
  O         4.5073529513        0.0421903196        3.4132135539
  O         5.1670114758        3.5407306750        6.8855769362
  O         1.2364611957        3.5371561493        1.0404985912
  O         5.1348492900        3.5141245425        4.5048838882
  O         1.3055425430        3.5158314402        3.4205481035
 Ca         2.2710313934        7.0609736399        2.2596511341
 Ca         4.1840702921        7.0544505975        5.6604822931
 Ca         5.4623865461       10.6019201728        2.2607093434
 Ca         0.9867202111       10.5936056091        5.6634927201
  S         1.0953741872        7.0474124428        5.7339452137
  S         5.3652433771        7.0682971897        2.1868245181
  S         4.2492396912       10.5886627637        5.7322317152
  S         2.1719198060       10.5940130027        2.1883794437
  O         0.1822745552       12.9157641056        5.7246421926
  O         6.2748344190       12.9367387050        2.2036017092
  O         6.2728046491        8.2683225953        2.2047917251
  O         0.1898311738        8.2503599628        5.7237666612
  O         3.3316006393        9.3941475682        5.7153740184
  O         3.0803264099        9.3942317227        2.2051793781
  O         3.0774719352       11.7969287149        2.1970494710
  O         3.3392057810       11.7915835827        5.7237605193
  O         2.0300659059        7.0356214116        6.8792127336
  O         4.4312704734        7.0797314782        1.0412649787
  O         1.9632126584        7.0545067705        4.5009818182
  O         4.4979603909        7.0594973691        3.4204396855
  O         5.1679546626       10.5741209792        6.8866736571
  O         1.2388612483       10.5821875497        1.0418377314
  O         5.1346229698       10.6014324157        4.5066602426
  O         1.3039399211       10.6010234289        3.4214313012
 Ca         8.6529643743        0.0224380754        2.2544987084
 Ca        10.5772175658        0.0240868884        5.6625306578
 Ca        11.8431035842        3.5258996572        2.2600644013
 Ca         7.3677484840        3.5221272711        5.6639685099
  S         7.4841284122        0.0109241315        5.7334147438
  S        11.7478661225        0.0190581818        2.1855599329
  S        10.6325946409        3.5257148442        5.7318869151
  S         8.5542479632        3.5285837238        2.1855665624
  O         6.5735436420        5.8637818836        5.7236556952
  O        12.6543560803        5.8647131808        2.1965910206
  O        12.6549324155        1.2210131313        2.1880536553
  O         6.5704865614        1.2045413349        5.7296025903
  O         9.7216713516        2.3235916876        5.7241610254
  O         9.4623784138        2.3272549620        2.1884805578
  O         9.4646197633        4.7263434880        2.2045389933
  O         9.7151817664        4.7205860048        5.7153717734
  O         8.4180377084        0.0096206697        6.8777728189
  O        10.8130551949        0.0109896509        1.0413346897
  O         8.3451626393        0.0217426937        4.4960808063
  O        10.8841618895        0.0285474352        3.4211947990
  O        11.5517234551        3.5396616002        6.8861318810
  O         7.6212981260        3.5378518160        1.0405553827
  O        11.5171188097        3.5132400764        4.5057494602
  O         7.6892677559        3.5157526395        3.4207991853
 Ca         8.6554325558        7.0606702709        2.2593756133
 Ca        10.5689058136        7.0602704367        5.6604306011
 Ca        11.8475878142       10.6018697799        2.2615786989
 Ca         7.3727850063       10.5986027256        5.6623133346
  S         7.4797054228        7.0666206571        5.7340002810
  S        11.7495380909        7.0679752522        2.1871092106
  S        10.6461133268       10.5957848892        5.7317773475
  S         8.5560153055       10.5942521374        2.1879163791
  O         6.5749297021       12.9244099523        5.7196573102
  O        12.6584991708       12.9356491759        2.2032046443
  O        12.6571859941        8.2679262623        2.2050613786
  O         6.5713078782        8.2667764006        5.7172272736
  O         9.7148855596        9.4092023994        5.7157153541
  O         9.4637857619        9.3942121952        2.2055735074
  O         9.4617495160       11.7967050635        2.1964933142
  O         9.7618798466       11.8132812775        5.7164775436
  O         8.4141096765        7.0786512166        6.8795295226
  O        10.8157945069        7.0807002782        1.0413501222
  O         8.3474420599        7.0598153042        4.5010326710
  O        10.8818308081        7.0608638378        3.4205138783
  O        11.5622126523       10.5696471958        6.8878153252
  O         7.6226084281       10.5819212179        1.0417585530
  O        11.5300424133       10.5938303517        4.5058156225
  O         7.6876879667       10.6031303438        3.4212540209
      96
 i =       36, E =     -1777.7932186978
 Ca         2.2681175254        0.0221322772        2.2547038045
 Ca         4.1909202343       -0.0197012720        5.6577792115
 Ca         5.4582332637        3.5257280746        2.2589101346
 Ca         0.9875924068        3.5165493530        5.6627181280
  S         1.0999280860       -0.0076296300        5.7320361246
  S         5.3619393857        0.0189725887        2.1691907960
  S         4.2500583214        3.5190186014        5.7305560018
  S         2.1700281790        3.5285219214        2.1853284601
  O         0.1863341437        5.8471397741        5.7167357036
  O         6.2707362156        5.8656164307        2.1959711180
  O         6.2656053423        1.2237374671        2.1298053226
  O         0.1932334227        1.1940832859        5.7210740870
  O         3.3511348262        2.3093015230        5.7210465762
  O         3.0778806771        2.3273922436        2.1876816688
  O         3.0803944501        4.7263182588        2.2040845937
  O         3.3269102445        4.7113429130        5.7124002383
  O         2.0338157121       -0.0104022895        6.8764786186
  O         4.4194581278       -0.0061408374        1.0331100424
  O         1.9621039036       -0.0194312017        4.4949060238
  O         4.5070987977        0.0415949369        3.4130974171
  O         5.1678745575        3.5414179931        6.8859334793
  O         1.2363424298        3.5373388135        1.0404913287
  O         5.1361982985        3.5148159947        4.5050266619
  O         1.3056253153        3.5161806218        3.4206319757
 Ca         2.2712255321        7.0610095803        2.2593626541
 Ca         4.1840668111        7.0541900218        5.6603377115
 Ca         5.4621174288       10.6015283872        2.2607494814
 Ca         0.9889344499       10.5937875289        5.6633959826
  S         1.0955196611        7.0469990495        5.7338704306
  S         5.3652511895        7.0682490008        2.1867739305
  S         4.2497724955       10.5886654448        5.7324934431
  S         2.1721311701       10.5940960299        2.1881201275
  O         0.1824748498       12.9160058299        5.7244433095
  O         6.2742494846       12.9363291684        2.2027815748
  O         6.2726536673        8.2683918950        2.2049796432
  O         0.1900550202        8.2498239212        5.7240161659
  O         3.3321847812        9.3941400830        5.7155704367
  O         3.0804764873        9.3942131988        2.2050256059
  O         3.0778615487       11.7968637329        2.1967902743
  O         3.3398465636       11.7916159403        5.7239395198
  O         2.0302226266        7.0355585233        6.8791769315
  O         4.4316381043        7.0798964341        1.0409153707
  O         1.9632409793        7.0536148821        4.5007541259
  O         4.4976394471        7.0594107459        3.4202375221
  O         5.1684630275       10.5742163580        6.8869553261
  O         1.2389839546       10.5822962988        1.0415601538
  O         5.1351399410       10.6014262059        4.5069218015
  O         1.3042649074       10.6011877322        3.4210633569
 Ca         8.6532206636        0.0228661094        2.2542443611
 Ca        10.5781034410        0.0249759001        5.6618866061
 Ca        11.8425791535        3.5269422325        2.2600990098
 Ca         7.3685544578        3.5223708171        5.6638278498
  S         7.4846612952        0.0113392396        5.7331904967
  S        11.7478850232        0.0206127780        2.1850815026
  S        10.6327156436        3.5258855747        5.7320051088
  S         8.5541384617        3.5284680306        2.1853588542
  O         6.5742627083        5.8637748829        5.7244472823
  O        12.6543291795        5.8654780076        2.1961337725
  O        12.6553229762        1.2229217093        2.1890378915
  O         6.5727258547        1.2063542759        5.7304901852
  O         9.7221155592        2.3236359856        5.7242440512
  O         9.4623139927        2.3273288758        2.1882315685
  O         9.4646533542        4.7262892830        2.2044516820
  O         9.7152440195        4.7208104334        5.7155559105
  O         8.4185600093        0.0084146543        6.8774669514
  O        10.8141595527        0.0129924489        1.0400305616
  O         8.3452300867        0.0213720726        4.4956209344
  O        10.8834912659        0.0312778416        3.4199368433
  O        11.5519742801        3.5397476281        6.8861878204
  O         7.6212235076        3.5377409000        1.0403486742
  O        11.5170874830        3.5135205643        4.5057749594
  O         7.6894269241        3.5155480404        3.4207316290
 Ca         8.6555510931        7.0606733763        2.2591000694
 Ca        10.5690919524        7.0610565177        5.6603060143
 Ca        11.8476232175       10.6020475189        2.2614525701
 Ca         7.3733486676       10.5986389325        5.6619898140
  S         7.4797172905        7.0670383834        5.7338119908
  S        11.7496250717        7.0687241725        2.1869858323
  S        10.6498756641       10.5969331778        5.7317613140
  S         8.5561450277       10.5942105278        2.1878514687
  O         6.5744863780       12.9253148331        5.7192870022
  O        12.6577041936       12.9364921067        2.2033891406
  O        12.6575442294        8.2683514879        2.2047099064
  O         6.5709036241        8.2669979992        5.7163390657
  O         9.7180773223        9.4108998766        5.7177520218
  O         9.4637819131        9.3941954348        2.2054680859
  O         9.4619377513       11.7966755942        2.1961724414
  O         9.7671336654       11.8146320977        5.7157980893
  O         8.4140829354        7.0793542475        6.8793793977
  O        10.8152898698        7.0812672546        1.0416503393
  O         8.3474799261        7.0605222726        4.5008121795
  O        10.8820190948        7.0598707640        3.4205708879
  O        11.5674388589       10.5708742869        6.8867663242
  O         7.6227194066       10.5820009764        1.0416986661
  O        11.5318949624       10.5919839776        4.5047632857
  O         7.6877573755       10.6028888430        3.4212392921
      96
 i =       37, E =     -1777.7933059573
 Ca         2.2686187637        0.0229568064        2.2550465772
 Ca         4.1919925746       -0.0199029585        5.6593042183
 Ca         5.4577374121        3.5240819639        2.2588857180
 Ca         0.9875550665        3.5164848337        5.6618406767
  S         1.1001361826       -0.0068048364        5.7315079146
  S         5.3612833724        0.0180163829        2.1690827773
  S         4.2559337676        3.5190768711        5.7308885933
  S         2.1697420573        3.5286839864        2.1853028100
  O         0.1865035960        5.8464120208        5.7163098087
  O         6.2712782628        5.8650253816        2.1956843845
  O         6.2656717825        1.2221252977        2.1295926152
  O         0.1930059550        1.1946754837        5.7209955509
  O         3.3689459348        2.3019797574        5.7202218946
  O         3.0777062550        2.3275679441        2.1874246387
  O         3.0806120255        4.7262717867        2.2038030655
  O         3.3271134630        4.7078320886        5.7128105470
  O         2.0333484214       -0.0093023689        6.8763031791
  O         4.4183128511       -0.0065651283        1.0332380452
  O         1.9627814270       -0.0187502004        4.4948216924
  O         4.5060729662        0.0402857287        3.4128611694
  O         5.1715275886        3.5439743251        6.8874306714
  O         1.2360532798        3.5375544134        1.0406451348
  O         5.1411157167        3.5174601304        4.5052363269
  O         1.3058043612        3.5169206690        3.4209731210
 Ca         2.2717601035        7.0606957998        2.2586725975
 Ca         4.1840890915        7.0535367646        5.6599445232
 Ca         5.4615048315       10.6005317825        2.2608696724
 Ca         0.9938795383       10.5942460879        5.6629615376
  S         1.0959102818        7.0463286582        5.7337847610
  S         5.3653612204        7.0675028950        2.1866957920
  S         4.2515067138       10.5886729831        5.7331977963
  S         2.1727320954       10.5941584059        2.1873285856
  O         0.1829028108       12.9167290414        5.7237825757
  O         6.2732901464       12.9353531878        2.2019394807
  O         6.2720908834        8.2682324618        2.2050955570
  O         0.1903461781        8.2486156162        5.7243621043
  O         3.3338500767        9.3941588124        5.7159910439
  O         3.0808557581        9.3939685348        2.2046500465
  O         3.0791043179       11.7963923251        2.1956234307
  O         3.3417745321       11.7915850458        5.7242581388
  O         2.0302844447        7.0359278617        6.8794164428
  O         4.4321502143        7.0792134255        1.0404349719
  O         1.9634267595        7.0511789442        4.5002695641
  O         4.4973706770        7.0593059848        3.4201384293
  O         5.1699707044       10.5743063028        6.8877610961
  O         1.2392246624       10.5824477653        1.0408728908
  O         5.1369019007       10.6014250133        4.5077044385
  O         1.3054314738       10.6018300601        3.4201299005
 Ca         8.6537908555        0.0236614255        2.2534417507
 Ca        10.5800647877        0.0268263393        5.6603613277
 Ca        11.8415568113        3.5288230449        2.2601765363
 Ca         7.3706811930        3.5234013209        5.6637694402
  S         7.4860326805        0.0130098256        5.7329039114
  S        11.7482063559        0.0234830286        2.1840659705
  S        10.6332539153        3.5264335278        5.7322452751
  S         8.5539445068        3.5280814131        2.1848839676
  O         6.5751313290        5.8647581550        5.7246289248
  O        12.6546196477        5.8667023115        2.1949460684
  O        12.6571743848        1.2258537643        2.1919615156
  O         6.5795083388        1.2125684407        5.7336990555
  O         9.7235388495        2.3238145551        5.7243591020
  O         9.4621857318        2.3274357152        2.1874085666
  O         9.4647038839        4.7261831099        2.2041533608
  O         9.7154188453        4.7213056771        5.7159354343
  O         8.4205182610        0.0051636670        6.8765284147
  O        10.8173646634        0.0170053020        1.0368184639
  O         8.3453621293        0.0207281671        4.4946836684
  O        10.8824968844        0.0381924473        3.4171746855
  O        11.5528762631        3.5399170310        6.8861971908
  O         7.6209953159        3.5373519938        1.0399266234
  O        11.5172220163        3.5143996540        4.5057584780
  O         7.6897564143        3.5148782670        3.4204326019
 Ca         8.6557849240        7.0603705834        2.2585357644
 Ca        10.5696485368        7.0632133163        5.6602809909
 Ca        11.8477244393       10.6022836352        2.2607152486
 Ca         7.3747534288       10.5986410140        5.6614048373
  S         7.4800320034        7.0682181063        5.7333559640
  S        11.7498135186        7.0696758487        2.1865620429
  S        10.6583416818       10.5996884938        5.7316551816
  S         8.5565415967       10.5940207549        2.1875243104
  O         6.5730714763       12.9284461392        5.7185732448
  O        12.6555412652       12.9372568824        2.2040410699
  O        12.6580063795        8.2688057197        2.2039022028
  O         6.5707782643        8.2680851777        5.7160034096
  O         9.7263939273        9.4141735669        5.7223447878
  O         9.4639277788        9.3941259412        2.2052361610
  O         9.4626074589       11.7964755142        2.1953790158
  O         9.7754483120       11.8155729598        5.7121919914
  O         8.4143137259        7.0805371941        6.8789332940
  O        10.8145037737        7.0806434482        1.0418633134
  O         8.3477039450        7.0622377366        4.5001150984
  O        10.8822112197        7.0577292699        3.4204168333
  O        11.5818197246       10.5746385387        6.8829497259
  O         7.6228508148       10.5820897275        1.0415685575
  O        11.5341737752       10.5870736065        4.5010497639
  O         7.6883165304       10.6022476124        3.4212604592
      96
 i =       38, E =     -1777.7933497900
 Ca         2.2682655312        0.0226212765        2.2552587408
 Ca         4.1919636386       -0.0203283720        5.6585968729
 Ca         5.4583478165        3.5243140786        2.2588335302
 Ca         0.9876760350        3.5164281664        5.6624137509
  S         1.1000433422       -0.0070946617        5.7317871274
  S         5.3611853115        0.0183343491        2.1689779947
  S         4.2558060352        3.5191350230        5.7309763911
  S         2.1697968600        3.5285280577        2.1854886986
  O         0.1867832732        5.8466055989        5.7164572158
  O         6.2710756671        5.8649764653        2.1958828043
  O         6.2658568187        1.2221914886        2.1294278572
  O         0.1932406696        1.1946410670        5.7211260818
  O         3.3662713920        2.3037993581        5.7201792584
  O         3.0776949388        2.3273455223        2.1878234017
  O         3.0804484401        4.7262570248        2.2039541720
  O         3.3277331062        4.7081948366        5.7131385741
  O         2.0334476618       -0.0099411885        6.8765422761
  O         4.4183504983       -0.0059107835        1.0328256959
  O         1.9624478584       -0.0189130804        4.4949694812
  O         4.5062873528        0.0413635691        3.4127440683
  O         5.1719377389        3.5437109856        6.8871769070
  O         1.2360607052        3.5373114309        1.0407882410
  O         5.1407772923        3.5174530802        4.5050901159
  O         1.3056251219        3.5165972810        3.4210355575
 Ca         2.2715411329        7.0605372041        2.2590155188
 Ca         4.1841565811        7.0536472940        5.6602352432
 Ca         5.4618037748       10.6008971124        2.2608597897
 Ca         0.9911972244       10.5938899863        5.6628240216
  S         1.0958223508        7.0466871270        5.7337858890
  S         5.3653250965        7.0675532220        2.1868026117
  S         4.2512786699       10.5885213998        5.7330230371
  S         2.1724406021       10.5940305449        2.1875633167
  O         0.1824781323       12.9166678294        5.7237502676
  O         6.2733666638       12.9357754501        2.2023765075
  O         6.2722405527        8.2681654480        2.2049665640
  O         0.1902686593        8.2491221064        5.7243406169
  O         3.3335282954        9.3939909908        5.7158113643
  O         3.0806335950        9.3939358743        2.2047706260
  O         3.0787092076       11.7963410785        2.1957516868
  O         3.3413558474       11.7913215236        5.7240533495
  O         2.0300878223        7.0357258040        6.8794379077
  O         4.4316109106        7.0793467033        1.0409343831
  O         1.9633845757        7.0518438550        4.5003342947
  O         4.4976339045        7.0594709165        3.4204275485
  O         5.1697479699       10.5742317329        6.8875460917
  O         1.2390087766       10.5822178258        1.0411517628
  O         5.1367281066       10.6015133410        4.5075937017
  O         1.3050542620       10.6017285155        3.4204735779
 Ca         8.6533961075        0.0234931508        2.2536914256
 Ca        10.5787382344        0.0259344131        5.6609952497
 Ca        11.8421169605        3.5274785477        2.2601227765
 Ca         7.3700982641        3.5236106948        5.6640993219
  S         7.4851093722        0.0132519005        5.7334219360
  S        11.7480034885        0.0216319448        2.1847126369
  S        10.6333319604        3.5264012773        5.7320776965
  S         8.5539789184        3.5282662047        2.1851243386
  O         6.5748445031        5.8647141220        5.7247859918
  O        12.6546361730        5.8656500683        2.1955524629
  O        12.6562612352        1.2236767437        2.1906082460
  O         6.5765807711        1.2114784132        5.7336457020
  O         9.7233233859        2.3238784056        5.7242325835
  O         9.4621703925        2.3274518870        2.1875901871
  O         9.4646343226        4.7263151064        2.2042321761
  O         9.7155312187        4.7211583649        5.7157902437
  O         8.4199812234        0.0058033073        6.8768775615
  O        10.8161002878        0.0144896068        1.0382646184
  O         8.3449632837        0.0215202858        4.4954275720
  O        10.8836617817        0.0348161519        3.4190627784
  O        11.5528537843        3.5399011331        6.8860439258
  O         7.6209388729        3.5375476998        1.0401835031
  O        11.5173936929        3.5142148454        4.5056436215
  O         7.6896134322        3.5151106089        3.4205643452
 Ca         8.6557409949        7.0603388030        2.2588403549
 Ca        10.5696122298        7.0624271480        5.6605750858
 Ca        11.8475728471       10.6019214203        2.2604884503
 Ca         7.3743807451       10.5987844452        5.6617863192
  S         7.4801238609        7.0679624686        5.7335146235
  S        11.7496984591        7.0686501980        2.1867479138
  S        10.6544566359       10.5982886180        5.7319292071
  S         8.5563639499       10.5940979527        2.1875451201
  O         6.5732664986       12.9280927371        5.7187863296
  O        12.6561018217       12.9360622457        2.2037992941
  O        12.6575443614        8.2681690211        2.2042617012
  O         6.5710266223        8.2678361242        5.7161215845
  O         9.7238871154        9.4116136717        5.7202234619
  O         9.4639184104        9.3941845714        2.2051142238
  O         9.4622955215       11.7966275350        2.1956003073
  O         9.7686753608       11.8132117373        5.7167834663
  O         8.4144455551        7.0798501654        6.8789965702
  O        10.8150177956        7.0803366200        1.0415668983
  O         8.3477236256        7.0619414229        4.5002453028
  O        10.8821394582        7.0584946508        3.4205753963
  O        11.5781354779       10.5738511499        6.8833387218
  O         7.6226117709       10.5819292303        1.0416518748
  O        11.5315102530       10.5894443566        4.5017958791
  O         7.6881643994       10.6024249381        3.4212288473
      96
 i =       39, E =     -1777.7933950351
 Ca         2.2679590861        0.0229771292        2.2553340980
 Ca         4.1929795791       -0.0218917982        5.6572694951
 Ca         5.4592052964        3.5245080738        2.2586673346
 Ca         0.9882264208        3.5165118457        5.6629908815
  S         1.1002260298       -0.0072186949        5.7319157605
  S         5.3612567337        0.0183707791        2.1679031628
  S         4.2609601533        3.5190407969        5.7316738713
  S         2.1698630036        3.5285412853        2.1856200952
  O         0.1868891044        5.8463555611        5.7165518158
  O         6.2706692728        5.8651564750        2.1960999214
  O         6.2665520444        1.2217921788        2.1276962262
  O         0.1938957261        1.1949538802        5.7212861429
  O         3.3771557442        2.3007477086        5.7207490898
  O         3.0776801542        2.3272276249        2.1880024355
  O         3.0803255233        4.7263922009        2.2040384684
  O         3.3294298611        4.7055802306        5.7143494479
  O         2.0337666265       -0.0104820912        6.8766837493
  O         4.4184362695       -0.0062812531        1.0315710684
  O         1.9622262606       -0.0187076011        4.4948612107
  O         4.5073370679        0.0430173134        3.4122231744
  O         5.1765637068        3.5454158781        6.8879439387
  O         1.2360231569        3.5372227488        1.0410286425
  O         5.1444349507        3.5200331966        4.5049824587
  O         1.3055571618        3.5166116147        3.4211943192
 Ca         2.2711469002        7.0604555893        2.2592457437
 Ca         4.1839001202        7.0534030815        5.6604387797
 Ca         5.4620975740       10.6013132697        2.2608515130
 Ca         0.9895828248       10.5937333647        5.6622829766
  S         1.0957089030        7.0465298582        5.7337389045
  S         5.3650273060        7.0677547481        2.1869015300
  S         4.2521285987       10.5881193518        5.7331902984
  S         2.1724289856       10.5940498176        2.1875844654
  O         0.1821027952       12.9170262658        5.7233310950
  O         6.2737162315       12.9360381803        2.2031940093
  O         6.2722889487        8.2681473064        2.2047890536
  O         0.1905751318        8.2491969790        5.7244421862
  O         3.3343548294        9.3935619894        5.7158961291
  O         3.0805414260        9.3938776109        2.2048034504
  O         3.0786560387       11.7963094315        2.1957788205
  O         3.3418953592       11.7906350367        5.7238372347
  O         2.0300186630        7.0342840433        6.8793031604
  O         4.4308660696        7.0798446299        1.0414142438
  O         1.9634475944        7.0520281921        4.5003495986
  O         4.4977080360        7.0594606382        3.4207551996
  O         5.1704051898       10.5741065278        6.8877286891
  O         1.2389623966       10.5821977831        1.0412986592
  O         5.1378738171       10.6016413680        4.5081111141
  O         1.3049129444       10.6019026895        3.4204105883
 Ca         8.6528927755        0.0238273699        2.2538339016
 Ca        10.5778105372        0.0256877974        5.6614549510
 Ca        11.8423935757        3.5269642843        2.2599728789
 Ca         7.3706752946        3.5250910455        5.6646405223
  S         7.4845009186        0.0155268882        5.7343627536
  S        11.7484491832        0.0215101880        2.1849075149
  S        10.6339102897        3.5266171178        5.7318966952
  S         8.5541215508        3.5284379799        2.1850789212
  O         6.5748044242        5.8653957308        5.7254481671
  O        12.6546906251        5.8652917385        2.1954063692
  O        12.6553640792        1.2240453400        2.1883570611
  O         6.5771685425        1.2153179237        5.7365630559
  O         9.7236628761        2.3242594400        5.7241409458
  O         9.4624035484        2.3276683742        2.1873808659
  O         9.4646054941        4.7266056588        2.2042496372
  O         9.7160653978        4.7211636093        5.7157452704
  O         8.4202719037        0.0049029493        6.8772105277
  O        10.8153697233        0.0122581706        1.0393535551
  O         8.3444141243        0.0226452309        4.4962195504
  O        10.8845392098        0.0341070774        3.4196819358
  O        11.5534352984        3.5400563441        6.8857658746
  O         7.6209699374        3.5378675633        1.0402317561
  O        11.5178770347        3.5143198214        4.5054225337
  O         7.6897900748        3.5150335139        3.4204618278
 Ca         8.6555805531        7.0603008693        2.2589451186
 Ca        10.5695261387        7.0617847212        5.6606624096
 Ca        11.8476836836       10.6020558019        2.2596677407
 Ca         7.3746267465       10.5993727101        5.6621584397
  S         7.4803666247        7.0683760215        5.7336701373
  S        11.7493118350        7.0680492956        2.1868843188
  S        10.6546586109       10.5962960450        5.7322871577
  S         8.5563528598       10.5942331312        2.1874982809
  O         6.5721835633       12.9305783305        5.7180773968
  O        12.6576968467       12.9366677228        2.2042335503
  O        12.6566292120        8.2679430639        2.2050535842
  O         6.5713149477        8.2681975843        5.7161384136
  O         9.7241896601        9.4093225855        5.7196088410
  O         9.4639879763        9.3943445631        2.2049694614
  O         9.4620719841       11.7969516118        2.1959595812
  O         9.7683188603       11.8114299335        5.7193209150
  O         8.4147284969        7.0799715185        6.8790036629
  O        10.8150889366        7.0807699725        1.0414213361
  O         8.3477872010        7.0624661854        4.5002296659
  O        10.8819701768        7.0591470558        3.4207391320
  O        11.5802126437       10.5724343386        6.8831989677
  O         7.6224437046       10.5819252796        1.0417782472
  O        11.5313137086       10.5894236972        4.5019155682
  O         7.6881313655       10.6026655021        3.4212316825
      96
 i =       40, E =     -1777.7933321150
 Ca         2.2675409815        0.0219613195        2.2550017331
 Ca         4.1933619412       -0.0224406297        5.6564732174
 Ca         5.4602250654        3.5249837686        2.2589001992
 Ca         0.9892991650        3.5166414879        5.6636281805
  S         1.1002398525       -0.0074042363        5.7321215772
  S         5.3615109405        0.0182323943        2.1683578399
  S         4.2636354618        3.5186806614        5.7316937092
  S         2.1700892988        3.5283389125        2.1858123635
  O         0.1871122445        5.8465325416        5.7166969456
  O         6.2705089278        5.8648683869        2.1964899812
  O         6.2672374675        1.2212944898        2.1296212690
  O         0.1945937561        1.1952916810        5.7217512661
  O         3.3787273197        2.3017856170        5.7150272194
  O         3.0776445798        2.3268461092        2.1885351727
  O         3.0802046972        4.7263266804        2.2041436923
  O         3.3320526891        4.7048430631        5.7161724798
  O         2.0342606198       -0.0110236658        6.8766501282
  O         4.4198561742       -0.0061782491        1.0310640942
  O         1.9619323863       -0.0187315770        4.4949080689
  O         4.5077735490        0.0430519731        3.4125580279
  O         5.1803024374        3.5448845047        6.8872407798
  O         1.2363429013        3.5370112285        1.0410430277
  O         5.1463275620        3.5218371635        4.5047238625
  O         1.3054919333        3.5162496469        3.4212974798
 Ca         2.2712615872        7.0605121441        2.2596082301
 Ca         4.1845375365        7.0533034610        5.6606291446
 Ca         5.4625483333       10.6015473854        2.2609410388
 Ca         0.9877675208       10.5938786581        5.6622307523
  S         1.0958214038        7.0466997273        5.7336575975
  S         5.3653868449        7.0676696962        2.1869553023
  S         4.2522207794       10.5878617134        5.7331800440
  S         2.1722002470       10.5938705205        2.1878355636
  O         0.1816636509       12.9172401430        5.7235246902
  O         6.2738957113       12.9358801373        2.2029953631
  O         6.2730371311        8.2677518067        2.2047564144
  O         0.1910321346        8.2496754588        5.7239177818
  O         3.3348348759        9.3930202472        5.7159766936
  O         3.0803676729        9.3938047288        2.2050539110
  O         3.0781005444       11.7962807458        2.1962284652
  O         3.3414800867       11.7899919171        5.7236375213
  O         2.0304237772        7.0336433168        6.8790068148
  O         4.4310508233        7.0798814383        1.0415440399
  O         1.9636399432        7.0529617528        4.5004647023
  O         4.4981744337        7.0594553396        3.4208261619
  O         5.1704404113       10.5741850272        6.8877268141
  O         1.2390264592       10.5819930658        1.0414154685
  O         5.1383700402       10.6019461528        4.5085038336
  O         1.3044523554       10.6016948623        3.4206610856
 Ca         8.6523304936        0.0231832164        2.2545496994
 Ca        10.5764699263        0.0242832525        5.6623739885
 Ca        11.8432278722        3.5256281125        2.2597125781
 Ca         7.3716678800        3.5263248646        5.6650787419
  S         7.4837208463        0.0172447976        5.7356023842
  S        11.7480256573        0.0195250255        2.1851407670
  S        10.6341497986        3.5265084723        5.7317687072
  S         8.5544399196        3.5285143052        2.1852137322
  O         6.5747841731        5.8658484841        5.7253199648
  O        12.6550841021        5.8646074006        2.1967397881
  O        12.6547483417        1.2212448713        2.1868551999
  O         6.5769833635        1.2179274593        5.7393792394
  O         9.7232621086        2.3245110814        5.7240815455
  O         9.4625064125        2.3274695718        2.1876345334
  O         9.4647318680        4.7266471884        2.2042775762
  O         9.7166793026        4.7211033148        5.7157513719
  O         8.4199091066        0.0058070698        6.8782350328
  O        10.8132645255        0.0101641777        1.0408902630
  O         8.3439842642        0.0244973309        4.4974685747
  O        10.8840105700        0.0316251254        3.4201013019
  O        11.5535818606        3.5398894835        6.8856503054
  O         7.6213865481        3.5380107007        1.0401937435
  O        11.5182367234        3.5139119549        4.5054514825
  O         7.6900279422        3.5149702711        3.4204590260
 Ca         8.6557453113        7.0603643298        2.2592329883
 Ca        10.5698712273        7.0602905437        5.6605207782
 Ca        11.8478690479       10.6019722596        2.2596441144
 Ca         7.3744524266       10.6000016168        5.6627690684
  S         7.4807658819        7.0684610432        5.7338576000
  S        11.7495279266        7.0672401114        2.1870278384
  S        10.6519033176       10.5932332538        5.7319334036
  S         8.5561522885       10.5942158415        2.1876949055
  O         6.5713609867       12.9323859004        5.7180185033
  O        12.6588889051       12.9359281002        2.2031823390
  O        12.6564466061        8.2675376430        2.2049129117
  O         6.5722100076        8.2684744761        5.7167210049
  O         9.7223514051        9.4053567362        5.7180351286
  O         9.4640426721        9.3944134030        2.2052218189
  O         9.4615573172       11.7970936802        2.1967583540
  O         9.7634659929       11.8082066957        5.7148874619
  O         8.4152697907        7.0795343002        6.8790609375
  O        10.8156526947        7.0796270875        1.0412523484
  O         8.3477370774        7.0617585439        4.5002098351
  O        10.8824051153        7.0601606549        3.4208872776
  O        11.5756854352       10.5701217330        6.8849045336
  O         7.6225815136       10.5817919275        1.0417186041
  O        11.5308528104       10.5907816464        4.5031488282
  O         7.6879910095       10.6029428514        3.4214158708
      96
 i =       41, E =     -1777.7933745401
 Ca         2.2677866976        0.0214549921        2.2546371520
 Ca         4.1936036499       -0.0227344316        5.6569751337
 Ca         5.4604140748        3.5249093246        2.2590220857
 Ca         0.9900401294        3.5166166088        5.6633025981
  S         1.1003293511       -0.0071824326        5.7320910207
  S         5.3620391674        0.0180203792        2.1689026120
  S         4.2655065729        3.5179893054        5.7315276943
  S         2.1703790972        3.5282764247        2.1857658728
  O         0.1874042530        5.8463397503        5.7172257239
  O         6.2704437443        5.8645956405        2.1963681802
  O         6.2677028989        1.2211287048        2.1297291526
  O         0.1947777191        1.1956793445        5.7221072346
  O         3.3811950025        2.3010330310        5.7130502142
  O         3.0779375100        2.3267520601        2.1889031816
  O         3.0804196996        4.7262665028        2.2041000880
  O         3.3337988475        4.7039883016        5.7173033581
  O         2.0344770960       -0.0105155735        6.8764341868
  O         4.4206051315       -0.0061892208        1.0315546499
  O         1.9620359411       -0.0188664392        4.4948460913
  O         4.5074931186        0.0430289759        3.4124648344
  O         5.1833591425        3.5439565495        6.8862972077
  O         1.2366325417        3.5368995471        1.0409964130
  O         5.1470721345        3.5235433906        4.5039356929
  O         1.3056567445        3.5161431312        3.4211736163
 Ca         2.2713151002        7.0606162665        2.2594081178
 Ca         4.1849250413        7.0529708616        5.6606708589
 Ca         5.4624482012       10.6013504424        2.2610618578
 Ca         0.9884717777       10.5940151313        5.6626181365
  S         1.0959732902        7.0466094319        5.7338064157
  S         5.3655346318        7.0675816894        2.1868456217
  S         4.2524276254       10.5878578618        5.7334769378
  S         2.1723001938       10.5938723429        2.1878093750
  O         0.1817247120       12.9174762045        5.7238222360
  O         6.2740493752       12.9353798271        2.2027758241
  O         6.2730915228        8.2677998166        2.2048396209
  O         0.1910706974        8.2495059021        5.7238969654
  O         3.3353198660        9.3928390509        5.7161443181
  O         3.0804770846        9.3938241374        2.2050207995
  O         3.0781073228       11.7963725891        2.1963486097
  O         3.3416469559       11.7899046661        5.7237223120
  O         2.0308461956        7.0341800804        6.8789141586
  O         4.4313877339        7.0798051871        1.0413432403
  O         1.9636201284        7.0529097912        4.5004956681
  O         4.4981440016        7.0596425687        3.4205682777
  O         5.1705852201       10.5742170098        6.8880524129
  O         1.2392053017       10.5819862119        1.0413719084
  O         5.1386528317       10.6020094910        4.5088621482
  O         1.3048215508       10.6016515849        3.4208551369
 Ca         8.6527166132        0.0229123432        2.2548094660
 Ca        10.5767163468        0.0235532681        5.6622415612
 Ca        11.8431885437        3.5252768812        2.2596256858
 Ca         7.3731497079        3.5271963106        5.6650038426
  S         7.4837374691        0.0185759415        5.7374113951
  S        11.7475000171        0.0187919532        2.1847498117
  S        10.6343662316        3.5263126101        5.7319987424
  S         8.5548064358        3.5284837337        2.1850421362
  O         6.5744212573        5.8664814946        5.7247833712
  O        12.6547896416        5.8644013326        2.1971620781
  O        12.6552428146        1.2195431941        2.1873531219
  O         6.5773446511        1.2198508853        5.7490947671
  O         9.7235866019        2.3242430652        5.7241422347
  O         9.4627813457        2.3272954052        2.1876253379
  O         9.4650774833        4.7266050780        2.2040699645
  O         9.7170625542        4.7210318752        5.7159183128
  O         8.4205533662        0.0060397381        6.8793910113
  O        10.8130166708        0.0105963993        1.0403405305
  O         8.3433209616        0.0270926339        4.4984983788
  O        10.8840439569        0.0311305944        3.4201579314
  O        11.5537364315        3.5398021844        6.8858901598
  O         7.6217523131        3.5378362429        1.0400174000
  O        11.5183754401        3.5139890034        4.5056802650
  O         7.6903529252        3.5148957646        3.4200968675
 Ca         8.6555335872        7.0603847645        2.2592683672
 Ca        10.5699439930        7.0596281220        5.6605490050
 Ca        11.8477805535       10.6018899387        2.2598733617
 Ca         7.3743610626       10.6004198143        5.6625935830
  S         7.4807815811        7.0687318638        5.7340896881
  S        11.7497081009        7.0674279653        2.1869119225
  S        10.6517554095       10.5930221848        5.7317494803
  S         8.5562695739       10.5942826516        2.1877718287
  O         6.5710736488       12.9338249606        5.7181506786
  O        12.6581590039       12.9351023888        2.2027002352
  O        12.6570409670        8.2675956193        2.2045492154
  O         6.5728052510        8.2691086938        5.7171292414
  O         9.7225804170        9.4048591017        5.7175742879
  O         9.4641484152        9.3944255977        2.2053515635
  O         9.4616277322       11.7972263535        2.1968826081
  O         9.7635203886       11.8085677714        5.7159995938
  O         8.4155375638        7.0792420507        6.8790981494
  O        10.8159742452        7.0794345951        1.0410744293
  O         8.3477003989        7.0609670168        4.5004190196
  O        10.8822358335        7.0603715708        3.4204671138
  O        11.5740770042       10.5697411298        6.8858687672
  O         7.6228550560       10.5817688312        1.0417274626
  O        11.5307413248       10.5903474746        4.5029720406
  O         7.6880438230       10.6028507364        3.4213908230
      96
 i =       42, E =     -1777.7815499460
 Ca         2.2641621971        0.0284377076        2.2607521564
 Ca         4.1953668858       -0.0190621218        5.6572924935
 Ca         5.4619660265        3.5243912191        2.2502189448
 Ca         0.9804831257        3.5174909033        5.6706507555
  S         1.1023747440       -0.0070903611        5.7335423661
  S         5.3481634428        0.0191664354        2.1490638219
  S         4.2696243052        3.5316438009        5.7282885708
  S         2.1688812740        3.5264678993        2.1872142754
  O         0.1782120096        5.8555656459        5.6838368117
  O         6.2802143067        5.8804855283        2.2127937262
  O         6.2683980675        1.2114398367        2.1478630399
  O         0.1966112071        1.1922462078        5.7103628936
  O         3.3662222484        2.3165675417        5.7490650769
  O         3.0694609388        2.3226000768        2.1788282550
  O         3.0752260238        4.7282264091        2.2051814768
  O         3.3167187962        4.7066991688        5.7128454285
  O         2.0365322650       -0.0216191174        6.8819835964
  O         4.3973157547       -0.0122068267        1.0144366624
  O         1.9565517838       -0.0143277823        4.4939473234
  O         4.5345275192        0.0327758775        3.4259098387
  O         5.1739800772        3.5578829978        6.8959235321
  O         1.2333757180        3.5349080131        1.0417108403
  O         5.1495067400        3.5281274648        4.4975056691
  O         1.3004505837        3.5164021708        3.4208977650
 Ca         2.2715171720        7.0579052021        2.2658040704
 Ca         4.1819343593        7.0527843205        5.6592530595
 Ca         5.4660536449       10.6033156193        2.2605630880
 Ca         0.9736240029       10.5902203292        5.6576105883
  S         1.0963864647        7.0506645358        5.7289933116
  S         5.3604498274        7.0700667755        2.1896827510
  S         4.2556899771       10.5847903253        5.7306856075
  S         2.1720313102       10.5937615268        2.1900903166
  O         0.1822124082       12.9158828517        5.7142324681
  O         6.2776763841       12.9477111253        2.2208249523
  O         6.2757363175        8.2628997623        2.1977706363
  O         0.1921213281        8.2541949189        5.7266839297
  O         3.3319267328        9.3960259489        5.7173045292
  O         3.0813513825        9.3941264564        2.2050689553
  O         3.0796009611       11.7949823852        2.1925784909
  O         3.3403222494       11.7853003209        5.7233222634
  O         2.0211736323        7.0090251858        6.8830085730
  O         4.4237524043        7.0791448450        1.0435864862
  O         1.9658858130        7.0495869183        4.4969703703
  O         4.5035835344        7.0550678952        3.4316577664
  O         5.1722567844       10.5759008866        6.8853977502
  O         1.2355208964       10.5850529557        1.0456689399
  O         5.1415409056       10.6023162824        4.5057765680
  O         1.2848327000       10.5988786168        3.4072123565
 Ca         8.6401978073        0.0314140597        2.2617691751
 Ca        10.5685289518        0.0350396003        5.6778667794
 Ca        11.8488242158        3.5249022989        2.2654644121
 Ca         7.3590653977        3.5187476480        5.6708889359
  S         7.4782213498        0.0193695697        5.7892367847
  S        11.7715854656        0.0275737107        2.1984504872
  S        10.6420751822        3.5274904164        5.7281806976
  S         8.5490940934        3.5266448799        2.1858940589
  O         6.5898989114        5.8458943258        5.7702585440
  O        12.6652616434        5.8624600900        2.1859080196
  O        12.6285770877        1.2685442812        2.1557787002
  O         6.5521601982        1.1984431588        5.9490947671
  O         9.7225683617        2.3334899780        5.7224128415
  O         9.4618126649        2.3301474804        2.1873296364
  O         9.4598449844        4.7257008754        2.2119363221
  O         9.7146379843        4.7186598177        5.7150195972
  O         8.4588794203       -0.0317916579        6.8877452433
  O        10.8156053126       -0.0009081282        1.0662682443
  O         8.3180071567        0.0678172534        4.5363202128
  O        10.8726800875        0.0288698967        3.4093138342
  O        11.5551851645        3.5424732893        6.8853472311
  O         7.6200128904        3.5400399069        1.0377354638
  O        11.5250495628        3.5107738804        4.4992036816
  O         7.6895111414        3.5119302377        3.4288403372
 Ca         8.6635175620        7.0604872566        2.2616645001
 Ca        10.5707717660        7.0703735357        5.6586243238
 Ca        11.8516138816       10.5980473835        2.2550141707
 Ca         7.3791597448       10.6018669342        5.6717362403
  S         7.4839297282        7.0598167567        5.7270691606
  S        11.7451612688        7.0544381333        2.1903851604
  S        10.6438294165       10.5847597359        5.7455790060
  S         8.5531782800       10.5912007529        2.1851984551
  O         6.5788199194       12.9220887161        5.6941264375
  O        12.6700703981       12.9324552028        2.2235833370
  O        12.6438810293        8.2578210424        2.2163521570
  O         6.5606405170        8.2527831333        5.6804464245
  O         9.7082913203        9.4056931208        5.7161760519
  O         9.4632524750        9.3947578734        2.1982506276
  O         9.4590285832       11.7944353578        2.1976539683
  O         9.7332381024       11.7766303648        5.6320137188
  O         8.4030987540        7.0915490932        6.8836189702
  O        10.8122041114        7.0846632871        1.0408959844
  O         8.3511583745        7.0686565106        4.4941205360
  O        10.8984552779        7.0649311072        3.4426231380
  O        11.6032310779       10.5775494118        6.8648928691
  O         7.6155931551       10.5866368553        1.0409371977
  O        11.5355976905       10.6039847685        4.5260500537
  O         7.6874320211       10.6068150575        3.4223767662
      96
 i =       43, E =     -1777.7899178400
 Ca         2.2723172679        0.0124769289        2.2490774735
 Ca         4.1985565429       -0.0254885454        5.6693906749
 Ca         5.4615492398        3.5227875636        2.2599445268
 Ca         1.0020855004        3.5163546825        5.6569705945
  S         1.1023193288       -0.0021360127        5.7313979257
  S         5.3690288755        0.0140906082        2.1761551984
  S         4.2962816965        3.5076899521        5.7274474174
  S         2.1758951011        3.5264752293        2.1844326801
  O         0.1906732317        5.8446128016        5.7219249949
  O         6.2703775520        5.8617573443        2.1954597240
  O         6.2758815914        1.2160637848        2.1344041779
  O         0.1967530276        1.2013734346        5.7265884776
  O         3.4188545211        2.2874302366        5.6913624805
  O         3.0825553944        2.3243048294        2.1918568625
  O         3.0843239871        4.7252364692        2.2027058271
  O         3.3587615736        4.6901553469        5.7345868150
  O         2.0379591526        0.0003035433        6.8735147798
  O         4.4296046783       -0.0081446760        1.0388479637
  O         1.9635031529       -0.0200972676        4.4936748479
  O         4.5058811294        0.0423720503        3.4143346505
  O         5.2333365542        3.5280967343        6.8706354914
  O         1.2414436359        3.5346602990        1.0398566203
  O         5.1574534138        3.5538285771        4.4878656480
  O         1.3091673827        3.5137710862        3.4186943811
 Ca         2.2713990889        7.0617972387        2.2552818744
 Ca         4.1906320190        7.0472008798        5.6607401525
 Ca         5.4589163902       10.5965798611        2.2631035424
 Ca         1.0036709110       10.5963305273        5.6698081935
  S         1.0983435500        7.0464986331        5.7364574223
  S         5.3662955883        7.0655380867        2.1847752899
  S         4.2562155148       10.5880792148        5.7388110486
  S         2.1746608447       10.5941080584        2.1869624452
  O         0.1843377035       12.9205342506        5.7281378533
  O         6.2763245512       12.9271163523        2.2013325650
  O         6.2731216074        8.2674221639        2.2058266021
  O         0.1899432381        8.2469113215        5.7239799712
  O         3.3422968278        9.3916359954        5.7187649089
  O         3.0833985972        9.3944174251        2.2035181123
  O         3.0796949861       11.7979473751        2.1972961957
  O         3.3451558471       11.7895204440        5.7261116870
  O         2.0358125512        7.0443463235        6.8792319532
  O         4.4361527355        7.0773325275        1.0368348642
  O         1.9631046948        7.0499906565        4.5007488688
  O         4.4977151008        7.0618222057        3.4177186089
  O         5.1728926557       10.5749268830        6.8938163723
  O         1.2424046978       10.5822687468        1.0404852592
  O         5.1430149961       10.6023408753        4.5144572661
  O         1.3096011372       10.6008411277        3.4214262558
 Ca         8.6602135703        0.0176354138        2.2598056865
 Ca        10.5836917952        0.0109476855        5.6596412228
 Ca        11.8409918232        3.5204939762        2.2586988718
 Ca         7.3991545808        3.5399367689        5.6640079405
  S         7.4852616834        0.0413380877        5.7802674775
  S        11.7413134769        0.0078187946        2.1781130221
  S        10.6388002061        3.5220135199        5.7365604565
  S         8.5607693404        3.5264772610        2.1810663140
  O         6.5693037779        5.8727198812        5.7242141472
  O        12.6501731543        5.8613740723        2.2019454070
  O        12.6597420969        1.1993529340        2.1942840461
  O         6.5814814006        1.2471566008        5.9699961009
  O         9.7303134238        2.3192312903        5.7256693511
  O         9.4676677379        2.3235272746        2.1874304341
  O         9.4711643058        4.7248844312        2.2005929141
  O         9.7216312061        4.7187870635        5.7186107689
  O         8.4403325100        0.0030002039        6.9009916078
  O        10.8137776597        0.0207863180        1.0277215026
  O         8.3271194007        0.0807477173        4.5235546378
  O        10.8823820649        0.0225905194        3.4180322180
  O        11.5560007172        3.5385429438        6.8909088417
  O         7.6281452283        3.5339993347        1.0359575416
  O        11.5212578574        3.5157177779        4.5094010776
  O         7.6958944738        3.5122765173        3.4142746296
 Ca         8.6508600384        7.0603309620        2.2596937298
 Ca        10.5703208132        7.0501322768        5.6607952505
 Ca        11.8455949806       10.6003918352        2.2630602524
 Ca         7.3735210569       10.6068449019        5.6590501849
  S         7.4805394948        7.0708941977        5.7376653327
  S        11.7517082580        7.0701576908        2.1847519838
  S        10.6518715521       10.5929124984        5.7321785977
  S         8.5586260423       10.5947223088        2.1881736877
  O         6.5681738244       12.9564118003        5.7172714703
  O        12.6428566328       12.9179003646        2.1975924919
  O        12.6661306764        8.2678500446        2.1982375749
  O         6.5803507657        8.2775001112        5.7188437976
  O         9.7265923552        9.4036863939        5.7109182297
  O         9.4664390690        9.3947277543        2.2070627680
  O         9.4636856321       11.7990360737        2.1977173152
  O         9.7664036793       11.8137404423        5.7237467156
  O         8.4170680653        7.0731752761        6.8813659187
  O        10.8198974778        7.0783606014        1.0377022426
  O         8.3471410429        7.0479199898        4.5038950911
  O        10.8824220406        7.0646384522        3.4176411017
  O        11.5536900992       10.5673872825        6.8984847467
  O         7.6272022826       10.5817019070        1.0414129734
  O        11.5300251545       10.5814693952        4.5020490385
  O         7.6894855530       10.6016731034        3.4205529743
      96
 i =       44, E =     -1777.7922158236
 Ca         2.2700275144        0.0175820401        2.2520111228
 Ca         4.1935940004       -0.0236548968        5.6625131505
 Ca         5.4597685397        3.5247055413        2.2598585291
 Ca         0.9948349714        3.5168653603        5.6596234096
  S         1.0996997657       -0.0055503967        5.7311538280
  S         5.3676668072        0.0160080682        2.1767831022
  S         4.2689399831        3.5131099729        5.7314484556
  S         2.1715168683        3.5282512120        2.1846455838
  O         0.1893706949        5.8433112349        5.7249299185
  O         6.2683666893        5.8610147925        2.1922898750
  O         6.2691821109        1.2222089947        2.1282195006
  O         0.1937952957        1.1978885003        5.7261961740
  O         3.3887947943        2.2954819050        5.7077603937
  O         3.0809463710        2.3276129328        2.1899456558
  O         3.0827652410        4.7249515440        2.2038048231
  O         3.3443878337        4.7032698785        5.7208505445
  O         2.0337225080       -0.0038945421        6.8742454611
  O         4.4278711586       -0.0045637318        1.0397287930
  O         1.9639029047       -0.0198436454        4.4948460957
  O         4.4996661287        0.0445373287        3.4101730182
  O         5.1963329917        3.5371962002        6.8794213650
  O         1.2383029423        3.5371049447        1.0398385478
  O         5.1449692629        3.5296863199        4.5008059208
  O         1.3079108352        3.5151131672        3.4207574615
 Ca         2.2709397660        7.0617367747        2.2565913662
 Ca         4.1868907754        7.0515007071        5.6608655971
 Ca         5.4609466525       10.5993672790        2.2617320310
 Ca         0.9959972693       10.5951756506        5.6654411628
  S         1.0959973155        7.0447985481        5.7352701333
  S         5.3668695728        7.0670989289        2.1860142040
  S         4.2519878942       10.5888642265        5.7356073685
  S         2.1721559326       10.5939512311        2.1870297718
  O         0.1826316817       12.9181878071        5.7274973045
  O         6.2734188597       12.9288935099        2.1975913506
  O         6.2717661210        8.2698271295        2.2072183407
  O         0.1903789929        8.2471610221        5.7235148493
  O         3.3375990532        9.3919806048        5.7163857441
  O         3.0807989255        9.3943954811        2.2051464212
  O         3.0776144705       11.7969777506        2.1980226636
  O         3.3427414727       11.7914381231        5.7247458510
  O         2.0331693354        7.0418510098        6.8782097767
  O         4.4346763782        7.0797369689        1.0398207256
  O         1.9634498813        7.0524743767        4.5018136006
  O         4.4956133552        7.0611740547        3.4166788258
  O         5.1705272944       10.5739578700        6.8901220051
  O         1.2409153827       10.5812974469        1.0393395730
  O         5.1378624912       10.6019008278        4.5106629146
  O         1.3102427927       10.6017754079        3.4245673009
 Ca         8.6571035473        0.0198674997        2.2566048024
 Ca        10.5807552097        0.0174714560        5.6577583952
 Ca        11.8411176255        3.5246551607        2.2582855435
 Ca         7.3826953051        3.5316046620        5.6641932227
  S         7.4867590188        0.0218582444        5.7434945434
  S        11.7385837387        0.0139561979        2.1789419930
  S        10.6335886671        3.5250197946        5.7346194230
  S         8.5572496464        3.5284199068        2.1840476253
  O         6.5694274187        5.8723041871        5.7162212616
  O        12.6502493253        5.8640422606        2.2003254826
  O        12.6639999273        1.2010708845        2.1975473349
  O         6.5824327133        1.2257319492        5.7699961009
  O         9.7266368786        2.3202619493        5.7250758877
  O         9.4637438390        2.3256496823        2.1878719257
  O         9.4677909788        4.7260671753        2.2016635434
  O         9.7187829986        4.7213697818        5.7167742967
  O         8.4211275490        0.0084524662        6.8875113722
  O        10.8130546630        0.0167087405        1.0284931926
  O         8.3404183663        0.0405317767        4.4987696451
  O        10.8857886523        0.0297994194        3.4223220095
  O        11.5542212211        3.5390010798        6.8876434605
  O         7.6236761242        3.5364018727        1.0394718456
  O        11.5178150964        3.5154165788        4.5091180208
  O         7.6905674943        3.5150294012        3.4162433683
 Ca         8.6524488010        7.0606171178        2.2584952609
 Ca        10.5695277162        7.0555581960        5.6610518030
 Ca        11.8459009996       10.6015099288        2.2630521293
 Ca         7.3727971903       10.6015507717        5.6586196144
  S         7.4794960238        7.0710576351        5.7369793667
  S        11.7518830554        7.0721349674        2.1859127414
  S        10.6527425267       10.5972092518        5.7264361050
  S         8.5572765281       10.5953540045        2.1886698737
  O         6.5704773821       12.9397377338        5.7270743910
  O        12.6498501470       12.9315373656        2.1965696417
  O        12.6642753374        8.2700917924        2.2001839957
  O         6.5766622888        8.2744016544        5.7253620941
  O         9.7266068160        9.4066771426        5.7171981421
  O         9.4645381440        9.3946368407        2.2082010391
  O         9.4625245626       11.7984595016        2.1961435495
  O         9.7715978871       11.8198075034        5.7370392504
  O         8.4185475623        7.0764659034        6.8788589139
  O        10.8173045034        7.0780375200        1.0414764364
  O         8.3463573067        7.0547008893        4.5031144233
  O        10.8782309787        7.0604165284        3.4142944281
  O        11.5571558583       10.5702434959        6.8936777371
  O         7.6256573193       10.5805500826        1.0417244245
  O        11.5303188907       10.5837787044        4.4962590302
  O         7.6880444313       10.6012732473        3.4209869349
      96
 i =       45, E =     -1777.7923534267
 Ca         2.2668362224        0.0213968748        2.2565914680
 Ca         4.1921931615       -0.0214067120        5.6613076283
 Ca         5.4597920271        3.5247268014        2.2575927647
 Ca         0.9877108660        3.5175353829        5.6649170243
  S         1.0989500769       -0.0070965634        5.7319398092
  S         5.3616204823        0.0156248387        2.1718135251
  S         4.2593807500        3.5230078873        5.7344048159
  S         2.1687665553        3.5284166692        2.1844893515
  O         0.1811316400        5.8470658381        5.7021979046
  O         6.2741253451        5.8707083031        2.2029786779
  O         6.2672725654        1.2186185977        2.1396164411
  O         0.1931253523        1.1949386945        5.7215075222
  O         3.3702552552        2.3069592579        5.7411451500
  O         3.0761343493        2.3274011612        2.1777359704
  O         3.0797078207        4.7258989989        2.2044693638
  O         3.3303501162        4.7111511426        5.7108376667
  O         2.0320956429       -0.0103184931        6.8774840485
  O         4.4169760080       -0.0026399254        1.0353021893
  O         1.9609139196       -0.0182277324        4.4951436200
  O         4.5113598627        0.0381200586        3.4183228804
  O         5.1792853710        3.5491719735        6.8878266697
  O         1.2347425782        3.5377846857        1.0397664438
  O         5.1412646296        3.5161116942        4.5062473684
  O         1.3060666341        3.5148979097        3.4216241202
 Ca         2.2709751151        7.0601176115        2.2600907445
 Ca         4.1844799816        7.0539294619        5.6608548491
 Ca         5.4628240208       10.6004192466        2.2614242688
 Ca         0.9845435523       10.5928262389        5.6595097816
  S         1.0941809225        7.0443975867        5.7316176691
  S         5.3652903349        7.0701460160        2.1887066650
  S         4.2514848611       10.5877385042        5.7327849087
  S         2.1700438030       10.5928486647        2.1864543940
  O         0.1813157837       12.9165499782        5.7236296899
  O         6.2719840371       12.9316769488        2.2060236150
  O         6.2730053136        8.2697228425        2.2051601014
  O         0.1917564992        8.2490838407        5.7239957813
  O         3.3336797973        9.3933136828        5.7157195246
  O         3.0791073946        9.3935815139        2.2059039422
  O         3.0764946045       11.7949030091        2.1964381702
  O         3.3409217839       11.7900532391        5.7237333474
  O         2.0233268317        7.0263451496        6.8813884754
  O         4.4314789960        7.0801119778        1.0424689675
  O         1.9644895709        7.0518795166        4.5003136687
  O         4.4964383381        7.0578413444        3.4212663952
  O         5.1700076956       10.5739665460        6.8871872713
  O         1.2393487123       10.5812013380        1.0380170886
  O         5.1377036735       10.6009404509        4.5082068502
  O         1.2964672112       10.5990154049        3.4149658095
 Ca         8.6494543147        0.0234993607        2.2603712245
 Ca        10.5756790892        0.0241119434        5.6621975269
 Ca        11.8434686098        3.5244735765        2.2605375305
 Ca         7.3675712787        3.5228935835        5.6674305231
  S         7.4809349684        0.0131203637        5.7500869211
  S        11.7450294663        0.0122140394        2.1843305921
  S        10.6343364064        3.5275494437        5.7326221628
  S         8.5531878222        3.5286076167        2.1865017704
  O         6.5790918165        5.8622960373        5.7478625608
  O        12.6563474422        5.8623233125        2.1945879445
  O        12.6575410476        1.2089649953        2.1801000997
  O         6.5719111508        1.2095477506        5.7686323284
  O         9.7238989442        2.3256582062        5.7243034941
  O         9.4613577388        2.3280254071        2.1888035860
  O         9.4640228287        4.7263554606        2.2065847024
  O         9.7162836120        4.7220075172        5.7159265083
  O         8.4243042234       -0.0081336858        6.8864348640
  O        10.8147875227        0.0048642854        1.0358461959
  O         8.3394868433        0.0376338336        4.5114636855
  O        10.8792267304        0.0304972864        3.4180576889
  O        11.5535755886        3.5405119542        6.8865468298
  O         7.6208259647        3.5378649505        1.0405943812
  O        11.5196995399        3.5146131191        4.5074102539
  O         7.6878834592        3.5146382931        3.4217384562
 Ca         8.6566193895        7.0604958407        2.2594093343
 Ca        10.5698968275        7.0620046059        5.6612874832
 Ca        11.8466519552       10.6005844836        2.2589784777
 Ca         7.3741785632       10.5991099765        5.6625420144
  S         7.4799808838        7.0688211029        5.7342696532
  S        11.7524662744        7.0660247098        2.1883547825
  S        10.6439451593       10.5947286870        5.7277397113
  S         8.5553048984       10.5937890854        2.1879632166
  O         6.5668407897       12.9294491997        5.7071819150
  O        12.6545258638       12.9276263038        2.2153598962
  O        12.6596635422        8.2659514858        2.2046660399
  O         6.5672356878        8.2662738285        5.7001431499
  O         9.7214807528        9.4028999440        5.7178658301
  O         9.4636596040        9.3944386000        2.2076099902
  O         9.4609173893       11.7963502793        2.1963755344
  O         9.7420417185       11.7997179525        5.6978210039
  O         8.4115891134        7.0873487344        6.8815734268
  O        10.8158011407        7.0788505551        1.0439811540
  O         8.3473936821        7.0627366719        4.5006871378
  O        10.8892011478        7.0628161401        3.4255337402
  O        11.5681705184       10.5785990864        6.8796464577
  O         7.6224821473       10.5816640274        1.0411010791
  O        11.5271137539       10.5892455533        4.5013903686
  O         7.6878151430       10.6029755668        3.4222122573
      96
 i =       46, E =     -1777.7924893521
 Ca         2.2672463901        0.0230618800        2.2549429366
 Ca         4.1914385155       -0.0218821874        5.6584034914
 Ca         5.4589776009        3.5277453961        2.2569170467
 Ca         0.9864825322        3.5171988916        5.6655141895
  S         1.0996945591       -0.0082478073        5.7325123875
  S         5.3612060983        0.0195233357        2.1680250773
  S         4.2531097607        3.5225462807        5.7368118044
  S         2.1701625595        3.5294056405        2.1804567699
  O         0.1833866754        5.8456797545        5.7051648191
  O         6.2692218625        5.8698960045        2.1958793138
  O         6.2686288740        1.2219679036        2.1377955097
  O         0.1939382776        1.1938963504        5.7193842006
  O         3.3446912555        2.3181953537        5.7587710144
  O         3.0784502037        2.3292274751        2.1607428080
  O         3.0791532939        4.7280550559        2.2043174106
  O         3.3298568317        4.7146632877        5.7111653291
  O         2.0338447572       -0.0135577935        6.8774954867
  O         4.4183321493       -0.0065970293        1.0310722094
  O         1.9609238841       -0.0190094242        4.4949112969
  O         4.5132766680        0.0422360476        3.4166214433
  O         5.1766285794        3.5476838312        6.8881223819
  O         1.2319245962        3.5397247071        1.0391520398
  O         5.1336887963        3.5101608169        4.5062012361
  O         1.3072477392        3.5123069435        3.4174942464
 Ca         2.2700420180        7.0611654069        2.2602057833
 Ca         4.1817197270        7.0544612918        5.6618495012
 Ca         5.4625721572       10.6029658536        2.2608464307
 Ca         0.9787482470       10.5917884776        5.6611519622
  S         1.0925331264        7.0454001825        5.7323306150
  S         5.3624110583        7.0707820289        2.1880330120
  S         4.2500043301       10.5874567322        5.7322858846
  S         2.1700746629       10.5935706473        2.1879925297
  O         0.1809242161       12.9158574788        5.7233241035
  O         6.2757649334       12.9382130503        2.2070509132
  O         6.2709468579        8.2696559506        2.2038299130
  O         0.1875386591        8.2490926682        5.7220226526
  O         3.3314340135        9.3938552536        5.7157833655
  O         3.0791832002        9.3943195534        2.2052573603
  O         3.0753538468       11.7966903389        2.1982140840
  O         3.3396927919       11.7902213861        5.7233473326
  O         2.0238094938        7.0254979678        6.8803433748
  O         4.4279857312        7.0825595792        1.0428352521
  O         1.9641110036        7.0552740945        4.5020109745
  O         4.4991591523        7.0586865777        3.4243285713
  O         5.1682924107       10.5735721663        6.8867901345
  O         1.2375502445       10.5830291840        1.0411194910
  O         5.1354418961       10.6010408357        4.5069142651
  O         1.2999412303       10.6000433392        3.4199354853
 Ca         8.6500300382        0.0245246345        2.2617489497
 Ca        10.5734610011        0.0250925122        5.6657622018
 Ca        11.8448361413        3.5226153199        2.2605749533
 Ca         7.3643632586        3.5226206206        5.6676188862
  S         7.4821661468        0.0117000144        5.7522037295
  S        11.7495788480        0.0134982180        2.1842343720
  S        10.6352510729        3.5264177466        5.7324496317
  S         8.5536008113        3.5291502705        2.1861706792
  O         6.5680277223        5.8720000388        5.7700481501
  O        12.6553809366        5.8653478253        2.1990868991
  O        12.6521683008        1.2167688557        2.1633663818
  O         6.5652540702        1.2010274621        5.7884870401
  O         9.7238328588        2.3251955343        5.7243626261
  O         9.4623224003        2.3281721477        2.1898045125
  O         9.4640784184        4.7266342227        2.2047554872
  O         9.7161331308        4.7202155962        5.7155758212
  O         8.4221952718       -0.0090455293        6.8897601051
  O        10.8102114106        0.0004827197        1.0430817202
  O         8.3392351297        0.0446436012        4.5112913418
  O        10.8824669615        0.0282823572        3.4184988235
  O        11.5529041315        3.5410600945        6.8873518391
  O         7.6206521841        3.5389969545        1.0410491509
  O        11.5200220170        3.5128783513        4.5063472490
  O         7.6890131185        3.5157622091        3.4224075858
 Ca         8.6553539515        7.0618135039        2.2601488112
 Ca        10.5672494101        7.0601338723        5.6611568879
 Ca        11.8474919538       10.5998146069        2.2590309271
 Ca         7.3720553866       10.5982240573        5.6630158854
  S         7.4796787653        7.0709630768        5.7392282967
  S        11.7483820394        7.0674176861        2.1876324946
  S        10.6354817618       10.5906387938        5.7277616719
  S         8.5551555154       10.5940509265        2.1876924620
  O         6.5736387116       12.9243554474        5.7162626567
  O        12.6594931148       12.9295898124        2.2103274564
  O        12.6558209892        8.2674076275        2.2047639298
  O         6.5708094294        8.2707086898        5.7036228032
  O         9.7077480507        9.4021421790        5.7113453201
  O         9.4629146879        9.3940187531        2.2034617797
  O         9.4606692450       11.7966275184        2.1994787439
  O         9.7460297413       11.8049161672        5.6917225717
  O         8.4156434545        7.0891056041        6.8828751959
  O        10.8149352923        7.0804824666        1.0414136522
  O         8.3443405444        7.0535076985        4.5031348209
  O        10.8814511500        7.0684965469        3.4213297885
  O        11.5483833892       10.5705751968        6.8856723639
  O         7.6211298549       10.5830312163        1.0419260985
  O        11.5287892373       10.5928397845        4.5079707000
  O         7.6865395679       10.6041935898        3.4208379494
      96
 i =       47, E =     -1777.7933403303
 Ca         2.2682978692        0.0209601562        2.2529055246
 Ca         4.1916981750       -0.0191891189        5.6610864985
 Ca         5.4579178804        3.5267035974        2.2581280275
 Ca         0.9886596503        3.5162749282        5.6633488822
  S         1.1006372440       -0.0080496309        5.7319963376
  S         5.3607352165        0.0194532291        2.1700039518
  S         4.2527273774        3.5201943251        5.7393800128
  S         2.1704142733        3.5288285121        2.1764511314
  O         0.1887981309        5.8463609667        5.7145380670
  O         6.2692937528        5.8644588031        2.1928795213
  O         6.2653106127        1.2234176536        2.1341617045
  O         0.1936560452        1.1935982965        5.7211022273
  O         3.3433350599        2.3173585388        5.7566431148
  O         3.0777834992        2.3274563714        2.1514968536
  O         3.0804088098        4.7268813914        2.2030858378
  O         3.3317373708        4.7139775172        5.7147676934
  O         2.0345822794       -0.0113877785        6.8761390266
  O         4.4212212297       -0.0086002480        1.0320484083
  O         1.9620059603       -0.0189966581        4.4941108404
  O         4.5063351220        0.0429895787        3.4138154039
  O         5.1791657150        3.5447679577        6.8880194671
  O         1.2297506872        3.5437960244        1.0375325651
  O         5.1310511483        3.5077236895        4.5069364677
  O         1.3113003319        3.5078290636        3.4161447877
 Ca         2.2702100934        7.0614351039        2.2599111180
 Ca         4.1843804007        7.0545538331        5.6627497163
 Ca         5.4614074803       10.6018881773        2.2611242593
 Ca         0.9848769382       10.5922678224        5.6640966847
  S         1.0948553270        7.0483482485        5.7336463521
  S         5.3645608814        7.0676717707        2.1856976787
  S         4.2500154802       10.5884526254        5.7328141653
  S         2.1721017387       10.5941395972        2.1886960225
  O         0.1821468683       12.9156704333        5.7236407669
  O         6.2739219962       12.9374379733        2.2030136260
  O         6.2710586448        8.2685439074        2.2044053999
  O         0.1874562796        8.2503158536        5.7239239718
  O         3.3320353615        9.3942089796        5.7155187388
  O         3.0809624549        9.3944641536        2.2044622175
  O         3.0772050127       11.7977110186        2.1969235643
  O         3.3400478679       11.7914196686        5.7236998972
  O         2.0272658090        7.0381242983        6.8808299336
  O         4.4293152608        7.0788605213        1.0414126153
  O         1.9634847360        7.0557552452        4.5008936395
  O         4.4976025059        7.0601738133        3.4194730030
  O         5.1682755109       10.5742489759        6.8874627375
  O         1.2378451330       10.5825233605        1.0431675892
  O         5.1351829931       10.6019340204        4.5069216107
  O         1.3068302693       10.6020964170        3.4239713993
 Ca         8.6533619611        0.0219088935        2.2594736371
 Ca        10.5767945800        0.0235879244        5.6637690216
 Ca        11.8438222909        3.5240135571        2.2597989497
 Ca         7.3687327170        3.5241918880        5.6669758577
  S         7.4843253201        0.0122458226        5.7482348601
  S        11.7477011634        0.0169969285        2.1799359849
  S        10.6347635714        3.5252619091        5.7326506516
  S         8.5542636503        3.5287605462        2.1854918204
  O         6.5690423193        5.8717720603        5.7627110694
  O        12.6524367107        5.8653588572        2.1973810333
  O        12.6529184036        1.2195282010        2.1566487819
  O         6.5694109789        1.2048018429        5.7827672804
  O         9.7241313829        2.3233748519        5.7244346356
  O         9.4623783233        2.3271110681        2.1898548295
  O         9.4652520885        4.7262283846        2.2040287628
  O         9.7164656291        4.7199525292        5.7153682551
  O         8.4217249146       -0.0080942104        6.8880214063
  O        10.8062382707        0.0015918569        1.0413587663
  O         8.3397468758        0.0368161917        4.5055026859
  O        10.8886978070        0.0312427814        3.4201307878
  O        11.5525236799        3.5402314630        6.8876411936
  O         7.6209392232        3.5380873619        1.0407978941
  O        11.5195166382        3.5127154545        4.5062923512
  O         7.6891410720        3.5161034014        3.4207089636
 Ca         8.6554974385        7.0613109818        2.2609008660
 Ca        10.5686217979        7.0600530739        5.6614899512
 Ca        11.8472743685       10.6004771084        2.2610175565
 Ca         7.3720822347       10.5993350193        5.6622296525
  S         7.4808475418        7.0700650251        5.7431979779
  S        11.7475368712        7.0690304397        2.1872071862
  S        10.6421901184       10.5941052153        5.7272855958
  S         8.5555170005       10.5940277354        2.1876275176
  O         6.5753579133       12.9252458343        5.7232426569
  O        12.6557147244       12.9324285867        2.1985086136
  O        12.6562815225        8.2685236159        2.2032502604
  O         6.5761081720        8.2725830559        5.7148061773
  O         9.7099343885        9.4083574670        5.7089705876
  O         9.4640122481        9.3943289775        2.2049875090
  O         9.4611948670       11.7967735610        2.1971864910
  O         9.7612583334       11.8141389036        5.7021286547
  O         8.4214396524        7.0849794010        6.8835012909
  O        10.8152770329        7.0789646262        1.0405148843
  O         8.3429527377        7.0486762751        4.5049982814
  O        10.8803823413        7.0645222937        3.4212411053
  O        11.5529461729       10.5704158997        6.8867240120
  O         7.6221472455       10.5818223631        1.0415913379
  O        11.5314313946       10.5895027123        4.5050822678
  O         7.6874469985       10.6035156486        3.4208610487
      96
 i =       48, E =     -1777.7933775199
 Ca         2.2685195545        0.0214266451        2.2514921173
 Ca         4.1912214245       -0.0196091701        5.6608812696
 Ca         5.4579237294        3.5258364895        2.2586723461
 Ca         0.9901942123        3.5162160662        5.6622303553
  S         1.1005177175       -0.0074407621        5.7318749446
  S         5.3621618727        0.0192185103        2.1699466776
  S         4.2496183824        3.5197539264        5.7411178841
  S         2.1691965074        3.5284332721        2.1746510171
  O         0.1894112115        5.8463293639        5.7194478755
  O         6.2713722241        5.8661887173        2.1948452896
  O         6.2653773382        1.2244328620        2.1336005460
  O         0.1934567351        1.1941075545        5.7220658097
  O         3.3408767291        2.3160656771        5.7585715770
  O         3.0765262373        2.3266911217        2.1477282607
  O         3.0808259956        4.7254504867        2.2043952509
  O         3.3316592064        4.7157341431        5.7154150749
  O         2.0339579791       -0.0108591753        6.8761884033
  O         4.4221170193       -0.0075050327        1.0326402432
  O         1.9626929963       -0.0173623858        4.4943365143
  O         4.5042553764        0.0434632091        3.4115561648
  O         5.1772211244        3.5442764791        6.8883959564
  O         1.2286539401        3.5479084529        1.0359387029
  O         5.1285054930        3.5049863663        4.5087826543
  O         1.3123696189        3.5058759620        3.4162578563
 Ca         2.2713067374        7.0614093272        2.2594405576
 Ca         4.1858026229        7.0548483077        5.6622157113
 Ca         5.4624538956       10.6017180960        2.2609995338
 Ca         0.9884125081       10.5930076775        5.6638748239
  S         1.0963068405        7.0478234129        5.7341429248
  S         5.3656979439        7.0687659775        2.1862693642
  S         4.2496273272       10.5889679467        5.7327618775
  S         2.1728004330       10.5943066830        2.1879838385
  O         0.1828996499       12.9159237090        5.7244373832
  O         6.2751730724       12.9370331353        2.2036093513
  O         6.2725503512        8.2692698864        2.2043497866
  O         0.1881121768        8.2490761805        5.7231476191
  O         3.3322560603        9.3941824724        5.7154283546
  O         3.0815553900        9.3945094025        2.2052779490
  O         3.0788504847       11.7972240034        2.1976762264
  O         3.3395918024       11.7920632716        5.7239995384
  O         2.0308355855        7.0397295369        6.8796057949
  O         4.4311350140        7.0803865987        1.0413449020
  O         1.9642755191        7.0544475936        4.5011159707
  O         4.4993266130        7.0594063819        3.4206930783
  O         5.1681372469       10.5742961798        6.8872691754
  O         1.2395923351       10.5813455545        1.0415556582
  O         5.1350401351       10.6019739473        4.5070670256
  O         1.3031381872       10.6012170366        3.4195663201
 Ca         8.6538126869        0.0219346988        2.2580608746
 Ca        10.5788817476        0.0236466681        5.6606125509
 Ca        11.8433020995        3.5261328039        2.2589741147
 Ca         7.3695957463        3.5238603142        5.6668279145
  S         7.4846156075        0.0087142487        5.7474744337
  S        11.7469901090        0.0191793218        2.1755358964
  S        10.6335568314        3.5255618248        5.7326798627
  S         8.5539427782        3.5285891881        2.1861599172
  O         6.5753966393        5.8671300071        5.7648668759
  O        12.6530645592        5.8652677827        2.1954342146
  O        12.6537011765        1.2219973763        2.1513562025
  O         6.5703866310        1.2022030784        5.7764093815
  O         9.7230707906        2.3233123881        5.7242206109
  O         9.4618112217        2.3269656106        2.1894053241
  O         9.4648260081        4.7263230933        2.2046106929
  O         9.7161803858        4.7209551618        5.7154186331
  O         8.4241268184       -0.0102258961        6.8862479215
  O        10.8066848791        0.0026619280        1.0363366958
  O         8.3395560207        0.0373851024        4.5046004903
  O        10.8891360958        0.0394747988        3.4160350612
  O        11.5523368707        3.5393667316        6.8870023235
  O         7.6210315215        3.5375031074        1.0411629812
  O        11.5190306647        3.5130709300        4.5068720244
  O         7.6891604603        3.5163645109        3.4218774784
 Ca         8.6556073159        7.0611473971        2.2608721224
 Ca        10.5698501862        7.0612460143        5.6610311729
 Ca        11.8474194392       10.6022321908        2.2613102209
 Ca         7.3734526456       10.6004758132        5.6613648143
  S         7.4828078466        7.0684875723        5.7438740070
  S        11.7497324883        7.0697774474        2.1874380344
  S        10.6477768011       10.5970194336        5.7266689594
  S         8.5558765916       10.5944292930        2.1879693336
  O         6.5750339059       12.9220707729        5.7179921088
  O        12.6578679910       12.9360618188        2.2062825791
  O        12.6579735416        8.2693574086        2.2049480887
  O         6.5750945764        8.2689601130        5.7194263143
  O         9.7134936327        9.4126886346        5.7120762251
  O         9.4639882188        9.3944925466        2.2060678351
  O         9.4618615797       11.7969777105        2.1965219604
  O         9.7691701313       11.8175223266        5.7079901275
  O         8.4234612092        7.0840533721        6.8838064071
  O        10.8143494233        7.0808069231        1.0430227043
  O         8.3419799131        7.0517650345        4.5033638898
  O        10.8809881005        7.0616014115        3.4204905838
  O        11.5602573741       10.5712238730        6.8850051154
  O         7.6226703642       10.5815677407        1.0417176107
  O        11.5319702334       10.5859884366        4.5010928752
  O         7.6880635230       10.6026629067        3.4215943810
      96
 i =       49, E =     -1777.7933935705
 Ca         2.2675218376        0.0209659788        2.2517241040
 Ca         4.1905436555       -0.0191793565        5.6614750230
 Ca         5.4576896864        3.5249826223        2.2590234257
 Ca         0.9894425748        3.5167182980        5.6625483094
  S         1.0997873739       -0.0071934377        5.7316911216
  S         5.3621077021        0.0184562021        2.1708913216
  S         4.2505959087        3.5202322790        5.7418723594
  S         2.1680518466        3.5281030091        2.1745449727
  O         0.1866457119        5.8475295509        5.7145235219
  O         6.2711947876        5.8663635251        2.1959724007
  O         6.2650165360        1.2237719011        2.1363810342
  O         0.1935652230        1.1947994159        5.7219212199
  O         3.3442516836        2.3147168462        5.7619421484
  O         3.0747531540        2.3258001221        2.1480019564
  O         3.0802501730        4.7247766874        2.2039972802
  O         3.3320332039        4.7155948565        5.7156815279
  O         2.0329065462       -0.0120729290        6.8764713126
  O         4.4206888740       -0.0057807597        1.0339238974
  O         1.9616962788       -0.0167583760        4.4940461963
  O         4.5059587425        0.0403547095        3.4139077069
  O         5.1770207010        3.5454100806        6.8896009791
  O         1.2283743283        3.5502652429        1.0353384348
  O         5.1286366357        3.5062528010        4.5088130187
  O         1.3103603041        3.5058387556        3.4158161187
 Ca         2.2714343084        7.0607504246        2.2595303058
 Ca         4.1853440944        7.0550790551        5.6621674465
 Ca         5.4622244002       10.6012344155        2.2608948406
 Ca         0.9884615297       10.5933690193        5.6628144293
  S         1.0959247617        7.0475024075        5.7339741074
  S         5.3653741052        7.0687182800        2.1869205737
  S         4.2501314591       10.5890480662        5.7327440988
  S         2.1717140902       10.5940982692        2.1878238704
  O         0.1824819316       12.9161046999        5.7237785949
  O         6.2745969734       12.9360289572        2.2041731421
  O         6.2728188305        8.2687725580        2.2047392842
  O         0.1903737461        8.2503322950        5.7249257281
  O         3.3326373991        9.3943002736        5.7154866511
  O         3.0803484834        9.3942744212        2.2049742953
  O         3.0780161895       11.7966202533        2.1957801332
  O         3.3399018657       11.7919180899        5.7240672774
  O         2.0295376550        7.0378201285        6.8801413986
  O         4.4318015176        7.0795530347        1.0410504231
  O         1.9635505601        7.0533954777        4.5007098225
  O         4.4981523029        7.0588145483        3.4209123396
  O         5.1686218643       10.5742603084        6.8872275634
  O         1.2393612702       10.5818983697        1.0406276281
  O         5.1356357229       10.6015474050        4.5072370692
  O         1.3042628959       10.6018044490        3.4209478939
 Ca         8.6517314704        0.0225637787        2.2583518096
 Ca        10.5784997363        0.0248578752        5.6601007091
 Ca        11.8422065466        3.5263658983        2.2588120108
 Ca         7.3687169546        3.5226226857        5.6674521379
  S         7.4844877930        0.0079850050        5.7487339920
  S        11.7452527040        0.0198642626        2.1740098450
  S        10.6338005781        3.5260065110        5.7325794453
  S         8.5532529518        3.5282418675        2.1866050663
  O         6.5790612465        5.8624714496        5.7687227035
  O        12.6545708799        5.8655587375        2.1975178104
  O        12.6531393061        1.2219949530        2.1499871716
  O         6.5691019376        1.2006591988        5.7784126369
  O         9.7229590100        2.3240372881        5.7243265191
  O         9.4610882281        2.3268992500        2.1888354818
  O         9.4638778025        4.7261899346        2.2047900579
  O         9.7163761701        4.7212041084        5.7157177723
  O         8.4251938903       -0.0120016601        6.8864661632
  O        10.8058079988        0.0019885175        1.0342515589
  O         8.3397274732        0.0396001535        4.5062372104
  O        10.8865443140        0.0426202966        3.4136973992
  O        11.5528834265        3.5395970275        6.8866553321
  O         7.6206899140        3.5375142738        1.0412511913
  O        11.5192904049        3.5138566942        4.5067799809
  O         7.6875011644        3.5168231341        3.4218649917
 Ca         8.6554893445        7.0606664117        2.2610670443
 Ca        10.5699772206        7.0619191512        5.6611585556
 Ca        11.8476661845       10.6018354284        2.2596316985
 Ca         7.3737396472       10.5995141023        5.6618770450
  S         7.4822701884        7.0670607115        5.7436182118
  S        11.7496400437        7.0686817603        2.1876059256
  S        10.6481133832       10.5967121488        5.7272304953
  S         8.5556955281       10.5941673693        2.1879921008
  O         6.5742740820       12.9220082300        5.7186072826
  O        12.6565525414       12.9368395730        2.2039570776
  O        12.6571188527        8.2684714216        2.2041507003
  O         6.5718377438        8.2657908620        5.7146700794
  O         9.7163113224        9.4109990312        5.7165728986
  O         9.4634343077        9.3941313207        2.2056580849
  O         9.4615366659       11.7967868811        2.1965499564
  O         9.7634604796       11.8126668579        5.7098238183
  O         8.4221059008        7.0864156531        6.8838171398
  O        10.8149128298        7.0804419076        1.0423684976
  O         8.3426529553        7.0540014024        4.5040059954
  O        10.8819610245        7.0602508309        3.4216974246
  O        11.5655226454       10.5724432591        6.8825612342
  O         7.6225842339       10.5819620299        1.0416151812
  O        11.5297164840       10.5850629752        4.4998158012
  O         7.6872334834       10.6023164212        3.4213072144
      96
 i =       50, E =     -1777.7935396970
 Ca         2.2663813295        0.0204872219        2.2518571143
 Ca         4.1909814529       -0.0193955653        5.6608206101
 Ca         5.4575282899        3.5256597118        2.2593911055
 Ca         0.9890435790        3.5170595367        5.6627396676
  S         1.0996949084       -0.0073138143        5.7315975827
  S         5.3615767984        0.0188300867        2.1704027302
  S         4.2530435994        3.5195521131        5.7420501998
  S         2.1682336329        3.5280790131        2.1746102179
  O         0.1870251197        5.8471824323        5.7167913442
  O         6.2701288048        5.8654077460        2.1956783935
  O         6.2651241648        1.2237342523        2.1347629935
  O         0.1939946547        1.1951398612        5.7220817419
  O         3.3473261312        2.3140176327        5.7601597277
  O         3.0737263441        2.3246033165        2.1494630876
  O         3.0805363971        4.7246747259        2.2037254808
  O         3.3334179883        4.7139193426        5.7166594792
  O         2.0330786837       -0.0129968792        6.8762131532
  O         4.4205205843       -0.0072085777        1.0331897558
  O         1.9611044639       -0.0166048361        4.4935074787
  O         4.5069834434        0.0416149303        3.4146888872
  O         5.1796730985        3.5451073679        6.8893692195
  O         1.2284290180        3.5512871876        1.0357180597
  O         5.1296802406        3.5083024620        4.5079191053
  O         1.3100757994        3.5060873760        3.4157546693
 Ca         2.2709136870        7.0603410650        2.2596329287
 Ca         4.1845668709        7.0549346290        5.6623256623
 Ca         5.4618293751       10.6015093773        2.2608945852
 Ca         0.9875329931       10.5933563520        5.6629075063
  S         1.0955022650        7.0476537797        5.7341906056
  S         5.3647164810        7.0681248762        2.1868048220
  S         4.2505304661       10.5888853420        5.7328158532
  S         2.1718033742       10.5941161693        2.1878124263
  O         0.1819627491       12.9163116946        5.7228645263
  O         6.2744967543       12.9367241828        2.2032259600
  O         6.2722152277        8.2682514838        2.2047228983
  O         0.1895037246        8.2501280694        5.7231057388
  O         3.3327850487        9.3942909884        5.7155364124
  O         3.0800760221        9.3940260797        2.2047456032
  O         3.0779361881       11.7967212721        2.1957936108
  O         3.3404637687       11.7918118104        5.7239050327
  O         2.0292159773        7.0367515983        6.8801556611
  O         4.4310647415        7.0793627701        1.0411398852
  O         1.9632058251        7.0538047515        4.5009200326
  O         4.4975606339        7.0588149642        3.4207815977
  O         5.1688890083       10.5741985799        6.8872648051
  O         1.2386719201       10.5827296923        1.0413456953
  O         5.1362151276       10.6015236046        4.5074982132
  O         1.3045732124       10.6022087393        3.4211769109
 Ca         8.6505422295        0.0226058271        2.2589958939
 Ca        10.5781061570        0.0249765075        5.6603854267
 Ca        11.8418480774        3.5264517139        2.2589096056
 Ca         7.3687620071        3.5218565584        5.6679992642
  S         7.4841208473        0.0092949108        5.7493062110
  S        11.7449857696        0.0198749048        2.1737226332
  S        10.6343912916        3.5259238746        5.7325160688
  S         8.5532695446        3.5282229308        2.1865934141
  O         6.5795605075        5.8595880844        5.7682118174
  O        12.6539771429        5.8652500492        2.1971740926
  O        12.6519379948        1.2224746892        2.1493206438
  O         6.5680200532        1.2018016683        5.7805713067
  O         9.7235384402        2.3239016040        5.7244111392
  O         9.4613996972        2.3269840604        2.1886936788
  O         9.4640918427        4.7259708821        2.2045712095
  O         9.7165599277        4.7206406817        5.7157941920
  O         8.4242074394       -0.0104314005        6.8872761772
  O        10.8047901032        0.0004625436        1.0347700203
  O         8.3401166032        0.0402011004        4.5070802470
  O        10.8878496844        0.0404210432        3.4149769026
  O        11.5533029652        3.5398769954        6.8866006828
  O         7.6204883812        3.5378009003        1.0414576478
  O        11.5194438598        3.5140732114        4.5063754897
  O         7.6880545264        3.5166282054        3.4223785931
 Ca         8.6549308464        7.0604043869        2.2614297888
 Ca        10.5693795580        7.0609339558        5.6613656033
 Ca        11.8476372728       10.6017661884        2.2590205514
 Ca         7.3736635665       10.5983196852        5.6630444276
  S         7.4816562837        7.0653455654        5.7447540529
  S        11.7485911635        7.0681218908        2.1874317154
  S        10.6478467105       10.5947217431        5.7288418507
  S         8.5556911794       10.5942905861        2.1880863560
  O         6.5741995452       12.9232715449        5.7203351924
  O        12.6565589311       12.9369763584        2.2018133884
  O        12.6563009270        8.2678851278        2.2047670515
  O         6.5715976309        8.2644262795        5.7178616872
  O         9.7154147369        9.4092172588        5.7173004291
  O         9.4634812615        9.3942647458        2.2049778409
  O         9.4612652359       11.7971651037        2.1972268333
  O         9.7665527715       11.8136277533        5.7138994108
  O         8.4224368053        7.0860640059        6.8839825543
  O        10.8150919013        7.0803520754        1.0414634492
  O         8.3423718925        7.0529780225        4.5052353216
  O        10.8808804236        7.0606880827        3.4213254000
  O        11.5664293897       10.5702938557        6.8836285972
  O         7.6224456009       10.5822471007        1.0419335546
  O        11.5290690753       10.5855623236        4.5012000072
  O         7.6872966369       10.6028692024        3.4215693740
      96
 i =       51, E =     -1777.7935648666
 Ca         2.2660071013        0.0199311957        2.2519792984
 Ca         4.1917145106       -0.0196606694        5.6611889674
 Ca         5.4575275219        3.5256897163        2.2595855755
 Ca         0.9893208033        3.5170300451        5.6626549220
  S         1.0999179486       -0.0072717323        5.7314724374
  S         5.3613839197        0.0188563596        2.1706444156
  S         4.2557734472        3.5195182685        5.7424015966
  S         2.1687083828        3.5280849632        2.1748963634
  O         0.1871775278        5.8470569043        5.7171258957
  O         6.2703040449        5.8646207801        2.1957060566
  O         6.2659400790        1.2230266830        2.1350702916
  O         0.1944079109        1.1953993527        5.7224302909
  O         3.3529215322        2.3123684583        5.7596761510
  O         3.0734324360        2.3237582718        2.1497250999
  O         3.0813117211        4.7245060011        2.2042599114
  O         3.3343431469        4.7125642807        5.7172586567
  O         2.0334686585       -0.0129225244        6.8759722251
  O         4.4207776161       -0.0072488006        1.0330185071
  O         1.9614216790       -0.0167078734        4.4934679557
  O         4.5059585794        0.0430816289        3.4141896501
  O         5.1826703564        3.5455427351        6.8893112286
  O         1.2288072566        3.5513550860        1.0361932425
  O         5.1318881886        3.5086770542        4.5079725090
  O         1.3109453062        3.5066472209        3.4164239951
 Ca         2.2707933809        7.0599522574        2.2596760455
 Ca         4.1845800987        7.0545122154        5.6625757278
 Ca         5.4619798224       10.6015586115        2.2610489246
 Ca         0.9875872203       10.5934547085        5.6628432174
  S         1.0954988535        7.0476764321        5.7339913267
  S         5.3650680389        7.0675474120        2.1866474178
  S         4.2510965379       10.5886355133        5.7330313988
  S         2.1722185882       10.5938477188        2.1877297082
  O         0.1813701874       12.9170111622        5.7223880166
  O         6.2744934923       12.9368883519        2.2032522643
  O         6.2723337967        8.2678968006        2.2050338939
  O         0.1901421029        8.2504911125        5.7238308383
  O         3.3331993791        9.3940590623        5.7156737100
  O         3.0803250862        9.3936589149        2.2051369974
  O         3.0785819226       11.7961965591        2.1963338564
  O         3.3410526163       11.7915133135        5.7237028477
  O         2.0296289720        7.0361809753        6.8795443301
  O         4.4309067035        7.0794629686        1.0413424222
  O         1.9636075323        7.0532624519        4.5009758780
  O         4.4980127696        7.0590597064        3.4207146186
  O         5.1693072394       10.5742327589        6.8875285379
  O         1.2387146007       10.5824822519        1.0415397925
  O         5.1369434991       10.6016604061        4.5078757954
  O         1.3046750162       10.6024520208        3.4206995741
 Ca         8.6507942489        0.0227665387        2.2593141999
 Ca        10.5778430178        0.0252414194        5.6604611671
 Ca        11.8419709523        3.5265427762        2.2590334832
 Ca         7.3700689390        3.5210724425        5.6681363957
  S         7.4842460600        0.0098932198        5.7496585780
  S        11.7454814240        0.0198118491        2.1743633458
  S        10.6346856924        3.5262853324        5.7325651856
  S         8.5535054223        3.5285043750        2.1863360666
  O         6.5794825426        5.8586943666        5.7710851002
  O        12.6537202537        5.8647024890        2.1969218358
  O        12.6512988483        1.2231456602        2.1500637057
  O         6.5680329559        1.2026048088        5.7815491368
  O         9.7241584666        2.3239606711        5.7243570328
  O         9.4615709894        2.3272630001        2.1890784804
  O         9.4644925141        4.7261777145        2.2046900308
  O         9.7168257646        4.7208319979        5.7158690676
  O         8.4241971537       -0.0102733479        6.8876146045
  O        10.8050863615       -0.0003446774        1.0356598311
  O         8.3393144148        0.0391951131        4.5066034144
  O        10.8887510495        0.0400833328        3.4159383438
  O        11.5536856083        3.5399234502        6.8865299576
  O         7.6202977819        3.5378136521        1.0415126866
  O        11.5193489646        3.5140596580        4.5061528718
  O         7.6882759464        3.5168115302        3.4220044258
 Ca         8.6552522683        7.0603148174        2.2614760750
 Ca        10.5697338073        7.0608217657        5.6614235061
 Ca        11.8474922940       10.6016285002        2.2593780918
 Ca         7.3737226279       10.5973466438        5.6634093086
  S         7.4820012019        7.0644984337        5.7456918439
  S        11.7488861176        7.0679209230        2.1872482538
  S        10.6490710767       10.5943763333        5.7299384909
  S         8.5559079887       10.5943428968        2.1880943966
  O         6.5750105735       12.9235601756        5.7202790541
  O        12.6570833040       12.9367072312        2.2035362716
  O        12.6567536893        8.2676720226        2.2046556947
  O         6.5710347701        8.2630914604        5.7184742225
  O         9.7169092075        9.4086573396        5.7174841322
  O         9.4639259491        9.3945104583        2.2055763534
  O         9.4610754153       11.7975661605        2.1972624202
  O         9.7660236681       11.8124500708        5.7155618864
  O         8.4233123097        7.0857013652        6.8843339544
  O        10.8150300517        7.0794795039        1.0415559981
  O         8.3414673279        7.0523403087        4.5050258357
  O        10.8808713286        7.0604431397        3.4208400467
  O        11.5699432142       10.5706547248        6.8835252449
  O         7.6225451226       10.5819263189        1.0420288360
  O        11.5289796998       10.5862659737        4.5014682704
  O         7.6874807993       10.6028125362        3.4216003122
      96
 i =       52, E =     -1777.7934046486
 Ca         2.2645024821        0.0156128106        2.2523723116
 Ca         4.1971122230       -0.0226747323        5.6633453185
 Ca         5.4586467092        3.5248044335        2.2609463965
 Ca         0.9923529204        3.5168285885        5.6620176904
  S         1.1009388005       -0.0060530707        5.7306130017
  S         5.3605007268        0.0177709857        2.1723463038
  S         4.2821515889        3.5185695376        5.7454845674
  S         2.1712641043        3.5276308759        2.1767886234
  O         0.1879995228        5.8457566460        5.7190814408
  O         6.2708386595        5.8601626045        2.1972418862
  O         6.2712259122        1.2172137715        2.1386546654
  O         0.1973660035        1.1985725490        5.7246822329
  O         3.4084303159        2.2950745928        5.7516809529
  O         3.0718934279        2.3183837207        2.1528811725
  O         3.0854131700        4.7230099245        2.2060904500
  O         3.3443996253        4.6996897198        5.7230526441
  O         2.0351790690       -0.0115411647        6.8747398544
  O         4.4226150273       -0.0069313182        1.0318966381
  O         1.9630978169       -0.0171438319        4.4932610039
  O         4.5007561388        0.0497742390        3.4116031547
  O         5.2110702504        3.5501655790        6.8895940472
  O         1.2311851465        3.5517539294        1.0389954126
  O         5.1525528606        3.5157813325        4.5082615993
  O         1.3142292225        3.5100194254        3.4195282838
 Ca         2.2709943839        7.0574551332        2.2593104888
 Ca         4.1854576143        7.0512458888        5.6639975034
 Ca         5.4630620772       10.6011851551        2.2621206774
 Ca         0.9897319060       10.5947359957        5.6620861568
  S         1.0959577459        7.0467587916        5.7325474629
  S         5.3666830077        7.0642187046        2.1863150236
  S         4.2559035424       10.5867851208        5.7349447359
  S         2.1743420612       10.5922125572        2.1869610702
  O         0.1776315679       12.9224280853        5.7197652942
  O         6.2735874259       12.9360179647        2.2029821807
  O         6.2729394129        8.2656156768        2.2057786510
  O         0.1937048558        8.2506052198        5.7250033087
  O         3.3376777710        9.3919946696        5.7168930717
  O         3.0812289743        9.3914513128        2.2068175213
  O         3.0816671449       11.7930471830        2.1974066388
  O         3.3458681292       11.7888846933        5.7228204486
  O         2.0321286212        7.0319606088        6.8760765173
  O         4.4308747514        7.0800192231        1.0419631058
  O         1.9654401229        7.0490096325        4.5002201077
  O         4.5003021354        7.0599830315        3.4211116169
  O         5.1731984875       10.5741776581        6.8897833173
  O         1.2392821826       10.5804503832        1.0418984022
  O         5.1433074086       10.6023876314        4.5114008014
  O         1.3055696284       10.6037118792        3.4178610045
 Ca         8.6518381698        0.0237161177        2.2612219671
 Ca        10.5762796321        0.0257292296        5.6607450218
 Ca        11.8422716897        3.5273642764        2.2594611058
 Ca         7.3808002627        3.5174446389        5.6690135121
  S         7.4845069601        0.0143949597        5.7531935148
  S        11.7472646507        0.0194573301        2.1776684484
  S        10.6373543284        3.5288340979        5.7328830196
  S         8.5548221582        3.5299533882        2.1849644776
  O         6.5828026681        5.8500061782        5.7864864472
  O        12.6527887327        5.8616151366        2.1972155987
  O        12.6477176499        1.2259228921        2.1557817707
  O         6.5688127262        1.2098940403        5.7909877905
  O         9.7287228991        2.3248560392        5.7240835074
  O         9.4622607178        2.3287945467        2.1905346368
  O         9.4663202521        4.7274565389        2.2045781232
  O         9.7197253843        4.7222555946        5.7167929207
  O         8.4249192703       -0.0098266985        6.8901883749
  O        10.8066645698       -0.0046438386        1.0398701557
  O         8.3348448775        0.0376708001        4.5055373250
  O        10.8924182353        0.0393319757        3.4205135953
  O        11.5572896494        3.5402927922        6.8858469637
  O         7.6197293974        3.5380214015        1.0414118224
  O        11.5193705860        3.5147161272        4.5048456087
  O         7.6910026478        3.5175584305        3.4207410075
 Ca         8.6569454444        7.0596625019        2.2620635882
 Ca        10.5718675091        7.0597921705        5.6617154965
 Ca        11.8468642565       10.6010429320        2.2611690648
 Ca         7.3745178291       10.5926499677        5.6651661186
  S         7.4841677336        7.0586618958        5.7512040662
  S        11.7505961630        7.0662519849        2.1862558122
  S        10.6597002319       10.5919504270        5.7368726438
  S         8.5570131438       10.5944769931        2.1882841191
  O         6.5785672750       12.9267829939        5.7189487733
  O        12.6591910061       12.9351433544        2.2094589985
  O        12.6592772850        8.2658775970        2.2042122186
  O         6.5672476931        8.2540587803        5.7237012454
  O         9.7316523839        9.4033601559        5.7209782237
  O         9.4656561436        9.3954977207        2.2069767136
  O         9.4599977509       11.7995632753        2.1984607266
  O         9.7619344570       11.8024829828        5.7289193964
  O         8.4281097689        7.0837331619        6.8865191245
  O        10.8153695795        7.0756553642        1.0414633782
  O         8.3371492387        7.0495181507        4.5042791683
  O        10.8811327978        7.0581700107        3.4182888802
  O        11.5973665852       10.5727890515        6.8823092045
  O         7.6230093370       10.5801141649        1.0426752206
  O        11.5288770604       10.5905353807        4.5016956437
  O         7.6886276287       10.6016252648        3.4221585351
      96
 i =       53, E =     -1777.7936612488
 Ca         2.2662151953        0.0178299938        2.2518119127
 Ca         4.1937278163       -0.0206149808        5.6619786665
 Ca         5.4582793194        3.5249139356        2.2600216986
 Ca         0.9906236620        3.5168874436        5.6623593540
  S         1.1003094941       -0.0065627001        5.7311910615
  S         5.3612294279        0.0180106108        2.1715107853
  S         4.2667796503        3.5189535056        5.7452438711
  S         2.1695231622        3.5278118978        2.1750739265
  O         0.1873770202        5.8466723062        5.7172786795
  O         6.2705374540        5.8630916305        2.1967745323
  O         6.2681431328        1.2202501587        2.1378142530
  O         0.1954394677        1.1967497015        5.7233178989
  O         3.3747676869        2.3057815825        5.7639599846
  O         3.0731390249        2.3219275734        2.1490034183
  O         3.0825348537        4.7238628805        2.2042458799
  O         3.3390008846        4.7073489737        5.7192899917
  O         2.0340450473       -0.0119459558        6.8756383972
  O         4.4215354969       -0.0069438715        1.0328358774
  O         1.9620667092       -0.0168393796        4.4934383767
  O         4.5043773242        0.0445746885        3.4134377945
  O         5.1964546725        3.5482223887        6.8898506936
  O         1.2293061496        3.5516064509        1.0369121750
  O         5.1387319399        3.5093503972        4.5082556300
  O         1.3121831502        3.5074479033        3.4171166006
 Ca         2.2712725145        7.0591208838        2.2592890786
 Ca         4.1853625675        7.0531489596        5.6632197235
 Ca         5.4626553696       10.6012348280        2.2614034905
 Ca         0.9892818491       10.5941544327        5.6626295287
  S         1.0958917699        7.0471674914        5.7332084938
  S         5.3657741862        7.0664179466        2.1866259415
  S         4.2530186680       10.5878028684        5.7337994264
  S         2.1728514628       10.5931733349        2.1875406933
  O         0.1805085241       12.9190436976        5.7221418371
  O         6.2737469533       12.9357849761        2.2035070192
  O         6.2727486140        8.2670235419        2.2050395844
  O         0.1913262264        8.2499850175        5.7235139143
  O         3.3351754019        9.3931199337        5.7162372875
  O         3.0805037841        9.3929037241        2.2055108221
  O         3.0792784907       11.7950498590        2.1960904217
  O         3.3432110206       11.7904097528        5.7234528109
  O         2.0304528012        7.0351031737        6.8783522168
  O         4.4313140441        7.0794898548        1.0413486052
  O         1.9640190739        7.0512824570        4.5000917482
  O         4.4985017750        7.0591984307        3.4205976674
  O         5.1711107937       10.5741169744        6.8883705151
  O         1.2390387270       10.5814324748        1.0414884748
  O         5.1391084468       10.6015679370        4.5090273199
  O         1.3049690166       10.6025661077        3.4197664743
 Ca         8.6516271916        0.0229381074        2.2597423363
 Ca        10.5774347051        0.0250632262        5.6606729494
 Ca        11.8420870062        3.5271658922        2.2590365910
 Ca         7.3740860784        3.5190793086        5.6681831923
  S         7.4843679356        0.0095957995        5.7504564364
  S        11.7462654992        0.0200919542        2.1755209313
  S        10.6358861537        3.5274017097        5.7326663946
  S         8.5538884268        3.5290454905        2.1859615123
  O         6.5810952473        5.8544356526        5.7790778368
  O        12.6533782575        5.8635586857        2.1970932521
  O        12.6499566530        1.2248429035        2.1502519741
  O         6.5685651732        1.2031652760        5.7829848119
  O         9.7260468817        2.3245169750        5.7242629685
  O         9.4615478565        2.3278223954        2.1894955255
  O         9.4648715248        4.7267248604        2.2044717319
  O         9.7183190206        4.7215240900        5.7163471580
  O         8.4244375469       -0.0100645503        6.8881706429
  O        10.8058625068       -0.0023077984        1.0371468554
  O         8.3383724494        0.0378134045        4.5062194656
  O        10.8898024501        0.0404753426        3.4171881254
  O        11.5553923634        3.5400377087        6.8862134141
  O         7.6202630588        3.5379097103        1.0413659285
  O        11.5194983982        3.5143687501        4.5056688026
  O         7.6894754556        3.5171642053        3.4218014416
 Ca         8.6559489559        7.0601179737        2.2618308830
 Ca        10.5705379593        7.0605289223        5.6616657720
 Ca        11.8474834654       10.6017427008        2.2604146974
 Ca         7.3740071260       10.5956508675        5.6638015196
  S         7.4826816864        7.0617118621        5.7484980720
  S        11.7495697921        7.0672213131        2.1870774535
  S        10.6546737096       10.5937840698        5.7326329870
  S         8.5561467028       10.5942499179        2.1882617460
  O         6.5762588189       12.9229997307        5.7189459456
  O        12.6579927105       12.9365709867        2.2057695367
  O        12.6576102331        8.2669155109        2.2046380074
  O         6.5695029127        8.2591543991        5.7214230970
  O         9.7255784727        9.4060892949        5.7192869932
  O         9.4642920354        9.3947612141        2.2059623538
  O         9.4605865045       11.7980157851        2.1976697903
  O         9.7641370593       11.8074637441        5.7194146488
  O         8.4253537688        7.0853321707        6.8855456999
  O        10.8154727467        7.0785022404        1.0414078780
  O         8.3396211740        7.0506477684        4.5052947378
  O        10.8818409237        7.0593840523        3.4207438748
  O        11.5827630077       10.5728765248        6.8825680039
  O         7.6226263707       10.5812142963        1.0422184255
  O        11.5300106883       10.5888079352        4.5013883314
  O         7.6879644880       10.6018993823        3.4220307424
      96
 i =       54, E =     -1777.7936818558
 Ca         2.2663211865        0.0181416887        2.2514328348
 Ca         4.1934115982       -0.0206966616        5.6619134145
 Ca         5.4582634316        3.5245461431        2.2602964791
 Ca         0.9908968317        3.5168150975        5.6624497965
  S         1.1002724755       -0.0063837185        5.7314711973
  S         5.3616687591        0.0175824599        2.1718302607
  S         4.2677884075        3.5188184958        5.7473166649
  S         2.1690649509        3.5276148756        2.1747972984
  O         0.1873712358        5.8466692979        5.7174816981
  O         6.2704155925        5.8637001095        2.1965926846
  O         6.2678807008        1.2203438551        2.1389971303
  O         0.1953752750        1.1969337829        5.7231120103
  O         3.3736160935        2.3070232155        5.7676439183
  O         3.0732209675        2.3222574665        2.1497576080
  O         3.0821806364        4.7235978054        2.2045736119
  O         3.3406090046        4.7078195681        5.7196883297
  O         2.0339758546       -0.0120805889        6.8758811965
  O         4.4216259982       -0.0068736085        1.0335352010
  O         1.9617401712       -0.0161730192        4.4934909071
  O         4.5052437792        0.0429227489        3.4141740623
  O         5.1987245277        3.5484648688        6.8915333677
  O         1.2292236503        3.5514754584        1.0362819199
  O         5.1401309843        3.5094123949        4.5107167539
  O         1.3115562722        3.5062708343        3.4166929919
 Ca         2.2713379881        7.0596888378        2.2592071017
 Ca         4.1856262580        7.0531436632        5.6630173749
 Ca         5.4623628581       10.6011919300        2.2612747766
 Ca         0.9901521102       10.5943411623        5.6627606833
  S         1.0959833310        7.0471131981        5.7335577811
  S         5.3656509002        7.0669715807        2.1868650067
  S         4.2530896704       10.5879211737        5.7337435982
  S         2.1725171138       10.5933836628        2.1876193019
  O         0.1811268747       12.9187367112        5.7222395477
  O         6.2740856764       12.9352310661        2.2038275691
  O         6.2730385969        8.2672705184        2.2050595469
  O         0.1920614327        8.2504916979        5.7251941278
  O         3.3353259648        9.3932977174        5.7163758024
  O         3.0804620669        9.3932997128        2.2052721941
  O         3.0789811257       11.7953224985        2.1957874789
  O         3.3431962786       11.7904418304        5.7236498903
  O         2.0305504521        7.0347186217        6.8787075892
  O         4.4315447614        7.0794517259        1.0413424563
  O         1.9643038492        7.0510084548        4.5006142997
  O         4.4989047702        7.0588755573        3.4212375911
  O         5.1711267343       10.5740718953        6.8883733296
  O         1.2389012903       10.5820425737        1.0414169045
  O         5.1392415687       10.6014024441        4.5089928064
  O         1.3051045656       10.6025145110        3.4203435539
 Ca         8.6511842021        0.0229934318        2.2594800163
 Ca        10.5779248679        0.0248339875        5.6607216823
 Ca        11.8418159558        3.5273359702        2.2588817231
 Ca         7.3743940609        3.5189889854        5.6679616638
  S         7.4845899359        0.0088247882        5.7504236147
  S        11.7456133216        0.0205105501        2.1747563413
  S        10.6361456056        3.5269924038        5.7326799304
  S         8.5539262644        3.5287089311        2.1860432717
  O         6.5826485218        5.8537454020        5.7777123623
  O        12.6539017059        5.8641692623        2.1974071402
  O        12.6505000162        1.2246167863        2.1505976878
  O         6.5679616264        1.2014267754        5.7831897351
  O         9.7258352162        2.3244594252        5.7244117518
  O         9.4617499713        2.3274893568        2.1889219031
  O         9.4647675265        4.7264935382        2.2045592028
  O         9.7186304573        4.7211959686        5.7163700812
  O         8.4248866448       -0.0103727184        6.8879948123
  O        10.8053456304       -0.0017099494        1.0362384460
  O         8.3394133903        0.0387778015        4.5067960515
  O        10.8884419414        0.0413591710        3.4159464034
  O        11.5555543566        3.5400156154        6.8863084889
  O         7.6206615737        3.5378081442        1.0412297556
  O        11.5199319717        3.5141747865        4.5058745081
  O         7.6886993019        3.5170671206        3.4212780428
 Ca         8.6555214235        7.0601982247        2.2622249309
 Ca        10.5707886819        7.0602065831        5.6614733995
 Ca        11.8477898799       10.6019613126        2.2600856469
 Ca         7.3743624445       10.5963164194        5.6634296408
  S         7.4826472413        7.0619093918        5.7480602092
  S        11.7496390837        7.0675941703        2.1871762963
  S        10.6556523932       10.5939929950        5.7323294100
  S         8.5560239443       10.5942704554        2.1883717891
  O         6.5759577872       12.9225613401        5.7207677473
  O        12.6576807883       12.9373357719        2.2042663614
  O        12.6572998005        8.2675119654        2.2044902746
  O         6.5685415355        8.2586937452        5.7193726586
  O         9.7266424872        9.4061853255        5.7185397885
  O         9.4641773717        9.3947047569        2.2058831580
  O         9.4607497198       11.7978061836        2.1974371684
  O         9.7670862408       11.8088580880        5.7182030294
  O         8.4251027701        7.0865103896        6.8853471264
  O        10.8155461965        7.0794714469        1.0415661692
  O         8.3401399556        7.0514350183        4.5053355605
  O        10.8807400750        7.0600088032        3.4199857309
  O        11.5823963565       10.5721410405        6.8831000892
  O         7.6226240785       10.5817040833        1.0422591130
  O        11.5313848443       10.5886596805        4.5014485878
  O         7.6874427825       10.6017611558        3.4218564094
      96
 i =       55, E =     -1777.7938205380
 Ca         2.2665713586        0.0177403235        2.2511573196
 Ca         4.1944871164       -0.0219041238        5.6625506088
 Ca         5.4592340946        3.5232426993        2.2617363675
 Ca         0.9922714379        3.5168095181        5.6628792804
  S         1.1005915122       -0.0057343072        5.7316746589
  S         5.3623786795        0.0161517450        2.1732322860
  S         4.2799434966        3.5183117911        5.7536594156
  S         2.1688933848        3.5271787148        2.1748246906
  O         0.1872347522        5.8459909393        5.7159313530
  O         6.2701260557        5.8638132064        2.1965059852
  O         6.2694473584        1.2180986450        2.1445570793
  O         0.1960723071        1.1980444432        5.7236230737
  O         3.3900540848        2.3046174760        5.7730580893
  O         3.0736401838        2.3221967370        2.1507718406
  O         3.0817078613        4.7232603657        2.2046785333
  O         3.3490430201        4.7049516208        5.7229329498
  O         2.0344335724       -0.0119157140        6.8759582270
  O         4.4225303577       -0.0062164542        1.0346403522
  O         1.9615157122       -0.0151123327        4.4933568246
  O         4.5057204581        0.0406979066        3.4151241381
  O         5.2151815460        3.5506952493        6.8959753165
  O         1.2294057013        3.5505634176        1.0359970149
  O         5.1490510283        3.5105354674        4.5155529382
  O         1.3110217649        3.5054640270        3.4165233828
 Ca         2.2716232940        7.0602091405        2.2590312672
 Ca         4.1863267123        7.0522256370        5.6630241411
 Ca         5.4623736885       10.6007540932        2.2612891542
 Ca         0.9926201137       10.5948368614        5.6626409599
  S         1.0964560221        7.0459997915        5.7333839821
  S         5.3656527045        7.0671977755        2.1870840841
  S         4.2548854911       10.5873478415        5.7342739982
  S         2.1723329650       10.5932674987        2.1874911350
  O         0.1818665701       12.9193207222        5.7221282111
  O         6.2741165418       12.9334177801        2.2034730792
  O         6.2734063496        8.2672189559        2.2051322634
  O         0.1930758356        8.2495301808        5.7256464989
  O         3.3373406321        9.3928104813        5.7170548016
  O         3.0803642405        9.3933792930        2.2051464083
  O         3.0788331907       11.7950640951        2.1952386716
  O         3.3450646253       11.7894908246        5.7238306899
  O         2.0309710560        7.0333112454        6.8786686397
  O         4.4318093190        7.0793854145        1.0412951837
  O         1.9645153824        7.0491124220        4.5002120725
  O         4.4983038438        7.0587045907        3.4209528642
  O         5.1729429775       10.5740657379        6.8889026079
  O         1.2387144582       10.5825443755        1.0412411829
  O         5.1410642166       10.6011837955        4.5096751068
  O         1.3053631444       10.6023855254        3.4204973942
 Ca         8.6510954091        0.0233339386        2.2595821072
 Ca        10.5781136244        0.0245285654        5.6611176125
 Ca        11.8415807070        3.5275092488        2.2588104399
 Ca         7.3777676720        3.5183623322        5.6679455307
  S         7.4849877748        0.0079983548        5.7507979549
  S        11.7454008121        0.0208215258        2.1746759010
  S        10.6378879529        3.5270031097        5.7328128270
  S         8.5542016136        3.5284208392        2.1857624163
  O         6.5840569241        5.8531523654        5.7806413591
  O        12.6542740483        5.8645729789        2.1978682818
  O        12.6508491620        1.2245661157        2.1511524113
  O         6.5679447275        1.1999129252        5.7843629484
  O         9.7272464096        2.3248125523        5.7246226377
  O         9.4622125582        2.3273611913        2.1880459523
  O         9.4647879349        4.7263577635        2.2045849159
  O         9.7206439135        4.7210856579        5.7168614748
  O         8.4260109475       -0.0110904765        6.8879261516
  O        10.8053542464       -0.0013788532        1.0359453280
  O         8.3401853580        0.0395107460        4.5072810741
  O        10.8877786216        0.0418000636        3.4155457316
  O        11.5574440713        3.5400188971        6.8863126736
  O         7.6210297201        3.5375317904        1.0408311100
  O        11.5213959240        3.5139839754        4.5061064333
  O         7.6888522386        3.5164750819        3.4205229477
 Ca         8.6554259955        7.0602552781        2.2626123854
 Ca        10.5714279422        7.0595683915        5.6614134314
 Ca        11.8481784158       10.6020786915        2.2596078475
 Ca         7.3752389378       10.5962679066        5.6632145038
  S         7.4830017953        7.0619298297        5.7487684305
  S        11.7495893011        7.0676969518        2.1874805346
  S        10.6612919026       10.5933618480        5.7330524366
  S         8.5559571063       10.5941294646        2.1885316643
  O         6.5766153742       12.9216796941        5.7218162655
  O        12.6577677001       12.9378186927        2.2039639028
  O        12.6571748283        8.2676190328        2.2046369904
  O         6.5682104835        8.2582868429        5.7201905278
  O         9.7357701891        9.4031702183        5.7182967115
  O         9.4640953005        9.3945901553        2.2058028627
  O         9.4605995149       11.7976323124        2.1973836541
  O         9.7701748454       11.8067088478        5.7173677427
  O         8.4259912650        7.0887469578        6.8854381761
  O        10.8157628059        7.0802395286        1.0416192267
  O         8.3404531744        7.0521848498        4.5056880870
  O        10.8809225887        7.0603492053        3.4204102251
  O        11.5903075582       10.5729641923        6.8831532014
  O         7.6225075143       10.5821225451        1.0424134449
  O        11.5353397132       10.5900284686        4.5015085763
  O         7.6870546148       10.6010240515        3.4218492619
      96
 i =       56, E =     -1777.7939715782
 Ca         2.2673870421        0.0168800344        2.2509927659
 Ca         4.1964505452       -0.0238822890        5.6648777965
 Ca         5.4609665698        3.5205562868        2.2652602929
 Ca         0.9950124475        3.5172018250        5.6631603459
  S         1.1012795243       -0.0043195815        5.7313684357
  S         5.3632576383        0.0129768255        2.1769796575
  S         4.3030785459        3.5163167988        5.7654736079
  S         2.1685658609        3.5264503122        2.1750294366
  O         0.1884915217        5.8438685324        5.7158410051
  O         6.2705184035        5.8640233726        2.1972510783
  O         6.2722656913        1.2129352337        2.1578806387
  O         0.1973570125        1.2001575926        5.7248594265
  O         3.4195864601        2.2997235222        5.7866279677
  O         3.0741330135        2.3220818548        2.1514335069
  O         3.0805333230        4.7228440228        2.2042223607
  O         3.3733316624        4.7039028127        5.7317860669
  O         2.0351975545       -0.0108588919        6.8755225726
  O         4.4244844262       -0.0047080078        1.0371561486
  O         1.9615534595       -0.0128577534        4.4926454200
  O         4.5041258097        0.0360942888        3.4164935273
  O         5.2478966553        3.5534023392        6.9032074764
  O         1.2291094454        3.5491406520        1.0360163678
  O         5.1588679234        3.5100711742        4.5195595154
  O         1.3099797717        3.5049993784        3.4162942293
 Ca         2.2727530351        7.0606681268        2.2584002374
 Ca         4.1882421341        7.0511707267        5.6635453015
 Ca         5.4624041065       10.5995439958        2.2612257883
 Ca         0.9983909458       10.5956327022        5.6629787388
  S         1.0980029091        7.0436593935        5.7327580954
  S         5.3658385802        7.0670429961        2.1873560474
  S         4.2588844259       10.5861237406        5.7354369224
  S         2.1723402939       10.5930707560        2.1868009887
  O         0.1833287520       12.9206254653        5.7216075309
  O         6.2735921918       12.9295886315        2.2027352055
  O         6.2734737418        8.2669864672        2.2046312433
  O         0.1941495065        8.2462725573        5.7237806950
  O         3.3420275653        9.3916419963        5.7183712938
  O         3.0800653798        9.3932420995        2.2048036670
  O         3.0786954269       11.7947536945        2.1935455252
  O         3.3491196129       11.7874107867        5.7242884086
  O         2.0321412336        7.0325362728        6.8785557744
  O         4.4327941544        7.0787673060        1.0406251929
  O         1.9646391926        7.0444789928        4.4984551061
  O         4.4982143483        7.0584558979        3.4210215514
  O         5.1772668183       10.5742539792        6.8899548723
  O         1.2387309927       10.5823846710        1.0403292985
  O         5.1444597313       10.6008569012        4.5106633772
  O         1.3058389627       10.6021620443        3.4198586952
 Ca         8.6517985399        0.0234337269        2.2593067892
 Ca        10.5788925963        0.0242624564        5.6608606082
 Ca        11.8411076245        3.5282762516        2.2587894001
 Ca         7.3847075922        3.5166972421        5.6684844871
  S         7.4862135797        0.0052831361        5.7504852781
  S        11.7450621534        0.0220279294        2.1742065116
  S        10.6416292315        3.5273530544        5.7334252808
  S         8.5543499064        3.5277674458        2.1849569206
  O         6.5868571592        5.8526240041        5.7833963592
  O        12.6549666716        5.8654770362        2.1977914711
  O        12.6510775987        1.2257625521        2.1520470265
  O         6.5693207003        1.1961903098        5.7850289103
  O         9.7304818688        2.3258531174        5.7250162923
  O         9.4625964090        2.3271515311        2.1864509455
  O         9.4644259838        4.7260267990        2.2042755334
  O         9.7252053205        4.7215583482        5.7180489198
  O         8.4283391125       -0.0119099400        6.8871058045
  O        10.8060037899        0.0013159495        1.0345712251
  O         8.3413644657        0.0389079565        4.5068782235
  O        10.8865639504        0.0438153998        3.4142448341
  O        11.5618579980        3.5396000459        6.8865459920
  O         7.6210602176        3.5367659561        1.0398404522
  O        11.5245848351        3.5136524903        4.5069454883
  O         7.6905608522        3.5145833302        3.4200798864
 Ca         8.6558291233        7.0601912739        2.2631691519
 Ca        10.5730625453        7.0594334025        5.6617339792
 Ca        11.8488546880       10.6021253567        2.2589352167
 Ca         7.3770694737       10.5951642071        5.6631287583
  S         7.4837627099        7.0623743798        5.7498296648
  S        11.7497806638        7.0681070380        2.1876598484
  S        10.6771667760       10.5946590289        5.7347749702
  S         8.5557557040       10.5935310256        2.1886023065
  O         6.5792346503       12.9181244584        5.7213978713
  O        12.6566069714       12.9384602582        2.2015503534
  O        12.6576335734        8.2675968687        2.2050200046
  O         6.5682063072        8.2583817177        5.7209724965
  O         9.7641027725        9.3966410760        5.7222148951
  O         9.4634597861        9.3939383020        2.2047786458
  O         9.4603705247       11.7967813869        2.1976201000
  O         9.7773621787       11.8019732621        5.7181467811
  O         8.4278835359        7.0922800008        6.8854263849
  O        10.8161075617        7.0812174354        1.0414116113
  O         8.3416432242        7.0534262592        4.5066108346
  O        10.8819067700        7.0597030095        3.4211928385
  O        11.6132810499       10.5779347693        6.8814117039
  O         7.6222276346       10.5819995638        1.0423358890
  O        11.5431617447       10.5929835492        4.4988472686
  O         7.6872156713       10.5995456658        3.4223561293
      96
 i =       57, E =     -1777.7939637551
 Ca         2.2669567181        0.0182928166        2.2513993551
 Ca         4.1951501671       -0.0230402846        5.6631802311
 Ca         5.4597044006        3.5228702816        2.2633125740
 Ca         0.9935025862        3.5170324463        5.6631287664
  S         1.1007935264       -0.0054224370        5.7314032198
  S         5.3623140612        0.0152642738        2.1740910465
  S         4.2863796753        3.5170242204        5.7562558320
  S         2.1689041254        3.5270551215        2.1752014020
  O         0.1881523161        5.8449381075        5.7156383484
  O         6.2703155596        5.8646468165        2.1964954442
  O         6.2693381524        1.2169564608        2.1472254558
  O         0.1962451490        1.1983853112        5.7240246497
  O         3.3956678261        2.3040116236        5.7776357790
  O         3.0744944760        2.3230348679        2.1506727795
  O         3.0806099911        4.7237415572        2.2037917086
  O         3.3612779523        4.7075192940        5.7252976383
  O         2.0344907147       -0.0115247297        6.8757058835
  O         4.4225776947       -0.0061467287        1.0353866989
  O         1.9616135089       -0.0141928355        4.4929833104
  O         4.5053812193        0.0390174056        3.4156228223
  O         5.2237245259        3.5501944405        6.8980364578
  O         1.2291380165        3.5490657950        1.0363628770
  O         5.1489557422        3.5084260824        4.5143289118
  O         1.3105033010        3.5058078011        3.4164135398
 Ca         2.2717748939        7.0605296954        2.2588875487
 Ca         4.1874270060        7.0525987624        5.6632904378
 Ca         5.4620975668       10.6004623674        2.2612211365
 Ca         0.9939342844       10.5945530636        5.6628752307
  S         1.0971082826        7.0450211695        5.7330592839
  S         5.3652916399        7.0675254282        2.1870538038
  S         4.2561594403       10.5869275393        5.7346274982
  S         2.1723404282       10.5935049058        2.1872097510
  O         0.1825680063       12.9193177375        5.7221579898
  O         6.2739641029       12.9326090115        2.2029503600
  O         6.2728148956        8.2675711497        2.2048388232
  O         0.1922906928        8.2474580815        5.7230993723
  O         3.3389879016        9.3924612267        5.7170955020
  O         3.0801436590        9.3935248450        2.2048745682
  O         3.0784665908       11.7956806873        2.1947810669
  O         3.3466399430       11.7889911029        5.7242535007
  O         2.0310022522        7.0342797592        6.8789666937
  O         4.4318807662        7.0792468804        1.0409340978
  O         1.9638040727        7.0477488403        4.4988565851
  O         4.4975386625        7.0589777669        3.4205022006
  O         5.1749011082       10.5740383082        6.8888486422
  O         1.2390807117       10.5820509362        1.0407153144
  O         5.1411568788       10.6010818889        4.5092792913
  O         1.3051519178       10.6020733575        3.4201016217
 Ca         8.6513551110        0.0229729344        2.2592797532
 Ca        10.5785579650        0.0239586777        5.6609480270
 Ca        11.8414201407        3.5271375215        2.2589427842
 Ca         7.3797106955        3.5183646591        5.6681708645
  S         7.4852052363        0.0061332848        5.7500675536
  S        11.7453905116        0.0207218672        2.1748433199
  S        10.6395394257        3.5267737436        5.7333835143
  S         8.5541957835        3.5281810581        2.1853784340
  O         6.5834118279        5.8558444511        5.7769237966
  O        12.6539811354        5.8651466363        2.1969393932
  O        12.6508968438        1.2243577701        2.1505733517
  O         6.5683954225        1.1971004647        5.7822368181
  O         9.7287386032        2.3249281952        5.7248818610
  O         9.4623221410        2.3271804059        2.1876177756
  O         9.4644514640        4.7262468199        2.2042918467
  O         9.7226264599        4.7211314247        5.7170140891
  O         8.4262113616       -0.0100351862        6.8874763174
  O        10.8053816850        0.0010473043        1.0358475144
  O         8.3407001917        0.0385946944        4.5069850324
  O        10.8873465231        0.0406395162        3.4154541101
  O        11.5594614737        3.5396234791        6.8867108739
  O         7.6209266089        3.5372340182        1.0404282778
  O        11.5230457476        3.5133864883        4.5069679333
  O         7.6902901857        3.5151286160        3.4209203177
 Ca         8.6553892644        7.0604616641        2.2624377412
 Ca        10.5719038052        7.0596580735        5.6617385307
 Ca        11.8479723584       10.6019816858        2.2594897267
 Ca         7.3758304832       10.5961139431        5.6630483605
  S         7.4829748163        7.0635617930        5.7480480703
  S        11.7491050275        7.0682287255        2.1876728778
  S        10.6658928682       10.5946402844        5.7316541933
  S         8.5558093602       10.5939357224        2.1884251634
  O         6.5780095948       12.9187823387        5.7200145320
  O        12.6572627033       12.9376797185        2.2026716534
  O        12.6573930561        8.2676234832        2.2054399480
  O         6.5702569051        8.2612583930        5.7201756816
  O         9.7461849717        9.4009724224        5.7159410132
  O         9.4635301033        9.3941169570        2.2051022182
  O         9.4606139732       11.7971305623        2.1977862009
  O         9.7720905346       11.8060343735        5.7169068138
  O         8.4257123411        7.0895974473        6.8851558125
  O        10.8153303577        7.0806879646        1.0417686716
  O         8.3418086727        7.0524330764        4.5060863321
  O        10.8820979865        7.0602858068        3.4218496739
  O        11.5937849055       10.5754064301        6.8824611954
  O         7.6224483447       10.5818723126        1.0421975508
  O        11.5385688946       10.5923152742        4.4996772749
  O         7.6875762770       10.6009037329        3.4222162828
      96
 i =       58, E =     -1777.7940981877
 Ca         2.2679327698        0.0188572840        2.2509834059
 Ca         4.1949543884       -0.0234707185        5.6624041067
 Ca         5.4602842797        3.5231336610        2.2622535448
 Ca         0.9931250280        3.5170876825        5.6631182404
  S         1.1009855674       -0.0054041338        5.7312063931
  S         5.3623955034        0.0154104823        2.1734547422
  S         4.2876979934        3.5167411152        5.7539364979
  S         2.1689093537        3.5274623309        2.1751401515
  O         0.1879288103        5.8451635253        5.7157231799
  O         6.2700910782        5.8644925387        2.1959562545
  O         6.2693022822        1.2171077651        2.1454979212
  O         0.1963448502        1.1982708492        5.7238628609
  O         3.3940556481        2.3055141433        5.7754567178
  O         3.0743220914        2.3235918986        2.1502364107
  O         3.0807620855        4.7239865986        2.2041770227
  O         3.3701466654        4.7118292476        5.7250085281
  O         2.0348956022       -0.0114477173        6.8754569875
  O         4.4219629821       -0.0065972424        1.0351709880
  O         1.9616343863       -0.0143338668        4.4926222186
  O         4.5060540315        0.0392199530        3.4154832330
  O         5.2216015260        3.5481421216        6.8977647477
  O         1.2286083702        3.5491492651        1.0365715248
  O         5.1503543078        3.5072217382        4.5124583993
  O         1.3111614954        3.5061669674        3.4167996372
 Ca         2.2717625958        7.0604233483        2.2586997643
 Ca         4.1877361565        7.0530606865        5.6630342461
 Ca         5.4625937396       10.6005593981        2.2609516910
 Ca         0.9940635089       10.5943436994        5.6623175301
  S         1.0968143441        7.0453066935        5.7328169945
  S         5.3653794367        7.0675071483        2.1870302073
  S         4.2569092929       10.5866946505        5.7345018609
  S         2.1723199931       10.5934131894        2.1872145714
  O         0.1827715866       12.9193328324        5.7222508581
  O         6.2739007956       12.9327429845        2.2031633592
  O         6.2728511032        8.2675233954        2.2053021945
  O         0.1925842699        8.2482272859        5.7237308948
  O         3.3399053263        9.3922222298        5.7173315931
  O         3.0802786531        9.3935393509        2.2047201360
  O         3.0785769866       11.7954796791        2.1950723787
  O         3.3474630752       11.7887842447        5.7243927419
  O         2.0309466405        7.0339455513        6.8785397782
  O         4.4316592881        7.0792859100        1.0410929906
  O         1.9643565331        7.0469768687        4.4992544866
  O         4.4981301402        7.0589556933        3.4207860826
  O         5.1760585643       10.5738048901        6.8884963732
  O         1.2387893700       10.5822332388        1.0408777662
  O         5.1412097368       10.6009685193        4.5087571796
  O         1.3056250126       10.6021804444        3.4204074157
 Ca         8.6520391729        0.0228405764        2.2587356894
 Ca        10.5784428542        0.0240775296        5.6605999891
 Ca        11.8419117533        3.5272549008        2.2587097865
 Ca         7.3793366776        3.5188906986        5.6677077576
  S         7.4856549973        0.0066213514        5.7495758888
  S        11.7459540666        0.0210911457        2.1744432309
  S        10.6405892307        3.5269331692        5.7336338670
  S         8.5541588630        3.5282828495        2.1853097814
  O         6.5834258496        5.8563125940        5.7721282982
  O        12.6542284102        5.8653441483        2.1966038005
  O        12.6516104207        1.2246570914        2.1498956572
  O         6.5694744041        1.1977786856        5.7812368614
  O         9.7295890211        2.3253719723        5.7250335335
  O         9.4622965875        2.3273705670        2.1874651933
  O         9.4643847268        4.7263205962        2.2042388863
  O         9.7236276636        4.7213567222        5.7172981986
  O         8.4267512718       -0.0099009421        6.8870188133
  O        10.8058021229        0.0015445614        1.0353273894
  O         8.3413076360        0.0384319564        4.5067688699
  O        10.8883700162        0.0407156222        3.4153317044
  O        11.5606115979        3.5397941465        6.8869969481
  O         7.6207570658        3.5375640845        1.0404503479
  O        11.5239338434        3.5130820966        4.5071392459
  O         7.6896740876        3.5152188802        3.4203813745
 Ca         8.6552480472        7.0603752264        2.2621808259
 Ca        10.5719544739        7.0599141333        5.6616887527
 Ca        11.8487478077       10.6021789422        2.2586295313
 Ca         7.3762496288       10.5963074972        5.6626476069
  S         7.4829052265        7.0638616671        5.7465739564
  S        11.7491165137        7.0682419513        2.1873574564
  S        10.6677751423       10.5950719069        5.7314371636
  S         8.5559077402       10.5939412171        2.1882537755
  O         6.5778303123       12.9195266753        5.7214549683
  O        12.6576047996       12.9380242926        2.2042712796
  O        12.6569355204        8.2678156535        2.2051289093
  O         6.5709912820        8.2621288071        5.7195958989
  O         9.7524613179        9.3989352635        5.7187580158
  O         9.4637917179        9.3942876765        2.2054336328
  O         9.4604995453       11.7972223635        2.1969043216
  O         9.7724296739       11.8050941449        5.7173312139
  O         8.4250269939        7.0889586686        6.8844319636
  O        10.8152827185        7.0807619963        1.0414940060
  O         8.3421939711        7.0530061210        4.5052232437
  O        10.8817134348        7.0603803439        3.4211431631
  O        11.5967635303       10.5776825501        6.8810764532
  O         7.6221871519       10.5819327156        1.0422785415
  O        11.5393786724       10.5931654874        4.4990644076
  O         7.6875630475       10.6009150472        3.4219093765
      96
 i =       59, E =     -1777.7941556349
 Ca         2.2674100968        0.0193522187        2.2511450283
 Ca         4.1952570875       -0.0233058535        5.6622505362
 Ca         5.4600151746        3.5233239248        2.2605891633
 Ca         0.9932121591        3.5171075158        5.6628676840
  S         1.1009654623       -0.0049704730        5.7308585030
  S         5.3618165129        0.0153166977        2.1733048066
  S         4.2912139390        3.5160317857        5.7507532736
  S         2.1693265787        3.5278330022        2.1748974468
  O         0.1882599035        5.8449907221        5.7178586170
  O         6.2707279020        5.8643518017        2.1967273273
  O         6.2696127214        1.2162878142        2.1452366970
  O         0.1962433043        1.1986205852        5.7237754489
  O         3.3955577274        2.3058773814        5.7747221316
  O         3.0740201772        2.3234977276        2.1494210210
  O         3.0816909535        4.7240998744        2.2041970576
  O         3.3794417761        4.7140055927        5.7154231853
  O         2.0348901632       -0.0106405365        6.8751182190
  O         4.4217532407       -0.0065731863        1.0346320887
  O         1.9618654724       -0.0137479876        4.4924262947
  O         4.5048225579        0.0404931990        3.4149318192
  O         5.2227948400        3.5440999644        6.8954148340
  O         1.2284091486        3.5499930791        1.0369308262
  O         5.1524845979        3.5045665046        4.5091116459
  O         1.3118699490        3.5064551302        3.4168939742
 Ca         2.2716776322        7.0598462215        2.2583065450
 Ca         4.1887227709        7.0532119319        5.6628441560
 Ca         5.4621736967       10.6003388522        2.2608892939
 Ca         0.9961510421       10.5949487564        5.6615264150
  S         1.0970908215        7.0453091814        5.7322222916
  S         5.3656697543        7.0672083980        2.1868509971
  S         4.2590699570       10.5863078154        5.7344703880
  S         2.1730615928       10.5933194741        2.1869437365
  O         0.1824193506       12.9200439525        5.7214684827
  O         6.2731678884       12.9325982777        2.2036533636
  O         6.2726366706        8.2676434897        2.2041466620
  O         0.1934418684        8.2486274546        5.7232209067
  O         3.3416025167        9.3921357475        5.7174541300
  O         3.0809253398        9.3932093114        2.2048840764
  O         3.0794269311       11.7953536962        2.1950820862
  O         3.3506194259       11.7890067533        5.7246191185
  O         2.0319474336        7.0327450151        6.8773132746
  O         4.4317382173        7.0793048901        1.0410745382
  O         1.9646178191        7.0453827790        4.4984759352
  O         4.4985743873        7.0589577659        3.4208000470
  O         5.1789343204       10.5733237069        6.8879113999
  O         1.2390884293       10.5821540225        1.0409627040
  O         5.1422070244       10.6007620919        4.5081573166
  O         1.3057214725       10.6025664038        3.4193787691
 Ca         8.6517490115        0.0229824444        2.2583891831
 Ca        10.5791566487        0.0244731030        5.6599241748
 Ca        11.8415960434        3.5280896960        2.2588641632
 Ca         7.3808788060        3.5182403219        5.6672972327
  S         7.4862655213        0.0069600606        5.7487982885
  S        11.7460657295        0.0224458736        2.1739342124
  S        10.6426984828        3.5275408521        5.7342506298
  S         8.5543375336        3.5283413091        2.1852344289
  O         6.5830507984        5.8565215730        5.7689227032
  O        12.6547550611        5.8654472452        2.1962576994
  O        12.6512338109        1.2267838739        2.1500661068
  O         6.5701278042        1.1979119669        5.7789617724
  O         9.7325469731        2.3256014065        5.7253051967
  O         9.4624963818        2.3276002469        2.1875587467
  O         9.4647027911        4.7264574373        2.2043600609
  O         9.7253852157        4.7218982201        5.7174035807
  O         8.4272587407       -0.0099480368        6.8862256474
  O        10.8063438926        0.0020016520        1.0345191229
  O         8.3410352088        0.0370488444        4.5056167552
  O        10.8886883800        0.0424479354        3.4148708471
  O        11.5633336064        3.5403673547        6.8871939196
  O         7.6207549789        3.5377462561        1.0405816794
  O        11.5256034588        3.5127944880        4.5075581278
  O         7.6901111015        3.5148827044        3.4205336377
 Ca         8.6553956800        7.0601296101        2.2615650845
 Ca        10.5735918685        7.0604350226        5.6616084369
 Ca        11.8487173259       10.6023974731        2.2584266601
 Ca         7.3774970053       10.5958338749        5.6627502566
  S         7.4832697264        7.0634909578        5.7450834772
  S        11.7496151105        7.0683139267        2.1867474065
  S        10.6750973011       10.5965720908        5.7327135586
  S         8.5563344974       10.5938181833        2.1880326069
  O         6.5785809558       12.9195410670        5.7217073661
  O        12.6571195659       12.9388902144        2.2027922957
  O        12.6568622452        8.2681930483        2.2042451327
  O         6.5712447890        8.2619381167        5.7175216744
  O         9.7677177074        9.3960573013        5.7222725324
  O         9.4643365045        9.3943338771        2.2053632593
  O         9.4611306212       11.7970362730        2.1973101456
  O         9.7731011791       11.8013856909        5.7194077315
  O         8.4250206397        7.0872580475        6.8834721784
  O        10.8154569024        7.0801529232        1.0411887027
  O         8.3427554591        7.0534275898        4.5041116793
  O        10.8810467396        7.0597015506        3.4196438303
  O        11.6117916000       10.5848114749        6.8764179677
  O         7.6224183596       10.5816547301        1.0422720912
  O        11.5410876212       10.5956657796        4.4974185909
  O         7.6883261701       10.6011287675        3.4220724078
      96
 i =       60, E =     -1777.7941396841
 Ca         2.2669687968        0.0192908421        2.2510943527
 Ca         4.1951930795       -0.0231879485        5.6623143666
 Ca         5.4600949791        3.5234335662        2.2606586348
 Ca         0.9943996217        3.5171369688        5.6626374180
  S         1.1009723286       -0.0048861785        5.7309393535
  S         5.3625024048        0.0155220740        2.1739293397
  S         4.2916772280        3.5159219621        5.7515293410
  S         2.1694035896        3.5275090765        2.1748761739
  O         0.1877600057        5.8452517340        5.7165791889
  O         6.2706009122        5.8647725272        2.1968785256
  O         6.2704997947        1.2164247384        2.1476188633
  O         0.1963932207        1.1988525741        5.7241143027
  O         3.3929154549        2.3075863069        5.7755574142
  O         3.0743813786        2.3234291307        2.1500897955
  O         3.0813641761        4.7240097212        2.2037379175
  O         3.3829831446        4.7158424062        5.7179850300
  O         2.0350434132       -0.0106832313        6.8750512751
  O         4.4228375092       -0.0060592934        1.0350588389
  O         1.9616533093       -0.0136831304        4.4922978319
  O         4.5046597967        0.0408256326        3.4148835786
  O         5.2276071183        3.5418884041        6.8934815134
  O         1.2289364494        3.5498101271        1.0365649013
  O         5.1505167248        3.5042239151        4.5082676501
  O         1.3111996080        3.5058551074        3.4163197454
 Ca         2.2715200861        7.0601570533        2.2584298468
 Ca         4.1889395977        7.0533663305        5.6625827856
 Ca         5.4620214141       10.6004640006        2.2608848721
 Ca         0.9957600216       10.5952518154        5.6619600080
  S         1.0973593280        7.0450445528        5.7322201680
  S         5.3654645541        7.0676013293        2.1868325994
  S         4.2597563143       10.5862624984        5.7344814972
  S         2.1729996792       10.5935961721        2.1870815201
  O         0.1824847305       12.9200916862        5.7217937004
  O         6.2736476472       12.9325589195        2.2039368361
  O         6.2728529899        8.2678017278        2.2041014897
  O         0.1935101776        8.2483666831        5.7225813658
  O         3.3420467206        9.3922995384        5.7174806713
  O         3.0808283478        9.3934557047        2.2048429398
  O         3.0790941487       11.7959457995        2.1949279272
  O         3.3520601909       11.7894105441        5.7246999394
  O         2.0317825204        7.0327435768        6.8776585953
  O         4.4317797978        7.0795894127        1.0409888709
  O         1.9642452835        7.0457841845        4.4980370893
  O         4.4979422566        7.0591036482        3.4203108823
  O         5.1797155578       10.5732426490        6.8878399299
  O         1.2394488533       10.5820298870        1.0409008196
  O         5.1427166358       10.6006068588        4.5081169609
  O         1.3058886828       10.6024407556        3.4198794830
 Ca         8.6513080568        0.0228957727        2.2588475141
 Ca        10.5791153346        0.0233575334        5.6604273967
 Ca        11.8417621505        3.5274431661        2.2589500540
 Ca         7.3812099456        3.5183673411        5.6673205102
  S         7.4859286397        0.0066542310        5.7494378469
  S        11.7456816638        0.0214695537        2.1742502147
  S        10.6436051639        3.5273093199        5.7344923436
  S         8.5546497631        3.5282505274        2.1851614964
  O         6.5821536103        5.8576630576        5.7691682269
  O        12.6544080605        5.8652368063        2.1967582839
  O        12.6507511120        1.2255081715        2.1498244872
  O         6.5688939458        1.1966673484        5.7799691885
  O         9.7337817491        2.3252266905        5.7254568371
  O         9.4627186059        2.3272455462        2.1875763268
  O         9.4648512094        4.7263903228        2.2043671631
  O         9.7263544044        4.7216940417        5.7174806191
  O         8.4272680861       -0.0088094965        6.8866123728
  O        10.8050634901        0.0014566381        1.0355677500
  O         8.3407570288        0.0382342755        4.5062093867
  O        10.8877484115        0.0410458930        3.4150671604
  O        11.5641275813        3.5401598335        6.8874493785
  O         7.6212896311        3.5375218085        1.0403760665
  O        11.5265409370        3.5128081414        4.5079257054
  O         7.6904960331        3.5148032885        3.4204942852
 Ca         8.6554199620        7.0603079098        2.2614354969
 Ca        10.5737340799        7.0593322882        5.6615140401
 Ca        11.8484596869       10.6023068217        2.2588763888
 Ca         7.3771323707       10.5964964550        5.6627078695
  S         7.4832524806        7.0638745712        5.7451666228
  S        11.7493494804        7.0682989791        2.1871262125
  S        10.6745815210       10.5955439495        5.7322933211
  S         8.5563005228       10.5939734370        2.1880677588
  O         6.5790381585       12.9186078570        5.7209489559
  O        12.6575059338       12.9385601594        2.2017121956
  O        12.6569867212        8.2681129455        2.2045376923
  O         6.5721978668        8.2629201232        5.7182090364
  O         9.7663905072        9.3956281245        5.7132535259
  O         9.4641468424        9.3942535956        2.2052295856
  O         9.4611394582       11.7971631950        2.1975145630
  O         9.7723261637       11.8007027743        5.7197826414
  O         8.4247624193        7.0872303756        6.8837248174
  O        10.8156014621        7.0804131273        1.0413333488
  O         8.3432157278        7.0526996484        4.5046667360
  O        10.8816793408        7.0599650691        3.4206386068
  O        11.6072380234       10.5815568750        6.8789785573
  O         7.6227049206       10.5817484385        1.0421580801
  O        11.5428254202       10.5975777136        4.4987947668
  O         7.6882925359       10.6012267619        3.4220632595
      96
 i =       61, E =     -1777.7941931846
 Ca         2.2673962554        0.0188024344        2.2508544357
 Ca         4.1951743413       -0.0217838675        5.6623900625
 Ca         5.4603177783        3.5232533903        2.2602980353
 Ca         0.9939489300        3.5170893982        5.6622091768
  S         1.1010407856       -0.0047521382        5.7309054427
  S         5.3627866433        0.0158816313        2.1741196248
  S         4.2900822983        3.5164555945        5.7492557941
  S         2.1694176363        3.5274253090        2.1747761690
  O         0.1872944112        5.8458006219        5.7162759778
  O         6.2699533064        5.8639319795        2.1960329532
  O         6.2708255179        1.2167614646        2.1475227819
  O         0.1966250220        1.1990638411        5.7242295610
  O         3.3906729132        2.3083739963        5.7738071393
  O         3.0741021935        2.3230069800        2.1498493415
  O         3.0816215892        4.7237476528        2.2038696383
  O         3.3790765228        4.7147185736        5.7172037636
  O         2.0353482820       -0.0109588612        6.8748905701
  O         4.4230279569       -0.0055854333        1.0352598243
  O         1.9614368600       -0.0140993272        4.4920334537
  O         4.5054707480        0.0403286411        3.4154780763
  O         5.2282866249        3.5401900401        6.8894834435
  O         1.2290277618        3.5505746860        1.0364935992
  O         5.1498839798        3.5045073717        4.5065982829
  O         1.3116594389        3.5061066531        3.4166081178
 Ca         2.2716007289        7.0600244592        2.2582254912
 Ca         4.1888095548        7.0535510526        5.6624239289
 Ca         5.4625591666       10.6005083429        2.2606227259
 Ca         0.9959133713       10.5953811392        5.6620768588
  S         1.0972507279        7.0454014087        5.7323423551
  S         5.3653103207        7.0672077667        2.1868340029
  S         4.2612277355       10.5863615973        5.7346735047
  S         2.1729860047       10.5936013818        2.1869809475
  O         0.1824568446       12.9203327486        5.7220683995
  O         6.2737159955       12.9327606266        2.2033273524
  O         6.2731482047        8.2672214306        2.2053208913
  O         0.1934400132        8.2487827231        5.7226897647
  O         3.3429348912        9.3927276100        5.7175079823
  O         3.0807710583        9.3934472948        2.2044286105
  O         3.0794171513       11.7956972275        2.1948852410
  O         3.3551475872       11.7904794575        5.7247330954
  O         2.0312481589        7.0334835452        6.8780787893
  O         4.4314455428        7.0792536092        1.0411240708
  O         1.9646844887        7.0456512640        4.4985489863
  O         4.4983312702        7.0590650501        3.4206516438
  O         5.1811606574       10.5729603723        6.8880795971
  O         1.2393070578       10.5821487890        1.0409158298
  O         5.1435855256       10.6002801472        4.5079865152
  O         1.3065169678       10.6026470687        3.4201987193
 Ca         8.6514015828        0.0228599610        2.2590388652
 Ca        10.5789903006        0.0230207699        5.6604886632
 Ca        11.8420685168        3.5274671362        2.2588916549
 Ca         7.3806850068        3.5181737160        5.6668518058
  S         7.4859307700        0.0068121618        5.7493743451
  S        11.7459863810        0.0208979809        2.1745206527
  S        10.6450476217        3.5274586269        5.7346491287
  S         8.5547690762        3.5282013836        2.1850702074
  O         6.5817849026        5.8572759979        5.7716528181
  O        12.6541311300        5.8647043902        2.1968880023
  O        12.6508958024        1.2249394540        2.1498662984
  O         6.5689297509        1.1970792987        5.7793806868
  O         9.7361391459        2.3249213106        5.7255617368
  O         9.4627595662        2.3271471512        2.1875516438
  O         9.4649395341        4.7263389919        2.2039011749
  O         9.7276333844        4.7216102529        5.7175527572
  O         8.4273159685       -0.0084266305        6.8864831592
  O        10.8051025141        0.0001125312        1.0361271159
  O         8.3414203708        0.0380252977        4.5065629639
  O        10.8885158975        0.0404568200        3.4156923354
  O        11.5654595073        3.5403988670        6.8876876071
  O         7.6213253590        3.5374393722        1.0403464440
  O        11.5271124654        3.5135610826        4.5074645677
  O         7.6902542783        3.5153419615        3.4201263021
 Ca         8.6555075699        7.0602769372        2.2614235891
 Ca        10.5733193622        7.0589459956        5.6614854087
 Ca        11.8487401351       10.6021454717        2.2587846308
 Ca         7.3771102536       10.5965225761        5.6624388362
  S         7.4830430809        7.0635092850        5.7457612018
  S        11.7491097220        7.0677922051        2.1871291069
  S        10.6734942125       10.5940948739        5.7321315394
  S         8.5564534872       10.5940716934        2.1879495068
  O         6.5788744226       12.9189210771        5.7215512770
  O        12.6582642123       12.9382025187        2.2044853627
  O        12.6569423990        8.2675798844        2.2049744761
  O         6.5718699689        8.2624963778        5.7188262124
  O         9.7640392423        9.3950496594        5.7149420476
  O         9.4642992695        9.3943466884        2.2050690502
  O         9.4610780042       11.7974847256        2.1967656744
  O         9.7706641989       11.7989820954        5.7217336657
  O         8.4244330240        7.0873716311        6.8842959310
  O        10.8155031792        7.0800916177        1.0411990334
  O         8.3424124442        7.0522253023        4.5048276510
  O        10.8817280971        7.0595019423        3.4207815486
  O        11.6063085992       10.5801885343        6.8788362187
  O         7.6226634305       10.5818874787        1.0422418572
  O        11.5418803812       10.5988970627        4.4987326056
  O         7.6880847633       10.6011482312        3.4216000413
      96
 i =       62, E =     -1777.7943629859
 Ca         2.2678573032        0.0181318871        2.2505539920
 Ca         4.1959900136       -0.0197219666        5.6626305186
 Ca         5.4607908209        3.5229644042        2.2586512697
 Ca         0.9944753333        3.5170244530        5.6616975666
  S         1.1011519448       -0.0042568662        5.7307913795
  S         5.3629837905        0.0159476165        2.1745315304
  S         4.2923620926        3.5164792414        5.7449636173
  S         2.1696087771        3.5274186738        2.1745390364
  O         0.1873014807        5.8462249025        5.7167713738
  O         6.2694211042        5.8634402069        2.1960219271
  O         6.2712569007        1.2165236298        2.1478044758
  O         0.1970599751        1.1997364447        5.7247122950
  O         3.3901250927        2.3101773648        5.7716600949
  O         3.0738734638        2.3225391202        2.1490709327
  O         3.0821165810        4.7234768897        2.2040312590
  O         3.3809816308        4.7138836940        5.7179982587
  O         2.0357137918       -0.0107719198        6.8746177386
  O         4.4230789122       -0.0049007462        1.0356376790
  O         1.9614478958       -0.0138060852        4.4918162085
  O         4.5059424444        0.0401009055        3.4160075803
  O         5.2356686848        3.5357943763        6.8813741427
  O         1.2292072785        3.5514880642        1.0364077404
  O         5.1519419021        3.5041724329        4.5026577352
  O         1.3122591113        3.5063700515        3.4167884857
 Ca         2.2714469628        7.0597786904        2.2578940394
 Ca         4.1893089493        7.0539424420        5.6623883929
 Ca         5.4631574838       10.6004105843        2.2601410890
 Ca         0.9977218693       10.5959490094        5.6618843084
  S         1.0973854964        7.0457854777        5.7322299157
  S         5.3647803675        7.0668952188        2.1867749438
  S         4.2671195472       10.5864543094        5.7355083130
  S         2.1732216174       10.5936185944        2.1866013346
  O         0.1826504493       12.9208702721        5.7221195436
  O         6.2737832591       12.9327315931        2.2030845653
  O         6.2727057457        8.2670371285        2.2053954760
  O         0.1939846115        8.2494665181        5.7230018986
  O         3.3469661540        9.3940830000        5.7177567561
  O         3.0810395812        9.3934889056        2.2044943544
  O         3.0800234289       11.7954576999        2.1948818432
  O         3.3669479550       11.7939856737        5.7255715672
  O         2.0309706315        7.0342810330        6.8782627863
  O         4.4308756315        7.0790714634        1.0411534416
  O         1.9650411177        7.0448187807        4.4984462187
  O         4.4983790275        7.0592789179        3.4209293733
  O         5.1876325015       10.5717228726        6.8885642530
  O         1.2393424921       10.5822456678        1.0407524694
  O         5.1464026351       10.5992209463        4.5070807920
  O         1.3065259257       10.6028703262        3.4194422635
 Ca         8.6516018833        0.0226807287        2.2591380838
 Ca        10.5790834459        0.0214101688        5.6607054856
 Ca        11.8423659907        3.5275151730        2.2587869007
 Ca         7.3819794110        3.5179488291        5.6657427966
  S         7.4862300267        0.0068985510        5.7492802778
  S        11.7459903535        0.0200885355        2.1747838291
  S        10.6506059074        3.5278480883        5.7355962073
  S         8.5551102296        3.5281622192        2.1847328124
  O         6.5811437527        5.8574314345        5.7744700110
  O        12.6534248868        5.8638635944        2.1967091887
  O        12.6507321706        1.2240296967        2.1497718750
  O         6.5692300643        1.1972168615        5.7788975655
  O         9.7450467211        2.3237188426        5.7263057518
  O         9.4630491123        2.3270881759        2.1874392760
  O         9.4653640124        4.7262249022        2.2038324835
  O         9.7328660074        4.7215135339        5.7177270680
  O         8.4276836530       -0.0076181183        6.8862869113
  O        10.8051657344       -0.0016525970        1.0365453436
  O         8.3416884841        0.0377021476        4.5063178416
  O        10.8890502172        0.0397106667        3.4164553434
  O        11.5714133706        3.5412354145        6.8883705305
  O         7.6215263884        3.5372644301        1.0400945525
  O        11.5301442904        3.5145395085        4.5068853102
  O         7.6908559217        3.5154006727        3.4198382144
 Ca         8.6552622092        7.0602970683        2.2614324024
 Ca        10.5735399286        7.0578938618        5.6617598708
 Ca        11.8488127539       10.6018962733        2.2586994004
 Ca         7.3783509015       10.5964581323        5.6623452218
  S         7.4829614427        7.0632741747        5.7464530407
  S        11.7486217562        7.0671774898        2.1871279835
  S        10.6750062768       10.5916918733        5.7321065546
  S         8.5566358513       10.5940815183        2.1877097413
  O         6.5794273752       12.9188078022        5.7220269527
  O        12.6583245743       12.9374045589        2.2050870472
  O        12.6567336854        8.2670148390        2.2055547222
  O         6.5715375621        8.2621240823        5.7183943511
  O         9.7672212991        9.3919693907        5.7148430543
  O         9.4646884173        9.3944962388        2.2051812819
  O         9.4614050584       11.7974592335        2.1967237242
  O         9.7685504704       11.7941056683        5.7258398533
  O         8.4240996623        7.0873464797        6.8851127741
  O        10.8150177405        7.0796116352        1.0412053643
  O         8.3415329578        7.0514033533        4.5049863300
  O        10.8814629410        7.0590635311        3.4208218034
  O        11.6099625675       10.5808888966        6.8774819567
  O         7.6227705996       10.5818405093        1.0421184723
  O        11.5426545470       10.6023419183        4.4989267999
  O         7.6885890053       10.6012578679        3.4214663281
      96
 i =       63, E =     -1777.7876816054
 Ca         2.2723501659        0.0113462988        2.2478634720
 Ca         4.2083765711        0.0100284239        5.6661975877
 Ca         5.4651316911        3.5193249044        2.2350146948
 Ca         1.0027921914        3.5162367320        5.6558647442
  S         1.1028953493        0.0016735682        5.7293054082
  S         5.3657623797        0.0171238874        2.1794484689
  S         4.3123883039        3.5173357766        5.6900037933
  S         2.1721317236        3.5277337613        2.1707326680
  O         0.1868446765        5.8514207169        5.7207922290
  O         6.2625496376        5.8586238822        2.1953314511
  O         6.2767032091        1.2143005267        2.1538437341
  O         0.2020054172        1.2070520026        5.7304193340
  O         3.3713862427        2.3347783942        5.7390751656
  O         3.0714632449        2.3174928832        2.1390510001
  O         3.0880762227        4.7208724732        2.2056194666
  O         3.3996928155        4.7064661235        5.7168336095
  O         2.0400507648       -0.0085495768        6.8714356158
  O         4.4235204760        0.0045811709        1.0406859625
  O         1.9618343626       -0.0099643129        4.4889520179
  O         4.5100964240        0.0377755011        3.4210507589
  O         5.3126264141        3.4917551579        6.7837667752
  O         1.2316251688        3.5624203249        1.0346117256
  O         5.1730568862        3.4953402483        4.4556942619
  O         1.3190268974        3.5096583873        3.4171844763
 Ca         2.2683573966        7.0569721973        2.2543716779
 Ca         4.1954154273        7.0597073658        5.6617477483
 Ca         5.4695912080       10.5992860367        2.2546475156
 Ca         1.0213597354       10.6032381977        5.6597521701
  S         1.0989964421        7.0499835334        5.7308014716
  S         5.3573517703        7.0640837605        2.1864045188
  S         4.3523585291       10.5924087810        5.7476222378
  S         2.1764413576       10.5942757187        2.1819353357
  O         0.1864623699       12.9263549666        5.7218268694
  O         6.2757501704       12.9330899365        2.2004270285
  O         6.2667352710        8.2656537916        2.2059938204
  O         0.2004222670        8.2572172361        5.7241173480
  O         3.4060886716        9.4177920234        5.7221824266
  O         3.0841704593        9.3939826045        2.2047820273
  O         3.0875336468       11.7933029201        2.1942877679
  O         3.5414927493       11.8527497297        5.7391454240
  O         2.0275812044        7.0425286614        6.8806316188
  O         4.4233461636        7.0782027134        1.0418851878
  O         1.9693223149        7.0348257497        4.4969428833
  O         4.4969752811        7.0618168770        3.4237953675
  O         5.2810425976       10.5539648375        6.8958518672
  O         1.2401929474       10.5842420736        1.0387287348
  O         5.1865486382       10.5838644680        4.4934623255
  O         1.3092426756       10.6063763893        3.4119475902
 Ca         8.6540087653        0.0209483230        2.2597148661
 Ca        10.5835758605       -0.0001989028        5.6626109000
 Ca        11.8453364375        3.5286096129        2.2576311361
 Ca         7.3986035739        3.5140928936        5.6512116695
  S         7.4907082736        0.0066867847        5.7456853030
  S        11.7472574708        0.0110094126        2.1773393730
  S        10.7316512886        3.5298609244        5.7495097345
  S         8.5596131127        3.5272174300        2.1800469997
  O         6.5766021288        5.8583187410        5.8073442732
  O        12.6454066848        5.8559680135        2.1958656747
  O        12.6503422202        1.2141594338        2.1497614458
  O         6.5728291766        1.1966865400        5.7686248576
  O         9.8803724742        2.2984294532        5.7396512778
  O         9.4671730648        2.3260974947        2.1860862138
  O         9.4703856680        4.7248004797        2.2030940906
  O         9.8117186322        4.7186384537        5.7202323369
  O         8.4329736289        0.0014488842        6.8815685762
  O        10.8080036102       -0.0220621873        1.0403846487
  O         8.3459526597        0.0312599883        4.5013062034
  O        10.8946263730        0.0348655946        3.4231698226
  O        11.6571555604        3.5532047426        6.8993014006
  O         7.6244827917        3.5344937931        1.0365179398
  O        11.5733138318        3.5267105601        4.4979284794
  O         7.6981345934        3.5152375149        3.4154828683
 Ca         8.6514428877        7.0607094505        2.2621977619
 Ca        10.5765891018        7.0465047949        5.6646475082
 Ca        11.8492987183       10.5989009911        2.2564490845
 Ca         7.3968811708       10.5958757620        5.6608594870
  S         7.4822062772        7.0613029964        5.7545359885
  S        11.7413078136        7.0608293999        2.1876138894
  S        10.6948362259       10.5642894473        5.7336327538
  S         8.5597799593       10.5944004685        2.1839833001
  O         6.5880533239       12.9153977518        5.7266301430
  O        12.6590361041       12.9276001991        2.2128050312
  O        12.6523050833        8.2616436027        2.2099318017
  O         6.5685591027        8.2588954723        5.7147552315
  O         9.8062818780        9.3577972312        5.7165047267
  O         9.4695095659        9.3958600637        2.2056461706
  O         9.4664910679       11.7972644571        2.1953885079
  O         9.7460008565       11.7360764735        5.7785475472
  O         8.4199413380        7.0879524846        6.8950249683
  O        10.8079858925        7.0751767678        1.0418618742
  O         8.3324172369        7.0437112912        4.5076021636
  O        10.8770959786        7.0536865688        3.4220342863
  O        11.6551713674       10.5851230203        6.8624957684
  O         7.6249061473       10.5819694824        1.0400269893
  O        11.5497939104       10.6410732442        4.5010205848
  O         7.6948470550       10.6027775467        3.4181147132
      96
 i =       64, E =     -1777.7945791890
 Ca         2.2678828309        0.0179267542        2.2504609321
 Ca         4.1980098380       -0.0151998965        5.6629811290
 Ca         5.4610102447        3.5228019560        2.2545171414
 Ca         0.9973887587        3.5168680752        5.6615641107
  S         1.1014758286       -0.0035915812        5.7307319711
  S         5.3629866515        0.0158379241        2.1744670450
  S         4.2954818347        3.5162297848        5.7393792309
  S         2.1700027253        3.5276290849        2.1740273362
  O         0.1879095495        5.8467174851        5.7168130523
  O         6.2694450911        5.8635569145        2.1963612933
  O         6.2713021195        1.2162444359        2.1476387961
  O         0.1973554792        1.2002320604        5.7252539714
  O         3.3878423737        2.3134153619        5.7664390884
  O         3.0738451136        2.3223457883        2.1478393284
  O         3.0826400549        4.7235885723        2.2038928739
  O         3.3853335964        4.7138086240        5.7176176683
  O         2.0361868698       -0.0102690814        6.8744304161
  O         4.4228241810       -0.0042602864        1.0357079032
  O         1.9616517979       -0.0129104452        4.4916619784
  O         4.5057688036        0.0402187813        3.4157049603
  O         5.2419269552        3.5293720840        6.8736845656
  O         1.2296750993        3.5520460735        1.0359987028
  O         5.1533178184        3.5027082003        4.4966324967
  O         1.3127201348        3.5065427275        3.4163581564
 Ca         2.2712150577        7.0595998194        2.2579746401
 Ca         4.1907369095        7.0549664286        5.6627046223
 Ca         5.4635576450       10.6003897527        2.2597439530
 Ca         1.0003846036       10.5965563455        5.6616495801
  S         1.0980544948        7.0462280219        5.7319359032
  S         5.3646432299        7.0670800705        2.1867373442
  S         4.2781701186       10.5877314783        5.7366790238
  S         2.1736156813       10.5937514809        2.1862610974
  O         0.1836713351       12.9210465856        5.7216363617
  O         6.2740639328       12.9327537722        2.2029625485
  O         6.2726164144        8.2673513917        2.2048282453
  O         0.1954946619        8.2505198643        5.7224776267
  O         3.3541711817        9.3980726609        5.7190544944
  O         3.0813764544        9.3935173222        2.2046284885
  O         3.0804013454       11.7956642940        2.1950470085
  O         3.3867756002       11.8003263339        5.7284730799
  O         2.0315567689        7.0350125555        6.8781245493
  O         4.4306527699        7.0794453536        1.0412850716
  O         1.9654858950        7.0443236394        4.4978741742
  O         4.4981470770        7.0597293227        3.4207371548
  O         5.2003523942       10.5691337641        6.8886668046
  O         1.2397253697       10.5825398248        1.0404860536
  O         5.1525979409       10.5964823105        4.5055798421
  O         1.3065928076       10.6030444694        3.4187215162
 Ca         8.6517317317        0.0223833148        2.2587253695
 Ca        10.5804228071        0.0176394830        5.6609003176
 Ca        11.8426982373        3.5275033138        2.2587304878
 Ca         7.3846436833        3.5179156604        5.6641778079
  S         7.4870136942        0.0065429884        5.7486687923
  S        11.7461037799        0.0193987524        2.1747356907
  S        10.6607123210        3.5274920037        5.7370492849
  S         8.5556541569        3.5280083577        2.1842298752
  O         6.5803655790        5.8590041713        5.7759971825
  O        12.6530863358        5.8636459445        2.1967310604
  O        12.6510509192        1.2231336737        2.1498828686
  O         6.5701604716        1.1968448733        5.7772750097
  O         9.7603418725        2.3209200621        5.7293086638
  O         9.4634695548        2.3268615697        2.1873636503
  O         9.4658557441        4.7261458248        2.2039328396
  O         9.7423043335        4.7204063873        5.7187400011
  O         8.4284753204       -0.0069377342        6.8856877696
  O        10.8059667469       -0.0025044870        1.0362112431
  O         8.3419596288        0.0364304881        4.5052860328
  O        10.8889861408        0.0398931860        3.4162993402
  O        11.5828551727        3.5426844262        6.8889167589
  O         7.6220768310        3.5370672442        1.0395756310
  O        11.5369389715        3.5162166090        4.5065106847
  O         7.6916430634        3.5147534145        3.4193708584
 Ca         8.6550270504        7.0604743600        2.2618018512
 Ca        10.5750971946        7.0565702397        5.6623125181
 Ca        11.8486747721       10.6018048406        2.2582935456
 Ca         7.3823251820       10.5963941468        5.6624296315
  S         7.4833306932        7.0638301059        5.7468645003
  S        11.7484153106        7.0671316658        2.1872794519
  S        10.6783921264       10.5896056875        5.7328286453
  S         8.5570607467       10.5940691040        2.1872933498
  O         6.5805764390       12.9181699459        5.7222973380
  O        12.6581429420       12.9365465380        2.2044487881
  O        12.6567397166        8.2670726647        2.2056200252
  O         6.5721376640        8.2627799948        5.7173514311
  O         9.7742246796        9.3881086343        5.7160194239
  O         9.4651416824        9.3944305430        2.2050681697
  O         9.4620368663       11.7973580060        2.1968430751
  O         9.7679035643       11.7887978232        5.7322492653
  O         8.4240219969        7.0873349381        6.8859309212
  O        10.8144891043        7.0794725566        1.0416440625
  O         8.3413683048        7.0507118863        4.5051741564
  O        10.8812076985        7.0589011904        3.4208543917
  O        11.6161376684       10.5817742697        6.8761662240
  O         7.6232869331       10.5818286484        1.0416867180
  O        11.5430416785       10.6058131425        4.4986200129
  O         7.6893473774       10.6015789470        3.4210778273
      96
 i =       65, E =     -1777.7938775549
 Ca         2.2682398835        0.0193087338        2.2511237635
 Ca         4.1947556222       -0.0238768457        5.6621830347
 Ca         5.4608193866        3.5235721034        2.2631779502
 Ca         0.9935571721        3.5170389088        5.6629550783
  S         1.1012465074       -0.0054162988        5.7307062332
  S         5.3617522078        0.0157620781        2.1740388692
  S         4.2895059665        3.5177430985        5.7560614412
  S         2.1688921349        3.5276773940        2.1750848676
  O         0.1892989036        5.8448804567        5.7174651643
  O         6.2719966940        5.8651602115        2.1970881594
  O         6.2699049263        1.2164196230        2.1478912556
  O         0.1970239406        1.1983136965        5.7241171307
  O         3.3932917108        2.3079428641        5.7819447657
  O         3.0735189913        2.3234087389        2.1490156437
  O         3.0809932157        4.7238752873        2.2040739459
  O         3.3767101156        4.7153056295        5.7192196658
  O         2.0356300321       -0.0112119281        6.8748175169
  O         4.4227127039       -0.0067603110        1.0343492875
  O         1.9620626964       -0.0144180263        4.4923983043
  O         4.5045955466        0.0406390432        3.4152741016
  O         5.2248484497        3.5533680522        6.8988682175
  O         1.2279799096        3.5502804831        1.0367499352
  O         5.1558123713        3.5004454198        4.5184071721
  O         1.3112950958        3.5063595191        3.4168229065
 Ca         2.2730695019        7.0601449156        2.2584206355
 Ca         4.1896042011        7.0543270630        5.6630404164
 Ca         5.4635151404       10.6005679686        2.2608514010
 Ca         0.9949201505       10.5948046326        5.6621793077
  S         1.0978666397        7.0450771578        5.7315424148
  S         5.3665332267        7.0673900786        2.1870787115
  S         4.2602084340       10.5830550514        5.7346345271
  S         2.1725531375       10.5933077990        2.1872781339
  O         0.1823583348       12.9199568373        5.7224329782
  O         6.2727137571       12.9329272635        2.2038247597
  O         6.2732645292        8.2675694153        2.2039486019
  O         0.1931315064        8.2476477838        5.7218901197
  O         3.3521564642        9.3830810240        5.7193250787
  O         3.0802908447        9.3934274030        2.2052824182
  O         3.0784846496       11.7954075821        2.1949053086
  O         3.3357573199       11.7743515064        5.7083166218
  O         2.0320483816        7.0321321363        6.8772930001
  O         4.4322525467        7.0790689601        1.0411924424
  O         1.9650147909        7.0462326301        4.4978860033
  O         4.4998393072        7.0589986781        3.4212819813
  O         5.1823461802       10.5783837673        6.8875150196
  O         1.2386953896       10.5815438220        1.0409408196
  O         5.1395974931       10.6028216388        4.5061095248
  O         1.3047344857       10.6023279649        3.4194778143
 Ca         8.6529839625        0.0230771731        2.2587592522
 Ca        10.5781236036        0.0240731317        5.6603969293
 Ca        11.8432337979        3.5273520407        2.2585190224
 Ca         7.3808377995        3.5173883567        5.6682065654
  S         7.4856755304        0.0057973641        5.7485889562
  S        11.7455662261        0.0216881674        2.1748289206
  S        10.6457450385        3.5271177547        5.7356775010
  S         8.5541061831        3.5286285649        2.1853070878
  O         6.5857031831        5.8541375485        5.7718882412
  O        12.6554776779        5.8655117256        2.1964675306
  O        12.6493898743        1.2263902683        2.1483249707
  O         6.5683640346        1.1955698845        5.7787622183
  O         9.7321054690        2.3276460510        5.7212838560
  O         9.4618978188        2.3277511377        2.1874190122
  O         9.4643276231        4.7264779814        2.2045125983
  O         9.7352905651        4.7254798981        5.7185020504
  O         8.4269540426       -0.0087941687        6.8860025683
  O        10.8043155333        0.0000532533        1.0363612516
  O         8.3415182463        0.0370048423        4.5062311062
  O        10.8883055659        0.0402808352        3.4160747402
  O        11.5680267018        3.5374487257        6.8880737487
  O         7.6204700871        3.5377079468        1.0403425579
  O        11.5215161540        3.5099401782        4.5043198217
  O         7.6905311702        3.5150066871        3.4210293597
 Ca         8.6567290054        7.0605547940        2.2619455153
 Ca        10.5741931436        7.0596096056        5.6617769260
 Ca        11.8494066933       10.6021673725        2.2590374676
 Ca         7.3763109302       10.5957160695        5.6632758578
  S         7.4838640704        7.0627808611        5.7458189605
  S        11.7504559665        7.0681786548        2.1873692535
  S        10.6714174069       10.5941100405        5.7327978024
  S         8.5558022536       10.5938139433        2.1882940672
  O         6.5795533565       12.9177533211        5.7203131433
  O        12.6570473712       12.9387150519        2.2009892253
  O        12.6577171002        8.2678658352        2.2046542505
  O         6.5715251961        8.2607969752        5.7180384957
  O         9.7591142663        9.3966644574        5.7165577683
  O         9.4638765397        9.3944854345        2.2058070622
  O         9.4604030028       11.7968615684        2.1977536426
  O         9.7713183214       11.8007891324        5.7176147087
  O         8.4267847260        7.0882348061        6.8831913855
  O        10.8160198750        7.0799498645        1.0416365141
  O         8.3430492578        7.0527643875        4.5048176862
  O        10.8831655756        7.0605834507        3.4212441846
  O        11.6026638622       10.5789297623        6.8809175848
  O         7.6220794946       10.5814589513        1.0420149535
  O        11.5425428452       10.5965573146        4.5009235191
  O         7.6884625467       10.6013325355        3.4225934643
      96
 i =       66, E =     -1777.7943521510
 Ca         2.2679174613        0.0188025458        2.2503368528
 Ca         4.1957636407       -0.0209732272        5.6623606952
 Ca         5.4608932284        3.5231252369        2.2599283452
 Ca         0.9963264771        3.5171879129        5.6619690670
  S         1.1013607349       -0.0045033840        5.7307351433
  S         5.3628627134        0.0157796599        2.1744621863
  S         4.2939067602        3.5171897686        5.7505036945
  S         2.1694669261        3.5276873116        2.1744596026
  O         0.1879291787        5.8456855878        5.7152599560
  O         6.2702105440        5.8640899963        2.1957964047
  O         6.2708558048        1.2165181489        2.1477804053
  O         0.1973379626        1.1993994992        5.7245970476
  O         3.3925942598        2.3105893758        5.7759745309
  O         3.0736621727        2.3229202320        2.1493862300
  O         3.0818788392        4.7236880832        2.2039513541
  O         3.3824303155        4.7145343397        5.7177552299
  O         2.0359290431       -0.0108869708        6.8746659103
  O         4.4228715327       -0.0052663717        1.0355351796
  O         1.9620613860       -0.0135499918        4.4921705520
  O         4.5051475570        0.0406954980        3.4153932162
  O         5.2333092849        3.5446298368        6.8903600615
  O         1.2291306005        3.5511976640        1.0360669381
  O         5.1536054734        3.5008799419        4.5088367885
  O         1.3118207133        3.5061989203        3.4162881092
 Ca         2.2720414754        7.0601516511        2.2580626337
 Ca         4.1904172069        7.0536148423        5.6629525182
 Ca         5.4630739536       10.6005063199        2.2600184811
 Ca         0.9983011003       10.5953130756        5.6616102803
  S         1.0978879333        7.0451370500        5.7318126547
  S         5.3657074637        7.0673976592        2.1867234089
  S         4.2700006726       10.5839009332        5.7338360173
  S         2.1730899702       10.5936449570        2.1868758357
  O         0.1831202276       12.9205090886        5.7217639740
  O         6.2737957312       12.9328055640        2.2035172859
  O         6.2733121913        8.2673956648        2.2048970904
  O         0.1950808958        8.2491430371        5.7232315558
  O         3.3624884877        9.3838934550        5.7180084587
  O         3.0806228902        9.3934883901        2.2047299815
  O         3.0792446970       11.7957239385        2.1947838543
  O         3.3534612310       11.7796466444        5.7168005578
  O         2.0324013603        7.0333507827        6.8772574879
  O         4.4320436457        7.0795685453        1.0407196995
  O         1.9647702573        7.0447750508        4.4977421924
  O         4.4981783715        7.0593841025        3.4200494889
  O         5.1915582822       10.5768436139        6.8869701007
  O         1.2393018616       10.5823054243        1.0407022584
  O         5.1482998064       10.5997055599        4.5053940331
  O         1.3062178265       10.6025442007        3.4196647312
 Ca         8.6520783496        0.0232160915        2.2583497150
 Ca        10.5796800936        0.0210567533        5.6605474794
 Ca        11.8425472919        3.5275708431        2.2584611246
 Ca         7.3829844494        3.5181365467        5.6663649729
  S         7.4864618585        0.0061732069        5.7485363420
  S        11.7459746073        0.0207080501        2.1745094601
  S        10.6558480526        3.5271401775        5.7361615772
  S         8.5549751859        3.5283519335        2.1847416022
  O         6.5829732118        5.8569731632        5.7732134331
  O        12.6541036587        5.8647822655        2.1964470826
  O        12.6508895518        1.2245704118        2.1497841314
  O         6.5694653361        1.1962214663        5.7774010309
  O         9.7459756687        2.3261154634        5.7266474493
  O         9.4627028375        2.3273340700        2.1871735698
  O         9.4649398271        4.7264361040        2.2040954544
  O         9.7460884158        4.7254764218        5.7187121066
  O         8.4278243713       -0.0076225719        6.8858584795
  O        10.8052851202       -0.0004149615        1.0359617487
  O         8.3416872486        0.0373710088        4.5055717813
  O        10.8880115241        0.0414996490        3.4152611465
  O        11.5786110985        3.5387273575        6.8880153794
  O         7.6212523573        3.5373491089        1.0400064293
  O        11.5310384445        3.5130724378        4.5050600296
  O         7.6910048305        3.5150435715        3.4200409342
 Ca         8.6558689742        7.0605338917        2.2616099104
 Ca        10.5749654712        7.0584329951        5.6619379997
 Ca        11.8489705786       10.6021168358        2.2587462156
 Ca         7.3802848646       10.5959841844        5.6621119247
  S         7.4837761382        7.0635361025        5.7462138352
  S        11.7494609354        7.0679562719        2.1871904896
  S        10.6759489643       10.5929264275        5.7332187536
  S         8.5566582111       10.5940829507        2.1877797209
  O         6.5798533834       12.9182016954        5.7218846183
  O        12.6578389458       12.9378606014        2.2042700401
  O        12.6574744641        8.2675430281        2.2050487248
  O         6.5724631365        8.2622722836        5.7191076392
  O         9.7682529175        9.3931592236        5.7158540090
  O         9.4643215717        9.3943279866        2.2049509435
  O         9.4612073306       11.7973640626        2.1972224192
  O         9.7712698561       11.7962454422        5.7268849723
  O         8.4258777942        7.0883258628        6.8841052125
  O        10.8156703543        7.0802988558        1.0412183743
  O         8.3421480082        7.0518853343        4.5047114579
  O        10.8818406681        7.0597481804        3.4205816528
  O        11.6111225021       10.5808758317        6.8785066963
  O         7.6228398091       10.5819449187        1.0419004255
  O        11.5417059776       10.6014655079        4.4986707720
  O         7.6885139671       10.6012039949        3.4213398724
      96
 i =       67, E =     -1777.7914851887
 Ca         2.2682378141        0.0159214651        2.2481993429
 Ca         4.2024500687        0.0001055514        5.6637480689
 Ca         5.4619406921        3.5223047978        2.2358169106
 Ca         1.0143929037        3.5172905846        5.6585046113
  S         1.1031444244       -0.0001028493        5.7302343969
  S         5.3664166164        0.0166199308        2.1758042880
  S         4.3141425672        3.5153026998        5.7071316016
  S         2.1732789915        3.5281707511        2.1718390004
  O         0.1870898964        5.8497654433        5.7160283954
  O         6.2647262454        5.8612459549        2.1945138310
  O         6.2755293589        1.2158539800        2.1484473402
  O         0.1993564808        1.2033319041        5.7277810821
  O         3.3809766295        2.3281236008        5.7370966737
  O         3.0748186012        2.3208640501        2.1468996994
  O         3.0863647688        4.7235507461        2.2036207312
  O         3.4132358152        4.7140397413        5.7081648870
  O         2.0397588246       -0.0090654143        6.8728952667
  O         4.4229725625        0.0014966316        1.0391329304
  O         1.9617322074       -0.0108329043        4.4895370414
  O         4.5083330757        0.0410854858        3.4164263940
  O         5.2851936907        3.4826033461        6.8245337694
  O         1.2344176414        3.5550518003        1.0336223881
  O         5.1407283829        3.5097450118        4.4457311451
  O         1.3167452377        3.5070787074        3.4148255554
 Ca         2.2677899384        7.0590646854        2.2566647436
 Ca         4.1970690941        7.0535255211        5.6630709898
 Ca         5.4650055023       10.6000149672        2.2546128935
 Ca         1.0122890006       10.5976460543        5.6595895662
  S         1.0998305229        7.0476578302        5.7315523103
  S         5.3618126915        7.0673728268        2.1861372715
  S         4.3399369693       10.5876724812        5.7363382806
  S         2.1755749723       10.5944797678        2.1849303488
  O         0.1880654462       12.9227738394        5.7193957743
  O         6.2764361323       12.9326533209        2.2002729612
  O         6.2732409202        8.2665868346        2.2076261640
  O         0.2032951238        8.2568274012        5.7217623713
  O         3.4317521319        9.3907615986        5.7138651524
  O         3.0826349202        9.3935981643        2.2031030668
  O         3.0831133749       11.7961857635        2.1966137219
  O         3.4682448803       11.8076761023        5.7639825411
  O         2.0324785543        7.0391628674        6.8782691233
  O         4.4284814126        7.0812629057        1.0410439047
  O         1.9677143704        7.0391248027        4.4971185560
  O         4.4963672865        7.0609794098        3.4196419563
  O         5.2622872705       10.5647181712        6.8886953072
  O         1.2415922219       10.5849016793        1.0398853567
  O         5.1983422239       10.5875268911        4.4991721708
  O         1.3107470824       10.6030525643        3.4186126664
 Ca         8.6511581549        0.0217004517        2.2575269878
 Ca        10.5862535034       -0.0015385682        5.6627632768
 Ca        11.8442685043        3.5263355409        2.2577388158
 Ca         7.3953142560        3.5218206599        5.6569303418
  S         7.4905944609        0.0096534395        5.7506230427
  S        11.7481068065        0.0128279062        2.1753185624
  S        10.7277288051        3.5265112179        5.7443006084
  S         8.5597342714        3.5273350996        2.1815482088
  O         6.5703658910        5.8703697650        5.7813772727
  O        12.6482677423        5.8603055560        2.1980787571
  O        12.6548867029        1.2137298890        2.1539856287
  O         6.5735079580        1.1994206557        5.7802881838
  O         9.8451792295        2.3138617228        5.7548133035
  O         9.4667808592        2.3255228476        2.1861103005
  O         9.4683964981        4.7262845463        2.2022047477
  O         9.8211840589        4.7239316993        5.7206710686
  O         8.4352492443       -0.0013150371        6.8850013560
  O        10.8091937003       -0.0074765554        1.0366747056
  O         8.3421537977        0.0389601199        4.5040963175
  O        10.8916131814        0.0357876092        3.4179608357
  O        11.6539952640        3.5463725650        6.8933790432
  O         7.6252926778        3.5363573631        1.0378422411
  O        11.5913433738        3.5254674659        4.5092180503
  O         7.6937713628        3.5142811245        3.4146990135
 Ca         8.6525332030        7.0612711021        2.2609558952
 Ca        10.5816942722        7.0501481950        5.6637394137
 Ca        11.8472977346       10.6002049516        2.2569627796
 Ca         7.4017243966       10.5980758553        5.6596879998
  S         7.4835611688        7.0669634707        5.7471558835
  S        11.7451733594        7.0656346004        2.1873308800
  S        10.6952203352       10.5766287571        5.7354510975
  S         8.5605893441       10.5951934114        2.1847737325
  O         6.5842054252       12.9205158460        5.7285312572
  O        12.6608243199       12.9306043571        2.2133322555
  O        12.6558421669        8.2658240656        2.2063524252
  O         6.5754200743        8.2676668223        5.7120291431
  O         9.8134013054        9.3641690086        5.7121847403
  O         9.4678175120        9.3945101198        2.2037286379
  O         9.4645856010       11.7996857500        2.1923675857
  O         9.7578639791       11.7562150879        5.7661646092
  O         8.4204894692        7.0858867020        6.8892274017
  O        10.8123440756        7.0783918505        1.0414154501
  O         8.3388516436        7.0449007113        4.5045168708
  O        10.8773220877        7.0572548614        3.4192681483
  O        11.6458028451       10.5856124242        6.8692770389
  O         7.6262522097       10.5828665176        1.0404890583
  O        11.5451954021       10.6294994163        4.4966935100
  O         7.6918537429       10.6024110913        3.4164973150
      96
 i =       68, E =     -1777.7945996550
 Ca         2.2676336610        0.0182925388        2.2499437154
 Ca         4.1980973009       -0.0127329250        5.6628063044
 Ca         5.4605332226        3.5238654494        2.2486681631
 Ca         1.0054501292        3.5173905682        5.6615148224
  S         1.1022279873       -0.0036495093        5.7305666511
  S         5.3629071268        0.0163208205        2.1743490960
  S         4.2970609347        3.5168584640        5.7313543620
  S         2.1708755769        3.5279824296        2.1732161322
  O         0.1886775495        5.8478302648        5.7168654530
  O         6.2697130016        5.8633831053        2.1962449666
  O         6.2714447904        1.2165815317        2.1463872320
  O         0.1980696061        1.1998040563        5.7254006378
  O         3.3870109365        2.3153366871        5.7575455481
  O         3.0740839871        2.3219952630        2.1478502614
  O         3.0838066731        4.7237579236        2.2033278586
  O         3.3880650403        4.7143694909        5.7194888350
  O         2.0373056464       -0.0107689437        6.8741651856
  O         4.4222861145       -0.0032409722        1.0358645776
  O         1.9622612514       -0.0133990158        4.4912661629
  O         4.5055928109        0.0411069698        3.4155367768
  O         5.2491333589        3.5224490216        6.8617557951
  O         1.2308495168        3.5533423840        1.0350359659
  O         5.1468685988        3.5059355653        4.4835252899
  O         1.3134455715        3.5066819515        3.4152417217
 Ca         2.2712904080        7.0592743116        2.2581563988
 Ca         4.1937403061        7.0542272888        5.6633838200
 Ca         5.4645640978       10.6002806924        2.2580917200
 Ca         1.0026974535       10.5958892990        5.6614675326
  S         1.0993593210        7.0467674032        5.7316205513
  S         5.3650343742        7.0672942188        2.1864356498
  S         4.2984987992       10.5851207597        5.7362779108
  S         2.1738867628       10.5937559007        2.1863899599
  O         0.1846732544       12.9206379184        5.7214922855
  O         6.2739268568       12.9331801996        2.2033882040
  O         6.2733078262        8.2675555880        2.2044529608
  O         0.1985310576        8.2526801667        5.7216072967
  O         3.3927319017        9.3850083134        5.7153549676
  O         3.0817874735        9.3935835414        2.2048949747
  O         3.0804697762       11.7958329332        2.1955764177
  O         3.3935586484       11.7867948888        5.7450620878
  O         2.0325134262        7.0347705390        6.8779997799
  O         4.4307053964        7.0796294997        1.0412800669
  O         1.9664818549        7.0440895407        4.4974024690
  O         4.4984497986        7.0597596887        3.4201101500
  O         5.2217486968       10.5716168099        6.8877507875
  O         1.2397717746       10.5828724326        1.0408223628
  O         5.1705489742       10.5998654506        4.5049341561
  O         1.3070394143       10.6028845974        3.4191854613
 Ca         8.6517010294        0.0224914078        2.2583679857
 Ca        10.5826050127        0.0109616899        5.6618018885
 Ca        11.8444626142        3.5266983654        2.2579827603
 Ca         7.3882595887        3.5193780406        5.6629422590
  S         7.4877736651        0.0073749366        5.7487114658
  S        11.7458633035        0.0179734256        2.1749963201
  S        10.6867911612        3.5271150149        5.7402372020
  S         8.5563509569        3.5282668962        2.1838518431
  O         6.5795938116        5.8604297349        5.7789219425
  O        12.6531683606        5.8632265923        2.1972937454
  O        12.6518410295        1.2204825055        2.1491057537
  O         6.5708039698        1.1979804260        5.7762651059
  O         9.7825714895        2.3245700046        5.7465588851
  O         9.4641276890        2.3270720366        2.1872661450
  O         9.4665192020        4.7263169604        2.2041132873
  O         9.7787433574        4.7252821599        5.7186231609
  O         8.4293166242       -0.0056378837        6.8856823886
  O        10.8057700014       -0.0045223055        1.0366339326
  O         8.3426225331        0.0368751787        4.5051417416
  O        10.8883628582        0.0400690599        3.4163641894
  O        11.6116072112        3.5417969644        6.8903815840
  O         7.6226696956        3.5373344850        1.0392705660
  O        11.5575165432        3.5150338355        4.5070491728
  O         7.6920073204        3.5146580829        3.4189228433
 Ca         8.6550151204        7.0609481351        2.2618456011
 Ca        10.5785827002        7.0551976567        5.6630096604
 Ca        11.8485075805       10.6012549796        2.2574166792
 Ca         7.3891266664       10.5961340329        5.6630554721
  S         7.4841819882        7.0642959355        5.7471363650
  S        11.7487112936        7.0669669959        2.1870172050
  S        10.6819750768       10.5858340556        5.7349534990
  S         8.5578766192       10.5941891443        2.1866756247
  O         6.5819481865       12.9186686260        5.7224101581
  O        12.6577993505       12.9351672566        2.2061349795
  O        12.6571360870        8.2672345307        2.2048968789
  O         6.5734970677        8.2632467204        5.7164784612
  O         9.7828370987        9.3817982107        5.7179209449
  O         9.4661943294        9.3944957756        2.2051339080
  O         9.4634080698       11.7971811984        2.1968850551
  O         9.7648729070       11.7801316771        5.7450432507
  O         8.4253698952        7.0873012699        6.8856823629
  O        10.8148132030        7.0793588612        1.0413621592
  O         8.3411692181        7.0485925297        4.5048773315
  O        10.8805528919        7.0595369811        3.4197140579
  O        11.6209773312       10.5792033409        6.8772077549
  O         7.6240934582       10.5819865127        1.0410859367
  O        11.5402413956       10.6095791896        4.4968931401
  O         7.6906364628       10.6022017364        3.4203425513
      96
 i =       69, E =     -1777.7868721412
 Ca         2.2658476596        0.0226384941        2.2541321502
 Ca         4.1856633458       -0.0530777798        5.6610893410
 Ca         5.4569580394        3.5252726370        2.2929013232
 Ca         0.9762776308        3.5169614334        5.6681593946
  S         1.0990309199       -0.0116401297        5.7315763563
  S         5.3562718547        0.0151810608        2.1725412438
  S         4.2620951322        3.5222027993        5.8120383579
  S         2.1650025501        3.5268934390        2.1777732451
  O         0.1906779730        5.8408345318        5.7174295615
  O         6.2803077515        5.8686183450        2.1994288686
  O         6.2631536584        1.2180495001        2.1474519515
  O         0.1939009948        1.1919267903        5.7191857164
  O         3.4064089789        2.2869984373        5.8368614578
  O         3.0729604592        2.3249108432        2.1505260992
  O         3.0770390906        4.7237614006        2.2039262651
  O         3.3343654097        4.7171999784        5.7307922612
  O         2.0304340390       -0.0142231686        6.8773560965
  O         4.4214219940       -0.0140992593        1.0304978601
  O         1.9631490075       -0.0193098375        4.4960246115
  O         4.5001669919        0.0393970291        3.4147933435
  O         5.1612052555        3.6348599283        6.9807352460
  O         1.2225405783        3.5466913955        1.0394043045
  O         5.1667921725        3.4898767125        4.5969448804
  O         1.3065456359        3.5053373596        3.4184517478
 Ca         2.2779543956        7.0608298639        2.2607163956
 Ca         4.1836122471        7.0524342856        5.6635772450
 Ca         5.4610026410       10.6007476010        2.2669547105
 Ca         0.9801343865       10.5913990509        5.6655942149
  S         1.0963705483        7.0424428884        5.7318074551
  S         5.3716385786        7.0671433561        2.1873876251
  S         4.1808378609       10.5762631842        5.7379303811
  S         2.1698684019       10.5920600579        2.1894685688
  O         0.1759212942       12.9160555407        5.7254630682
  O         6.2685663899       12.9334455464        2.2065582314
  O         6.2735022925        8.2688530989        2.1999695146
  O         0.1831027473        8.2387018040        5.7210904311
  O         3.2819113249        9.3677613737        5.7144811065
  O         3.0786332669        9.3931401207        2.2069336850
  O         3.0747319031       11.7945239501        2.1935718029
  O         3.1935586484       11.7321918089        5.6994139513
  O         2.0317058567        7.0261301618        6.8765246636
  O         4.4371064545        7.0768614558        1.0405192946
  O         1.9621558245        7.0532345732        4.4983961247
  O         4.5017908297        7.0563209008        3.4208846145
  O         5.1107787055       10.5953254112        6.8848964868
  O         1.2365223260       10.5782160172        1.0418928586
  O         5.0751103404       10.6281434547        4.5130836674
  O         1.2983360182       10.6013960073        3.4200929543
 Ca         8.6526488873        0.0240569314        2.2603663425
 Ca        10.5716830319        0.0487096750        5.6583627267
 Ca        11.8410785259        3.5285771282        2.2596992821
 Ca         7.3664216380        3.5108130906        5.6802438480
  S         7.4808110610        0.0001458291        5.7459010855
  S        11.7415205408        0.0304586848        2.1725711535
  S        10.5681172528        3.5300553706        5.7313909081
  S         8.5485199855        3.5299176911        2.1892731876
  O         6.6043060199        5.8325007875        5.7655968446
  O        12.6636481483        5.8708654151        2.1947439559
  O        12.6436702540        1.2385671770        2.1418872505
  O         6.5626632834        1.1901534751        5.7726174042
  O         9.6136294366        2.3499280572        5.7243066176
  O         9.4572859278        2.3297311671        2.1890055349
  O         9.4607036721        4.7266620046        2.2062580946
  O         9.6560152437        4.7305063454        5.7033522709
  O         8.4174670470       -0.0158182713        6.8870297733
  O        10.7989609686        0.0079046224        1.0342069255
  O         8.3416260571        0.0343808345        4.5079580141
  O        10.8841632126        0.0470821943        3.4128813638
  O        11.4957916604        3.5265264302        6.8800203214
  O         7.6156465247        3.5385237051        1.0434844554
  O        11.4513159023        3.4886912076        4.5002906360
  O         7.6875082003        3.5161564120        3.4283877070
 Ca         8.6604906594        7.0598490424        2.2633318332
 Ca        10.5675536233        7.0700253427        5.6599982423
 Ca        11.8491998749       10.6037772078        2.2625368756
 Ca         7.3524905012       10.5922914709        5.6682493971
  S         7.4851079086        7.0560187930        5.7461290495
  S        11.7560008079        7.0707331521        2.1866397049
  S        10.6449027849       10.6125943153        5.7356930025
  S         8.5517920423       10.5926081943        2.1915682859
  O         6.5743545508       12.9139671012        5.7108371315
  O        12.6519818445       12.9464472554        2.1876525188
  O        12.6602348576        8.2700874295        2.2025236947
  O         6.5672687085        8.2505649495        5.7274356742
  O         9.6974483724        9.4326349591        5.7266228630
  O         9.4609000027        9.3942802119        2.2068233326
  O         9.4569893244       11.7946499917        2.2028912722
  O         9.7849167856       11.8485787599        5.6858175725
  O         8.4345966326        7.0900847101        6.8776521875
  O        10.8205257362        7.0813478452        1.0409190400
  O         8.3464388842        7.0596560418        4.5047274774
  O        10.8894775676        7.0633226405        3.4227963958
  O        11.5603327691       10.5690952234        6.8945301486
  O         7.6187313697       10.5804774144        1.0435676347
  O        11.5380411097       10.5633884256        4.5104992578
  O         7.6856287860       10.6001897294        3.4283325780
      96
 i =       70, E =     -1777.7943608089
 Ca         2.2665008606        0.0181035114        2.2506834528
 Ca         4.1952808870       -0.0186595936        5.6629582499
 Ca         5.4589068452        3.5257856364        2.2637319118
 Ca         0.9976503377        3.5178399771        5.6640209407
  S         1.1006435936       -0.0059398798        5.7311339333
  S         5.3611376385        0.0161647066        2.1741428501
  S         4.2879976910        3.5212292004        5.7588135936
  S         2.1693093300        3.5273856501        2.1744753339
  O         0.1891604203        5.8463481596        5.7177848953
  O         6.2714066550        5.8642942525        2.1980307334
  O         6.2684894036        1.2175714061        2.1471659146
  O         0.1966456606        1.1976170068        5.7239495068
  O         3.3943328173        2.3104911036        5.7887058884
  O         3.0729858882        2.3216551580        2.1479689798
  O         3.0820953674        4.7233039749        2.2036475418
  O         3.3675423201        4.7138270173        5.7259599282
  O         2.0348167141       -0.0114949558        6.8752588478
  O         4.4224418290       -0.0050594685        1.0344246415
  O         1.9622964271       -0.0150722579        4.4929947156
  O         4.5041518299        0.0402620927        3.4155630665
  O         5.2244300624        3.5599273517        6.9001273356
  O         1.2295025082        3.5525327833        1.0356345217
  O         5.1546021039        3.4984013628        4.5211773093
  O         1.3121041657        3.5060085528        3.4166085988
 Ca         2.2726774644        7.0595080632        2.2587899141
 Ca         4.1904976556        7.0526049971        5.6646564508
 Ca         5.4632864231       10.6002855400        2.2604804589
 Ca         0.9922821809       10.5925130215        5.6637977170
  S         1.0982944943        7.0459764448        5.7318488282
  S         5.3660794275        7.0669647729        2.1870516144
  S         4.2648926940       10.5816393715        5.7409634737
  S         2.1723819018       10.5931589142        2.1873068755
  O         0.1819860645       12.9189838127        5.7227978900
  O         6.2723567630       12.9333007532        2.2027323420
  O         6.2730642863        8.2673063285        2.2046024750
  O         0.1946564077        8.2495186076        5.7200320369
  O         3.3616042791        9.3788947170        5.7162986768
  O         3.0805872968        9.3935522938        2.2058946671
  O         3.0781874899       11.7954735796        2.1945346180
  O         3.3395072080       11.7717916045        5.7515338277
  O         2.0312984864        7.0337570948        6.8782770070
  O         4.4325313537        7.0790988107        1.0407645222
  O         1.9653575817        7.0475409439        4.4981256310
  O         4.4991080162        7.0585830512        3.4209831511
  O         5.1955229520       10.5779049183        6.8870693273
  O         1.2386396084       10.5813652240        1.0411121576
  O         5.1352784403       10.6110972897        4.5056236449
  O         1.3033065070       10.6020268185        3.4190048881
 Ca         8.6512690972        0.0221634312        2.2589539781
 Ca        10.5794334949        0.0156258700        5.6619295992
 Ca        11.8433858944        3.5266719551        2.2582395955
 Ca         7.3820751579        3.5170953093        5.6691557980
  S         7.4849377512        0.0036342192        5.7474110113
  S        11.7441189966        0.0205589445        2.1737789330
  S        10.6539648473        3.5304028552        5.7401400311
  S         8.5537070400        3.5287828278        2.1857130178
  O         6.5873836148        5.8516509941        5.7765243028
  O        12.6538697329        5.8637362902        2.1969517073
  O        12.6491790603        1.2240945623        2.1443514766
  O         6.5678394671        1.1944014625        5.7725864199
  O         9.7331550020        2.3362594113        5.7582884900
  O         9.4613697599        2.3275549823        2.1877017860
  O         9.4647947668        4.7260622638        2.2048799194
  O         9.7464453063        4.7299567895        5.7118526828
  O         8.4242588719       -0.0078410313        6.8863369507
  O        10.8037036157       -0.0030229119        1.0355139330
  O         8.3424025911        0.0353139715        4.5057730651
  O        10.8874806570        0.0407932420        3.4156287230
  O        11.5841895226        3.5385604224        6.8865450701
  O         7.6206322411        3.5380380985        1.0404399219
  O        11.5221009730        3.5043260242        4.5029263627
  O         7.6902021077        3.5158938671        3.4221035481
 Ca         8.6563265850        7.0604432702        2.2622202029
 Ca        10.5746365015        7.0593418607        5.6622635405
 Ca        11.8480858063       10.6016270646        2.2593807817
 Ca         7.3767277408       10.5927404954        5.6657966430
  S         7.4850277673        7.0611643140        5.7483434039
  S        11.7500336389        7.0673758926        2.1871596375
  S        10.6682185528       10.5902732365        5.7379990089
  S         8.5557157933       10.5935228571        2.1885044786
  O         6.5802339766       12.9150907466        5.7173855098
  O        12.6560914889       12.9380149396        2.1996330044
  O        12.6580493854        8.2670064402        2.2046569515
  O         6.5704390115        8.2573553928        5.7207547583
  O         9.7511437228        9.3961698010        5.7249530732
  O         9.4644131180        9.3943554795        2.2056417536
  O         9.4613901596       11.7960450525        2.1982988908
  O         9.7667902570       11.7958599136        5.7390182325
  O         8.4271070765        7.0872789868        6.8857882487
  O        10.8162007556        7.0796771055        1.0410654169
  O         8.3412661163        7.0503456738        4.5045078447
  O        10.8830182150        7.0606394014        3.4212564669
  O        11.5968545609       10.5719337983        6.8871912355
  O         7.6224970134       10.5810683694        1.0419313956
  O        11.5373614935       10.5939498902        4.5037691578
  O         7.6888484302       10.6011284012        3.4231766732
      96
 i =       71, E =     -1777.7930030797
 Ca         2.2690761874        0.0194733548        2.2498238965
 Ca         4.1994246367       -0.0152897885        5.6652974350
 Ca         5.4616797057        3.5229777077        2.2436003156
 Ca         1.0121337571        3.5165010154        5.6611235430
  S         1.1037208095       -0.0032716976        5.7302060159
  S         5.3634390979        0.0170304480        2.1754087714
  S         4.3062780321        3.5140042895        5.7268017594
  S         2.1717189474        3.5283334333        2.1724791950
  O         0.1886488496        5.8490119625        5.7141261470
  O         6.2697625784        5.8629114851        2.1929022860
  O         6.2741137355        1.2158571970        2.1495521450
  O         0.1992565705        1.1996524734        5.7246346313
  O         3.3896216007        2.3159899610        5.7562225182
  O         3.0749183401        2.3222764350        2.1478074458
  O         3.0856194873        4.7236295129        2.2029419184
  O         3.4059068230        4.7160612137        5.7112118603
  O         2.0391529796       -0.0107775754        6.8734128939
  O         4.4214056964       -0.0020394970        1.0376040100
  O         1.9636572685       -0.0149201819        4.4905866212
  O         4.5059293090        0.0413227321        3.4164065560
  O         5.2676734975        3.5138410766        6.8511397432
  O         1.2308727233        3.5535912045        1.0349954108
  O         5.1438102082        3.5064853870        4.4720496411
  O         1.3136334540        3.5070923177        3.4137585886
 Ca         2.2719352508        7.0594705855        2.2581672502
 Ca         4.1984090218        7.0552865698        5.6625593266
 Ca         5.4657584006       10.6006229907        2.2590524771
 Ca         1.0117557906       10.5979574097        5.6629299276
  S         1.1008943397        7.0467772120        5.7303771504
  S         5.3653796549        7.0675540850        2.1864051521
  S         4.3216954036       10.5843977107        5.7481765472
  S         2.1738941290       10.5937335926        2.1860913524
  O         0.1856118868       12.9209870631        5.7212827298
  O         6.2738060144       12.9332770818        2.2038542548
  O         6.2742693085        8.2677879096        2.2037834709
  O         0.2004825263        8.2537271508        5.7217552365
  O         3.4231685509        9.3808236578        5.7161965134
  O         3.0816505853        9.3933984974        2.2024316765
  O         3.0809105260       11.7957117205        2.1946220484
  O         3.4092443129       11.7799207111        5.7961889545
  O         2.0338753942        7.0331214978        6.8767636149
  O         4.4308567795        7.0804463646        1.0415773119
  O         1.9682640394        7.0411631343        4.4961758337
  O         4.4976472132        7.0596831137        3.4187919732
  O         5.2580131342       10.5627785136        6.8901583064
  O         1.2398339333       10.5831100672        1.0406394653
  O         5.1790295015       10.6044411571        4.5065030237
  O         1.3108586496       10.6037386104        3.4219539311
 Ca         8.6523630308        0.0232459403        2.2582963132
 Ca        10.5829568692        0.0089629665        5.6634379748
 Ca        11.8458734189        3.5260198070        2.2589780308
 Ca         7.3948877311        3.5189061569        5.6620820214
  S         7.4901329848        0.0078217085        5.7500999904
  S        11.7473657084        0.0159017504        2.1753998086
  S        10.7116384293        3.5284345748        5.7543184020
  S         8.5575575532        3.5285048779        2.1823913024
  O         6.5764033626        5.8619892567        5.7785753267
  O        12.6549711863        5.8637351669        2.1981898920
  O        12.6521807816        1.2189126018        2.1492793939
  O         6.5722435294        1.1972271436        5.7803807010
  O         9.8033097455        2.3302288922        5.7930371395
  O         9.4649870043        2.3269243873        2.1836080119
  O         9.4672381049        4.7269014606        2.2021015607
  O         9.8121367447        4.7315560417        5.7231732487
  O         8.4341215732       -0.0071058836        6.8848224855
  O        10.8058935712       -0.0049490614        1.0379132240
  O         8.3443683780        0.0400740777        4.5057262287
  O        10.8897521808        0.0397723484        3.4166627717
  O        11.6513855161        3.5489610468        6.8936037434
  O         7.6225570206        3.5370159116        1.0389973648
  O        11.5703161082        3.5084324523        4.5131731863
  O         7.6937946727        3.5141472144        3.4178026019
 Ca         8.6556328327        7.0611607748        2.2627657245
 Ca        10.5828236605        7.0548952103        5.6627251533
 Ca        11.8487722113       10.6004537341        2.2583467626
 Ca         7.3969982047       10.5984860691        5.6627123406
  S         7.4833816530        7.0644684572        5.7457930559
  S        11.7491366458        7.0668947861        2.1874196904
  S        10.6912753178       10.5783352517        5.7419799385
  S         8.5592157926       10.5944572431        2.1855439950
  O         6.5826296607       12.9201766242        5.7281141950
  O        12.6593670074       12.9328706229        2.2153214856
  O        12.6584934707        8.2670686692        2.2056939279
  O         6.5763499420        8.2657643126        5.7162405484
  O         9.8040191406        9.3678879860        5.7084395114
  O         9.4673170538        9.3942807358        2.2036391601
  O         9.4635694711       11.7985949255        2.1936226323
  O         9.7600736614       11.7617122616        5.7645095947
  O         8.4259827362        7.0879838657        6.8830667659
  O        10.8150870990        7.0789681259        1.0419025499
  O         8.3441961972        7.0482824419        4.5067608463
  O        10.8804572796        7.0593020618        3.4194288282
  O        11.6410232789       10.5784143674        6.8763982267
  O         7.6246321956       10.5831015423        1.0408033944
  O        11.5401383736       10.6247561841        4.4984999036
  O         7.6906974537       10.6018328945        3.4176682937
      96
 i =       72, E =     -1777.7949078547
 Ca         2.2665789989        0.0189402534        2.2504880996
 Ca         4.1961741422       -0.0203237966        5.6648164829
 Ca         5.4596329641        3.5246179829        2.2556422163
 Ca         1.0040271262        3.5174458032        5.6629089886
  S         1.1014573489       -0.0051047286        5.7310920630
  S         5.3621434050        0.0164793070        2.1749185623
  S         4.2948998250        3.5183510486        5.7465671934
  S         2.1701950338        3.5276567775        2.1738685788
  O         0.1889827966        5.8471566533        5.7155537837
  O         6.2708505362        5.8643962973        2.1959288364
  O         6.2702317808        1.2173522416        2.1486554798
  O         0.1971478259        1.1979107784        5.7234054689
  O         3.3908504456        2.3133420653        5.7786842250
  O         3.0737622782        2.3219174106        2.1489194237
  O         3.0834206500        4.7233729697        2.2033003375
  O         3.3811684817        4.7140204008        5.7228703769
  O         2.0357166744       -0.0107528507        6.8750576945
  O         4.4221050419       -0.0035280673        1.0360327527
  O         1.9633594341       -0.0157221429        4.4929329543
  O         4.5044776338        0.0406463408        3.4160137346
  O         5.2391827981        3.5387081367        6.8829390280
  O         1.2301311065        3.5521952144        1.0354318930
  O         5.1453867903        3.5006168587        4.4982649259
  O         1.3126429834        3.5061720008        3.4156445028
 Ca         2.2719391057        7.0596567296        2.2583032373
 Ca         4.1931763973        7.0524123941        5.6636324884
 Ca         5.4635979592       10.6001911235        2.2604875280
 Ca         1.0009987817       10.5947992901        5.6638879276
  S         1.0992756921        7.0460428225        5.7311623850
  S         5.3654600564        7.0675347991        2.1865785362
  S         4.2873779907       10.5828538885        5.7467941214
  S         2.1732526017       10.5933870567        2.1866483307
  O         0.1836383295       12.9189741678        5.7218351815
  O         6.2731490402       12.9332439231        2.2025679919
  O         6.2733836163        8.2677010091        2.2051514040
  O         0.1969104267        8.2511209747        5.7208496903
  O         3.3879936369        9.3786863786        5.7190926647
  O         3.0813159591        9.3935163559        2.2054834541
  O         3.0792627964       11.7958295526        2.1948239555
  O         3.3660293342       11.7746622958        5.7750506408
  O         2.0322542205        7.0340693303        6.8775248741
  O         4.4315662436        7.0799279538        1.0408631224
  O         1.9663688327        7.0455378555        4.4971870365
  O         4.4985197245        7.0588765500        3.4200652921
  O         5.2230652832       10.5700302314        6.8889752924
  O         1.2390223598       10.5823430224        1.0411003648
  O         5.1501160690       10.6111992677        4.5071500599
  O         1.3057578850       10.6025901459        3.4195062826
 Ca         8.6508228672        0.0223525326        2.2582380385
 Ca        10.5805203956        0.0139154744        5.6631304695
 Ca        11.8439187000        3.5263747716        2.2596856301
 Ca         7.3863729016        3.5181309824        5.6672391976
  S         7.4866354235        0.0052265172        5.7491460199
  S        11.7452328440        0.0185224018        2.1747832414
  S        10.6787069446        3.5287532508        5.7496969165
  S         8.5553927163        3.5286175902        2.1841684954
  O         6.5835103247        5.8553887490        5.7747276653
  O        12.6539536108        5.8636499251        2.1968164030
  O        12.6504646819        1.2217026768        2.1482069644
  O         6.5691479268        1.1952636206        5.7778972638
  O         9.7621352040        2.3333473937        5.7772691553
  O         9.4629390052        2.3271697464        2.1849437261
  O         9.4658008958        4.7263950829        2.2042225608
  O         9.7755554764        4.7304044807        5.7216944447
  O         8.4280276007       -0.0082022565        6.8860682139
  O        10.8053381940       -0.0033344902        1.0360619095
  O         8.3420090865        0.0380805116        4.5056425546
  O        10.8876305928        0.0405302117        3.4160972787
  O        11.6159951820        3.5445849452        6.8907244187
  O         7.6211928019        3.5376483694        1.0400064285
  O        11.5410805120        3.5028973217        4.5095714494
  O         7.6917214834        3.5150187908        3.4203245043
 Ca         8.6560367717        7.0608025027        2.2620619364
 Ca        10.5777101912        7.0578544597        5.6622891532
 Ca        11.8475947640       10.6008373296        2.2597395387
 Ca         7.3865717554       10.5950605353        5.6641058314
  S         7.4847200873        7.0623034737        5.7466586058
  S        11.7493862779        7.0672054694        2.1870567037
  S        10.6768690148       10.5838809943        5.7397043377
  S         8.5570968467       10.5939599280        2.1873607384
  O         6.5813218941       12.9167289271        5.7216374400
  O        12.6570772276       12.9356926298        2.2064239354
  O        12.6576933131        8.2672472550        2.2042921335
  O         6.5727765256        8.2602281188        5.7185250185
  O         9.7732674704        9.3824294983        5.7186357435
  O         9.4653978223        9.3942594978        2.2045813963
  O         9.4622285785       11.7971673752        2.1967869801
  O         9.7612788565       11.7785544277        5.7517067402
  O         8.4255852955        7.0867146852        6.8850993522
  O        10.8155868455        7.0796847452        1.0411709297
  O         8.3419722235        7.0502284945        4.5041723135
  O        10.8818548642        7.0598721913        3.4204189815
  O        11.6131644155       10.5725852791        6.8832108076
  O         7.6233197664       10.5820593424        1.0415830656
  O        11.5371248891       10.6078120134        4.5007636538
  O         7.6895726662       10.6015537472        3.4210369371
      96
 i =       73, E =     -1777.7946487749
 Ca         2.2671266926        0.0204636874        2.2509068240
 Ca         4.1948526839       -0.0220518704        5.6627941934
 Ca         5.4586191630        3.5252936922        2.2609879560
 Ca         1.0011554639        3.5168218714        5.6632184549
  S         1.1012767577       -0.0061297686        5.7312743050
  S         5.3626171609        0.0171626226        2.1725404616
  S         4.2849772661        3.5154765677        5.7485184162
  S         2.1693124594        3.5281216420        2.1738923511
  O         0.1893531697        5.8469321080        5.7164644462
  O         6.2707491359        5.8652820031        2.1959729330
  O         6.2689216195        1.2197083725        2.1426550626
  O         0.1962393788        1.1961735796        5.7228360673
  O         3.3889690623        2.3054875441        5.7743920427
  O         3.0738544844        2.3230770204        2.1465582500
  O         3.0822362514        4.7239264343        2.2033634573
  O         3.3718138200        4.7126567854        5.7185569597
  O         2.0352727479       -0.0115663659        6.8753075901
  O         4.4222278901       -0.0054217267        1.0343386785
  O         1.9635514790       -0.0166323471        4.4931954627
  O         4.5055380712        0.0414122078        3.4142132937
  O         5.2244136272        3.5468735933        6.8871982020
  O         1.2292040507        3.5527918182        1.0355348309
  O         5.1529871802        3.4968653883        4.5126326428
  O         1.3122695001        3.5071327016        3.4159185377
 Ca         2.2722209295        7.0595617267        2.2582623679
 Ca         4.1907765412        7.0525766913        5.6633825432
 Ca         5.4634156876       10.6009459845        2.2621017933
 Ca         0.9976416190       10.5943115974        5.6643634864
  S         1.0986244776        7.0461518088        5.7316044944
  S         5.3652315557        7.0680181117        2.1871401162
  S         4.2795646395       10.5774010252        5.7480483194
  S         2.1725178710       10.5936630193        2.1871579573
  O         0.1835730173       12.9180777247        5.7235348678
  O         6.2745257752       12.9345384497        2.2060797003
  O         6.2723187351        8.2684132268        2.2041298100
  O         0.1965273542        8.2510617440        5.7223998292
  O         3.3701489468        9.3794089060        5.7175149348
  O         3.0803333294        9.3937957097        2.2044928328
  O         3.0785713024       11.7957994722        2.1940829151
  O         3.3609743416       11.7709374974        5.7669385290
  O         2.0320043942        7.0339362506        6.8776881495
  O         4.4315853330        7.0797934679        1.0412494096
  O         1.9661431970        7.0469565159        4.4979966110
  O         4.4992036070        7.0584323998        3.4213709676
  O         5.2167615207       10.5722109402        6.8892184687
  O         1.2391383435       10.5818886721        1.0408219337
  O         5.1420466326       10.6093620932        4.5079415647
  O         1.3061786921       10.6026151069        3.4210018021
 Ca         8.6514703713        0.0227281546        2.2574838097
 Ca        10.5811009546        0.0166245372        5.6618832706
 Ca        11.8433256880        3.5280784712        2.2605856303
 Ca         7.3833013246        3.5173429500        5.6679995563
  S         7.4861951539        0.0047577762        5.7462353644
  S        11.7456534040        0.0222815805        2.1733075282
  S        10.6659337444        3.5336470898        5.7466653585
  S         8.5542128683        3.5291203325        2.1845303046
  O         6.5836121789        5.8548512273        5.7749807978
  O        12.6543453363        5.8659489352        2.1967547301
  O        12.6522708624        1.2254551116        2.1472682431
  O         6.5716050155        1.1973665182        5.7688190776
  O         9.7499369688        2.3375773400        5.7703484844
  O         9.4625904241        2.3285170908        2.1844321612
  O         9.4646896215        4.7267248851        2.2043777923
  O         9.7561358994        4.7314790530        5.7101717220
  O         8.4256928243       -0.0085306252        6.8849607132
  O        10.8057875758       -0.0016391367        1.0347293453
  O         8.3443491134        0.0343192546        4.5049775187
  O        10.8879258461        0.0447824470        3.4142492085
  O        11.6051658740        3.5425167637        6.8865882667
  O         7.6206302079        3.5384430088        1.0400290471
  O        11.5230066348        3.5055540409        4.5025447351
  O         7.6904317426        3.5154961768        3.4207773172
 Ca         8.6556005595        7.0605948629        2.2616974967
 Ca        10.5767184044        7.0587051407        5.6625383670
 Ca        11.8489356632       10.6024017227        2.2606342472
 Ca         7.3822557454       10.5941048424        5.6649303574
  S         7.4844022826        7.0620729996        5.7468147098
  S        11.7490989393        7.0686555039        2.1871171502
  S        10.6760661974       10.5886153248        5.7414405767
  S         8.5562946968       10.5939508037        2.1878740423
  O         6.5793702016       12.9176292104        5.7190082687
  O        12.6571667547       12.9393671149        2.2002765067
  O        12.6569261389        8.2683527790        2.2050767178
  O         6.5716746196        8.2591627197        5.7183961175
  O         9.7637569949        9.3921464805        5.7182130343
  O         9.4648011533        9.3946755380        2.2062484015
  O         9.4618887905       11.7965893093        2.1975413946
  O         9.7747089140       11.7923049089        5.7575394863
  O         8.4256799596        7.0863105186        6.8849390138
  O        10.8158266390        7.0811039274        1.0408981484
  O         8.3421262794        7.0501383194        4.5043354724
  O        10.8813511396        7.0601964771        3.4202157365
  O        11.6138150239       10.5721599809        6.8834545967
  O         7.6229371853       10.5815481111        1.0416054515
  O        11.5392543582       10.5973100468        4.5040837451
  O         7.6893134219       10.6015756675        3.4222289152
      96
 i =       74, E =     -1777.7950321993
 Ca         2.2673662419        0.0199157267        2.2505545869
 Ca         4.1961502574       -0.0222896919        5.6641586536
 Ca         5.4591779502        3.5246897599        2.2565082259
 Ca         1.0041879021        3.5169068903        5.6621784041
  S         1.1016394531       -0.0059326934        5.7312379589
  S         5.3623539482        0.0172683513        2.1736759505
  S         4.2909211050        3.5147351754        5.7434519509
  S         2.1697624038        3.5281313790        2.1734931201
  O         0.1897300044        5.8474616779        5.7162728088
  O         6.2711106228        5.8650049594        2.1964564652
  O         6.2690490821        1.2193492002        2.1434711952
  O         0.1971300363        1.1966401222        5.7228933046
  O         3.3906316086        2.3074072183        5.7708462852
  O         3.0736960733        2.3225272949        2.1467541218
  O         3.0830001529        4.7237389551        2.2035598914
  O         3.3787701556        4.7118804371        5.7193036670
  O         2.0357567385       -0.0115517923        6.8751854149
  O         4.4219948991       -0.0046274987        1.0353520431
  O         1.9638677406       -0.0168960093        4.4931640337
  O         4.5054591140        0.0407060285        3.4154510550
  O         5.2335034751        3.5380806123        6.8802559955
  O         1.2295774777        3.5533513280        1.0353227076
  O         5.1508349457        3.4998989818        4.5021807890
  O         1.3130132674        3.5067219055        3.4157426616
 Ca         2.2718405868        7.0594534879        2.2580763795
 Ca         4.1925183705        7.0521406724        5.6633449990
 Ca         5.4636395919       10.6005935831        2.2619472228
 Ca         1.0015826472       10.5952448377        5.6643267587
  S         1.0994893738        7.0463132225        5.7313125147
  S         5.3653749052        7.0678088332        2.1868465163
  S         4.2921179675       10.5777568026        5.7505785135
  S         2.1731228102       10.5934357765        2.1867368994
  O         0.1839933226       12.9181749263        5.7229091530
  O         6.2739198704       12.9344390296        2.2036693354
  O         6.2728325483        8.2682049170        2.2050051602
  O         0.1974815709        8.2513996096        5.7209402681
  O         3.3834147109        9.3797650623        5.7200352558
  O         3.0809390543        9.3935402626        2.2052877421
  O         3.0792723877       11.7955538474        2.1943424473
  O         3.3769638445       11.7726772686        5.7752444137
  O         2.0322666429        7.0344751148        6.8778901422
  O         4.4315424677        7.0792040602        1.0411161846
  O         1.9668337450        7.0459159154        4.4974846154
  O         4.4987647750        7.0588272726        3.4205306567
  O         5.2316466259       10.5690538010        6.8900890057
  O         1.2392116331       10.5820448366        1.0409239130
  O         5.1509010352       10.6077769609        4.5085544501
  O         1.3060458797       10.6028187107        3.4198605125
 Ca         8.6513848225        0.0228535704        2.2575282320
 Ca        10.5816650296        0.0159137851        5.6629865661
 Ca        11.8436056719        3.5277063257        2.2602711574
 Ca         7.3856741667        3.5172264141        5.6668221422
  S         7.4872748056        0.0053548889        5.7478268062
  S        11.7454243031        0.0205572532        2.1742480409
  S        10.6782434687        3.5330306235        5.7493170112
  S         8.5550167143        3.5290924575        2.1837784005
  O         6.5838739296        5.8542710006        5.7763129220
  O        12.6543087606        5.8651055458        2.1967690542
  O        12.6516518796        1.2235867588        2.1485651044
  O         6.5719268921        1.1972538570        5.7741859693
  O         9.7648378328        2.3362674103        5.7775316487
  O         9.4630439087        2.3282267632        2.1832083571
  O         9.4651924629        4.7268831264        2.2041367480
  O         9.7698359262        4.7312366181        5.7166027422
  O         8.4276607461       -0.0078446625        6.8855538613
  O        10.8052677617       -0.0020962317        1.0359344226
  O         8.3435768059        0.0362400621        4.5049262309
  O        10.8876851361        0.0430292513        3.4153502377
  O        11.6197552219        3.5437930055        6.8873784181
  O         7.6208797042        3.5383765851        1.0397293005
  O        11.5337825224        3.5058047494        4.5048483884
  O         7.6917557059        3.5146608397        3.4202522513
 Ca         8.6556285972        7.0606520824        2.2619816705
 Ca        10.5780883211        7.0576785527        5.6623723169
 Ca        11.8483499312       10.6016895008        2.2605480763
 Ca         7.3864879011       10.5948324539        5.6647716391
  S         7.4844808855        7.0617733660        5.7470966111
  S        11.7492277858        7.0680760573        2.1871209628
  S        10.6787787320       10.5873203861        5.7427486021
  S         8.5569173921       10.5940291043        2.1873881129
  O         6.5805274346       12.9182372097        5.7204187608
  O        12.6571345338       12.9376583038        2.2029837162
  O        12.6571296839        8.2681149335        2.2046081758
  O         6.5723988518        8.2593106986        5.7180374117
  O         9.7721619866        9.3875254369        5.7165123513
  O         9.4651576529        9.3944815931        2.2054843154
  O         9.4620539246       11.7971247221        2.1968518546
  O         9.7707572074       11.7868084438        5.7694868976
  O         8.4256337756        7.0868399197        6.8852190673
  O        10.8154667263        7.0800050750        1.0412509681
  O         8.3418035570        7.0492892941        4.5044689054
  O        10.8821098768        7.0597592269        3.4206527022
  O        11.6208728103       10.5719542218        6.8816237718
  O         7.6232725766       10.5818091148        1.0414749402
  O        11.5375387834       10.6059807529        4.5028313458
  O         7.6900834150       10.6020099794        3.4215734191
      96
 i =       75, E =     -1777.7950929723
 Ca         2.2674159009        0.0201650504        2.2509367833
 Ca         4.1958525565       -0.0252438636        5.6640506892
 Ca         5.4596824932        3.5247612952        2.2576658078
 Ca         1.0034747784        3.5168288312        5.6617822638
  S         1.1016677983       -0.0063318526        5.7314485269
  S         5.3620990558        0.0170295985        2.1741764539
  S         4.2927736805        3.5144952311        5.7450835793
  S         2.1697474492        3.5281777590        2.1738570593
  O         0.1894693388        5.8470855512        5.7156059482
  O         6.2706417888        5.8650579922        2.1957693387
  O         6.2689604538        1.2190300685        2.1469640574
  O         0.1970126325        1.1961115685        5.7223905139
  O         3.3911988384        2.3078481891        5.7729311822
  O         3.0740516141        2.3231856393        2.1487307638
  O         3.0826516478        4.7240080127        2.2036230824
  O         3.3806174448        4.7118815557        5.7179886119
  O         2.0354335215       -0.0112968557        6.8756742840
  O         4.4219696145       -0.0049848015        1.0356886830
  O         1.9639738927       -0.0175890064        4.4934762179
  O         4.5051363908        0.0405664068        3.4159548328
  O         5.2348220411        3.5382977051        6.8825591339
  O         1.2296024424        3.5517803656        1.0354896906
  O         5.1506364935        3.5039944219        4.5022206478
  O         1.3122914560        3.5062493069        3.4154423744
 Ca         2.2714247571        7.0599609570        2.2580867268
 Ca         4.1922908308        7.0506950287        5.6631601225
 Ca         5.4632365914       10.6007102245        2.2622883672
 Ca         1.0004171784       10.5945866759        5.6642888906
  S         1.0990171773        7.0460459460        5.7312933835
  S         5.3649601149        7.0677917485        2.1866721019
  S         4.2905308534       10.5774363146        5.7487644304
  S         2.1728099999       10.5934056235        2.1869328233
  O         0.1838794931       12.9177316466        5.7224904836
  O         6.2737536892       12.9342013588        2.2030225168
  O         6.2722988484        8.2681874555        2.2041870227
  O         0.1965210912        8.2509030353        5.7212425509
  O         3.3862870274        9.3766379403        5.7172766623
  O         3.0806878960        9.3935626643        2.2046234950
  O         3.0789355984       11.7956096715        2.1948392842
  O         3.3732003636       11.7707658465        5.7757835364
  O         2.0318623258        7.0330737065        6.8778826305
  O         4.4315502190        7.0798521008        1.0406535800
  O         1.9664635862        7.0461016407        4.4974814356
  O         4.4981383643        7.0587407853        3.4201937852
  O         5.2304211333       10.5675748886        6.8879470059
  O         1.2387392844       10.5822315786        1.0412888971
  O         5.1497811107       10.6067811144        4.5073736130
  O         1.3061759992       10.6026065919        3.4206087362
 Ca         8.6516486745        0.0231641391        2.2579794301
 Ca        10.5807693322        0.0187079350        5.6637317099
 Ca        11.8430980299        3.5274116688        2.2598277681
 Ca         7.3845530235        3.5177680855        5.6676472550
  S         7.4868761790        0.0065653014        5.7497146067
  S        11.7453978742        0.0197556404        2.1751613239
  S        10.6763701317        3.5318547477        5.7479945946
  S         8.5550305280        3.5291754323        2.1832346154
  O         6.5835341618        5.8549190110        5.7736191270
  O        12.6540761154        5.8650002620        2.1964553129
  O        12.6505032047        1.2234583654        2.1495445100
  O         6.5692333292        1.1964074321        5.7804587894
  O         9.7611782531        2.3364345658        5.7762045760
  O         9.4629587103        2.3281954618        2.1811618268
  O         9.4651176046        4.7269877407        2.2039677045
  O         9.7700177616        4.7314814147        5.7206601707
  O         8.4286246200       -0.0088061146        6.8861796515
  O        10.8047995021       -0.0011353137        1.0367360812
  O         8.3423748622        0.0391778246        4.5061374739
  O        10.8887426394        0.0393745472        3.4172601926
  O        11.6180065844        3.5459750277        6.8856321954
  O         7.6203064795        3.5386068888        1.0396865527
  O        11.5368720375        3.5052635883        4.5075630911
  O         7.6921594437        3.5140795630        3.4200200659
 Ca         8.6553686327        7.0607159438        2.2620098475
 Ca        10.5770409950        7.0590462121        5.6614963733
 Ca        11.8479414651       10.6013688881        2.2610278527
 Ca         7.3862736035       10.5958184638        5.6637720272
  S         7.4841429924        7.0623437105        5.7462183904
  S        11.7490009022        7.0681031640        2.1871604278
  S        10.6771177458       10.5904217658        5.7429453066
  S         8.5567741122       10.5940215538        2.1872536161
  O         6.5805400752       12.9191181684        5.7212128680
  O        12.6571262994       12.9369059081        2.2045511682
  O        12.6571364723        8.2680231564        2.2050358699
  O         6.5730835878        8.2605393127        5.7177713001
  O         9.7694176365        9.3911710525        5.7155689857
  O         9.4647721201        9.3942992129        2.2046340566
  O         9.4616544887       11.7972916911        2.1964462008
  O         9.7720979009       11.7925886730        5.7633858030
  O         8.4255527228        7.0869511521        6.8843154551
  O        10.8152312302        7.0798668525        1.0413313565
  O         8.3430724675        7.0502170084        4.5048505384
  O        10.8816726235        7.0606742358        3.4205452523
  O        11.6170151583       10.5709050170        6.8829413312
  O         7.6227895049       10.5819694425        1.0416814581
  O        11.5370259239       10.6082727771        4.5034723330
  O         7.6891555131       10.6020724738        3.4208233151
      96
 i =       76, E =     -1777.7951495820
 Ca         2.2674901566        0.0205112346        2.2512271123
 Ca         4.1957588786       -0.0269510105        5.6641688158
 Ca         5.4596694940        3.5246267852        2.2578235515
 Ca         1.0030153764        3.5168630934        5.6617159694
  S         1.1016468277       -0.0066796238        5.7316582392
  S         5.3620860757        0.0171220537        2.1744862076
  S         4.2927695063        3.5145239945        5.7455435801
  S         2.1696770434        3.5282959368        2.1739193880
  O         0.1894681821        5.8468044628        5.7154583454
  O         6.2704716293        5.8647981457        2.1952177719
  O         6.2685837825        1.2194766620        2.1484906673
  O         0.1969449607        1.1957028588        5.7219826853
  O         3.3912776650        2.3078390164        5.7719583938
  O         3.0742096436        2.3235651406        2.1495570780
  O         3.0823097635        4.7243012550        2.2034307665
  O         3.3806474403        4.7121081011        5.7189775050
  O         2.0354377568       -0.0115878135        6.8758479292
  O         4.4223874065       -0.0046930828        1.0356689204
  O         1.9642973977       -0.0182401702        4.4939149004
  O         4.5046680125        0.0402825266        3.4159022669
  O         5.2340282599        3.5377339513        6.8834608280
  O         1.2294132709        3.5513044062        1.0356112593
  O         5.1519096774        3.5047999012        4.5035290487
  O         1.3122294041        3.5063844390        3.4154322531
 Ca         2.2715846662        7.0600786051        2.2581677120
 Ca         4.1922773482        7.0499834504        5.6629323037
 Ca         5.4631878758       10.6005685629        2.2618057763
 Ca         1.0001086360       10.5944310642        5.6641804365
  S         1.0988601697        7.0457890184        5.7313148858
  S         5.3651588683        7.0677776472        2.1865892601
  S         4.2920410916       10.5765902656        5.7485864178
  S         2.1728594601       10.5932982487        2.1868551588
  O         0.1840047678       12.9173182440        5.7225825043
  O         6.2738656691       12.9343561290        2.2032334243
  O         6.2726592585        8.2680584127        2.2051141299
  O         0.1961693604        8.2505561237        5.7209453261
  O         3.3869457649        9.3764984870        5.7196059428
  O         3.0807340235        9.3934496165        2.2048863816
  O         3.0786794530       11.7957169796        2.1950917695
  O         3.3752092880       11.7698345871        5.7772365725
  O         2.0320241433        7.0334119481        6.8777041543
  O         4.4313723058        7.0800126244        1.0408152054
  O         1.9666128245        7.0461468468        4.4977272781
  O         4.4985183708        7.0586889221        3.4202402272
  O         5.2333603171       10.5661846323        6.8866234337
  O         1.2386078599       10.5822082631        1.0413818804
  O         5.1499422475       10.6066634882        4.5065385751
  O         1.3060915739       10.6023564735        3.4205017350
 Ca         8.6517221534        0.0233829116        2.2581587275
 Ca        10.5806744937        0.0216535308        5.6639277146
 Ca        11.8429736913        3.5274814328        2.2592652874
 Ca         7.3841569219        3.5180964352        5.6678144771
  S         7.4864725345        0.0070291018        5.7495492204
  S        11.7454309016        0.0198561466        2.1751726595
  S        10.6764646938        3.5331105473        5.7473118966
  S         8.5550356605        3.5294355105        2.1821190378
  O         6.5835455375        5.8555197712        5.7730669860
  O        12.6541235473        5.8650713597        2.1966074947
  O        12.6506110573        1.2235405216        2.1502985675
  O         6.5690649241        1.1970459301        5.7800483676
  O         9.7615731078        2.3378034785        5.7766188146
  O         9.4632490519        2.3287041809        2.1745969637
  O         9.4650357048        4.7272879720        2.2039657312
  O         9.7693930553        4.7323030379        5.7176011060
  O         8.4279108663       -0.0083229311        6.8862254006
  O        10.8048883954       -0.0002147774        1.0366535746
  O         8.3424403527        0.0392570063        4.5062943855
  O        10.8879921071        0.0398475962        3.4166155347
  O        11.6190395140        3.5469701587        6.8842836431
  O         7.6194570020        3.5393283594        1.0393567326
  O        11.5351794811        3.5059109140        4.5059371729
  O         7.6929047668        3.5133446125        3.4194941109
 Ca         8.6552315217        7.0608492555        2.2618269134
 Ca        10.5766496116        7.0602156668        5.6617620594
 Ca        11.8476740902       10.6015024093        2.2613353731
 Ca         7.3868804930       10.5960648416        5.6635723865
  S         7.4843072814        7.0628508527        5.7459509367
  S        11.7490596013        7.0681943109        2.1870262003
  S        10.6764750992       10.5933178886        5.7434464690
  S         8.5567582272       10.5939189733        2.1871642442
  O         6.5802255437       12.9195569647        5.7208568595
  O        12.6569321557       12.9368161422        2.2036717958
  O        12.6570802726        8.2681604638        2.2046426935
  O         6.5735223426        8.2610907625        5.7179809757
  O         9.7671436273        9.3948751641        5.7156623493
  O         9.4648069252        9.3942292258        2.2048110113
  O         9.4615847187       11.7971885020        2.1968689782
  O         9.7733732456       11.7973843445        5.7663114751
  O         8.4256344170        7.0870785830        6.8841436074
  O        10.8152555936        7.0802403519        1.0412337251
  O         8.3432138054        7.0508557468        4.5045374010
  O        10.8816825465        7.0605858434        3.4203893951
  O        11.6171153067       10.5708855951        6.8827563452
  O         7.6227504137       10.5819211345        1.0416368373
  O        11.5360169463       10.6092567142        4.5033958104
  O         7.6895873370       10.6022164878        3.4210478654
      96
 i =       77, E =     -1777.7860196086
 Ca         2.2706325106        0.0301538268        2.2587305532
 Ca         4.1933931889       -0.0713505328        5.6672331690
 Ca         5.4595454283        3.5213335205        2.2620591288
 Ca         0.9921277894        3.5177963203        5.6595375468
  S         1.1016460931       -0.0162835920        5.7369611946
  S         5.3622340230        0.0201859423        2.1826136005
  S         4.2933415781        3.5152885415        5.7579465920
  S         2.1676559748        3.5321120403        2.1756512563
  O         0.1893678151        5.8396772649        5.7114044914
  O         6.2662043457        5.8588696514        2.1820678584
  O         6.2587421990        1.2319848428        2.1882309946
  O         0.1955360705        1.1843785708        5.7114316768
  O         3.3935870096        2.3079910162        5.7464055648
  O         3.0782976918        2.3345943518        2.1720563758
  O         3.0732094382        4.7325559627        2.1991547966
  O         3.3823359713        4.7181209526        5.7421513365
  O         2.0360991562       -0.0192269414        6.8802043354
  O         4.4328151850        0.0024080754        1.0357691792
  O         1.9729950526       -0.0357864081        4.5049864348
  O         4.4931388704        0.0335289391        3.4146475335
  O         5.2135545099        3.5238133672        6.9078615873
  O         1.2244835392        3.5383118730        1.0386414784
  O         5.1842219065        3.5258709753        4.5368688569
  O         1.3108372077        3.5099326279        3.4152517239
 Ca         2.2752249564        7.0630747910        2.2603922295
 Ca         4.1915361372        7.0314442867        5.6573892067
 Ca         5.4621646456       10.5972452859        2.2492148131
 Ca         0.9918449709       10.5900566163        5.6612006248
  S         1.0943206114        7.0394291029        5.7316800513
  S         5.3698135742        7.0676182538        2.1843530899
  S         4.3319658583       10.5532018944        5.7434624429
  S         2.1738112078       10.5901288629        2.1848380581
  O         0.1877393794       12.9061699127        5.7252369209
  O         6.2771676740       12.9391674497        2.2088906799
  O         6.2808111552        8.2652549468        2.2273396806
  O         0.1868396379        8.2420467918        5.7140850290
  O         3.4060817128        9.3706931778        5.7759040467
  O         3.0816086464        9.3902618427        2.2111080754
  O         3.0716340150       11.7980258536        2.2029596561
  O         3.4280479442       11.7439226911        5.8152319397
  O         2.0354084461        7.0421038748        6.8731476975
  O         4.4267508279        7.0841141040        1.0445870877
  O         1.9703656403        7.0478666805        4.5040906157
  O         4.5078429798        7.0574047318        3.4212172358
  O         5.3121638669       10.5288847925        6.8504985584
  O         1.2352264352       10.5816229607        1.0434993527
  O         5.1543548785       10.6036556123        4.4845060829
  O         1.3045917799       10.5959731432        3.4183137495
 Ca         8.6552205325        0.0292745960        2.2621198628
 Ca        10.5778189318        0.1005752119        5.6691394684
 Ca        11.8397279412        3.5294675378        2.2436019169
 Ca         7.3736843512        3.5268011268        5.6717308050
  S         7.4763925805        0.0197294835        5.7450997896
  S        11.7469535215        0.0230925389        2.1757047834
  S        10.6800252323        3.5658681950        5.7296707239
  S         8.5548401000        3.5368354079        2.1481189987
  O         6.5837780602        5.8710654224        5.7578614313
  O        12.6547007401        5.8670833639        2.1999093039
  O        12.6536132209        1.2266331610        2.1696563150
  O         6.5647845747        1.2138247514        5.7693337108
  O         9.7718331779        2.3747065688        5.7875321400
  O         9.4702380990        2.3425923010        1.9745969637
  O         9.4626455433        4.7355620481        2.2041876147
  O         9.7543645012        4.7534837249        5.6451083196
  O         8.4101774247        0.0049145883        6.8869426569
  O        10.8074001078        0.0237778434        1.0347473592
  O         8.3437208580        0.0419348735        4.5095831311
  O        10.8701056731        0.0512734423        3.4008425667
  O        11.6467444011        3.5731697416        6.8493866388
  O         7.5933704802        3.5614736569        1.0289938471
  O        11.4937143868        3.5221503121        4.4650250531
  O         7.7159590034        3.4903796802        3.4039930019
 Ca         8.6515709793        7.0641475743        2.2570955449
 Ca        10.5661094518        7.0914352118        5.6682145032
 Ca        11.8409478209       10.6054014708        2.2690236256
 Ca         7.4031455833       10.6024581764        5.6581088757
  S         7.4881003422        7.0761412123        5.7385976595
  S        11.7501384905        7.0708113874        2.1837064817
  S        10.6612753320       10.6699602514        5.7572127399
  S         8.5562992388       10.5909229398        2.1845155201
  O         6.5725366737       12.9314489288        5.7116664395
  O        12.6525712536       12.9353350102        2.1823040639
  O        12.6554029416        8.2717281706        2.1964039094
  O         6.5845591847        8.2754412027        5.7219214692
  O         9.7088346498        9.4929115715        5.7178602225
  O         9.4654399312        9.3920756041        2.2091814344
  O         9.4592987221       11.7943017556        2.2081535560
  O         9.8099970509       11.9249211432        5.8422993423
  O         8.4273376444        7.0902794048        6.8794137315
  O        10.8155348069        7.0898447748        1.0388092676
  O         8.3480407438        7.0673944662        4.4972699799
  O        10.8822813476        7.0584661441        3.4169754871
  O        11.6204340887       10.5707458466        6.8790805269
  O         7.6216512326       10.5807434648        1.0401778513
  O        11.5116767576       10.6347347768        4.5023552065
  O         7.7003183033       10.6061206274        3.4259251577
      96
 i =       78, E =     -1777.7948260227
 Ca         2.2675246481        0.0213459250        2.2519544379
 Ca         4.1964135089       -0.0307860745        5.6648195736
 Ca         5.4596739824        3.5240683402        2.2585392114
 Ca         1.0040475345        3.5170157404        5.6608532358
  S         1.1018335693       -0.0084831821        5.7323617320
  S         5.3620102014        0.0173668375        2.1761147897
  S         4.2929569343        3.5151978758        5.7494238214
  S         2.1695055812        3.5288837444        2.1743361040
  O         0.1899745331        5.8467538007        5.7157875097
  O         6.2711241439        5.8650072254        2.1940136332
  O         6.2674985473        1.2205856062        2.1559490979
  O         0.1969065476        1.1936331450        5.7214548472
  O         3.3936585958        2.3075589213        5.7695880293
  O         3.0746336448        2.3248587791        2.1501992648
  O         3.0811669932        4.7254789001        2.2035496308
  O         3.3786670627        4.7120527323        5.7261176496
  O         2.0354103859       -0.0122641555        6.8766484735
  O         4.4240986247       -0.0032862032        1.0357941837
  O         1.9648984884       -0.0206658287        4.4948309682
  O         4.5029824774        0.0390703484        3.4161776477
  O         5.2308350479        3.5374274430        6.8891645149
  O         1.2295985443        3.5504902638        1.0357748425
  O         5.1570835509        3.5070383730        4.5104759810
  O         1.3122322769        3.5069658791        3.4156745088
 Ca         2.2719175287        7.0599283401        2.2584274329
 Ca         4.1924361102        7.0482103625        5.6632514974
 Ca         5.4635948478       10.6002512749        2.2600110048
 Ca         0.9997713341       10.5937578235        5.6643579004
  S         1.0986360696        7.0458155982        5.7314019721
  S         5.3659322307        7.0678240957        2.1867135017
  S         4.2995281768       10.5730497321        5.7505263564
  S         2.1727959245       10.5932657932        2.1868606809
  O         0.1852400263       12.9150892290        5.7235634320
  O         6.2741696378       12.9349089357        2.2042000855
  O         6.2735157340        8.2679227549        2.2070497080
  O         0.1952758441        8.2502201803        5.7204393092
  O         3.3893868085        9.3769046431        5.7305283564
  O         3.0806012415        9.3934573942        2.2050007241
  O         3.0778933321       11.7961196987        2.1952419958
  O         3.3860055802       11.7668682391        5.7837131434
  O         2.0315682779        7.0343722239        6.8781163089
  O         4.4316170196        7.0807984873        1.0412267772
  O         1.9664948221        7.0473188836        4.4978351637
  O         4.4992894855        7.0580776797        3.4203709517
  O         5.2478165302       10.5612652062        6.8831584684
  O         1.2389002394       10.5816823171        1.0413181381
  O         5.1509573896       10.6051447593        4.5053289041
  O         1.3063399383       10.6018974541        3.4210289184
 Ca         8.6524128798        0.0243221564        2.2574287918
 Ca        10.5806741542        0.0340287168        5.6642637041
 Ca        11.8424906166        3.5281851220        2.2546461979
 Ca         7.3843012617        3.5189745956        5.6671525404
  S         7.4854522492        0.0088994478        5.7489736593
  S        11.7457453480        0.0205338255        2.1740812062
  S        10.6764679075        3.5391854742        5.7426215220
  S         8.5545622355        3.5307594421        2.1739397930
  O         6.5842626829        5.8562639175        5.7731028009
  O        12.6544609145        5.8654944586        2.1963219596
  O        12.6519742252        1.2237956573        2.1504708686
  O         6.5697709210        1.2002626149        5.7777145992
  O         9.7634181937        2.3439021463        5.7798656420
  O         9.4644565228        2.3318986815        2.1418004583
  O         9.4642516874        4.7286460546        2.2027406931
  O         9.7677629820        4.7372446366        5.7036046365
  O         8.4250364619       -0.0049217342        6.8869385766
  O        10.8062852427        0.0009271843        1.0346979560
  O         8.3423737342        0.0393211552        4.5061441119
  O        10.8859099310        0.0423745763        3.4136216093
  O        11.6208062095        3.5519079493        6.8785782092
  O         7.6129343648        3.5452707619        1.0364441728
  O        11.5273543123        3.5074267730        4.4970330001
  O         7.6984562834        3.5071146284        3.4160050513
 Ca         8.6555656723        7.0606669020        2.2614214725
 Ca        10.5755187715        7.0668352744        5.6619444119
 Ca        11.8470877591       10.6023541944        2.2616131741
 Ca         7.3899656458       10.5966913859        5.6635751265
  S         7.4848103424        7.0639525122        5.7458029883
  S        11.7495051493        7.0685668473        2.1868610640
  S        10.6759209239       10.6044461312        5.7470479778
  S         8.5572129181       10.5939185270        2.1867222628
  O         6.5795888903       12.9213800680        5.7198514263
  O        12.6566774293       12.9369146738        2.2009890096
  O        12.6571625145        8.2685896016        2.2055384853
  O         6.5743396157        8.2617263589        5.7178166815
  O         9.7552813376        9.4124517262        5.7173103385
  O         9.4648778332        9.3940828198        2.2049256672
  O         9.4615171150       11.7974111695        2.1968094577
  O         9.7817149428       11.8165541740        5.7811537961
  O         8.4266973631        7.0871685503        6.8837986711
  O        10.8156927838        7.0811756230        1.0410751926
  O         8.3435641503        7.0527256258        4.5041277287
  O        10.8824192791        7.0601634304        3.4204528113
  O        11.6202775611       10.5711695811        6.8831182714
  O         7.6232078457       10.5817494675        1.0413397190
  O        11.5323788011       10.6138575074        4.5035321334
  O         7.6900226959       10.6028677669        3.4203783011
      96
 i =       79, E =     -1777.7933145708
 Ca         2.2652764776        0.0186779274        2.2499361317
 Ca         4.1939450436       -0.0140799254        5.6616888981
 Ca         5.4594988944        3.5261405906        2.2564732926
 Ca         1.0036788730        3.5168137146        5.6649633942
  S         1.1013239987       -0.0027676474        5.7303689398
  S         5.3626768351        0.0186186823        2.1695836293
  S         4.2870416388        3.5126316685        5.7377527200
  S         2.1705566382        3.5262354958        2.1733174904
  O         0.1886822195        5.8481497051        5.7139359553
  O         6.2718844951        5.8655363168        2.2010119176
  O         6.2728723787        1.2183334226        2.1263774667
  O         0.1966165188        1.2000644616        5.7224963233
  O         3.3831866443        2.3064298206        5.7762020549
  O         3.0733848970        2.3193538275        2.1469308378
  O         3.0855248555        4.7209290045        2.2032177396
  O         3.3817446689        4.7127178963        5.6947786898
  O         2.0361464490       -0.0102250117        6.8740447732
  O         4.4180732635       -0.0070187268        1.0344886388
  O         1.9637390804       -0.0107445744        4.4926660311
  O         4.5089369991        0.0454297191        3.4140340690
  O         5.2340978125        3.5424553821        6.8722050905
  O         1.2299526053        3.5541505965        1.0352471893
  O         5.1331660654        3.4929442718        4.4873825316
  O         1.3119002310        3.5054705130        3.4148477178
 Ca         2.2721261317        7.0597457113        2.2586331309
 Ca         4.1933260763        7.0563349394        5.6629572817
 Ca         5.4635050109       10.6014171253        2.2651555136
 Ca         1.0008429481       10.5966859018        5.6641570707
  S         1.0994277603        7.0471749950        5.7311655428
  S         5.3652458914        7.0679861313        2.1866762216
  S         4.2746391661       10.5798778956        5.7452890650
  S         2.1733629749       10.5938578912        2.1870929464
  O         0.1820455807       12.9220238349        5.7213177562
  O         6.2734009891       12.9350610445        2.2026294119
  O         6.2719051404        8.2690600142        2.1980437039
  O         0.1990984235        8.2538838621        5.7225567128
  O         3.3852949979        9.3669537132        5.6869477752
  O         3.0814293691        9.3938343799        2.2059071679
  O         3.0806383375       11.7955508395        2.1941147948
  O         3.3490115716       11.7713451014        5.7678632993
  O         2.0345456076        7.0335853525        6.8754912648
  O         4.4315002110        7.0772846450        1.0411287538
  O         1.9665553738        7.0456535500        4.4976347414
  O         4.4977206194        7.0601875001        3.4196277756
  O         5.1950325274       10.5791836900        6.8990276307
  O         1.2385936883       10.5832344056        1.0418171387
  O         5.1475917598       10.6139866727        4.5114506407
  O         1.3035958934       10.6028990452        3.4182094304
 Ca         8.6487946836        0.0207215817        2.2592440844
 Ca        10.5792219344       -0.0082981509        5.6622795974
 Ca        11.8453944689        3.5251730914        2.2674289865
 Ca         7.3847194228        3.5158074987        5.6662131067
  S         7.4884873493        0.0034534676        5.7488335157
  S        11.7449964026        0.0181529137        2.1763157095
  S        10.6768843098        3.5237214033        5.7592903128
  S         8.5551800940        3.5276453821        2.1968554569
  O         6.5845883102        5.8501937068        5.7716245877
  O        12.6552299576        5.8640185419        2.1971186397
  O        12.6479194850        1.2224305594        2.1478465863
  O         6.5698902773        1.1929105343        5.7753354267
  O         9.7579920230        2.3282986884        5.7725007525
  O         9.4623229662        2.3246929160        2.2460214093
  O         9.4659655041        4.7253174604        2.2073172531
  O         9.7730714227        4.7246017493        5.7440075572
  O         8.4329208784       -0.0117099745        6.8838421740
  O        10.8022843069       -0.0056580185        1.0399470400
  O         8.3440842287        0.0366690823        4.5057456634
  O        10.8923072133        0.0356295379        3.4219730637
  O        11.6137732736        3.5362067534        6.9000643440
  O         7.6312340879        3.5343227854        1.0439533259
  O        11.5499085558        3.4983947613        4.5261297677
  O         7.6807706502        3.5231586992        3.4251363102
 Ca         8.6557246959        7.0608710008        2.2627831176
 Ca        10.5809702800        7.0452989606        5.6617096765
 Ca        11.8495916905       10.6003568866        2.2601010098
 Ca         7.3813009232       10.5942233082        5.6659540505
  S         7.4841911723        7.0584025860        5.7460325659
  S        11.7495262373        7.0668212170        2.1873857906
  S        10.6763500656       10.5669830602        5.7391446945
  S         8.5557968974       10.5948129484        2.1884875199
  O         6.5808141471       12.9164157735        5.7215250140
  O        12.6594101796       12.9373691681        2.2091745335
  O        12.6579422158        8.2668872409        2.2012782523
  O         6.5715589827        8.2567048530        5.7182429315
  O         9.7959032605        9.3514059402        5.7167962586
  O         9.4653919432        9.3958023575        2.2060085708
  O         9.4627263090       11.7970100714        2.1967844764
  O         9.7456995178       11.7490297908        5.7462718624
  O         8.4240512080        7.0842630415        6.8850375680
  O        10.8157343591        7.0777181301        1.0416690583
  O         8.3416175550        7.0448033418        4.5042176417
  O        10.8809377139        7.0609581066        3.4197767456
  O        11.6088693809       10.5703080109        6.8852912216
  O         7.6228906910       10.5821194217        1.0417435204
  O        11.5441493526       10.5977618653        4.5072979849
  O         7.6904669506       10.6019467996        3.4243278759
      96
 i =       80, E =     -1777.7947079350
 Ca         2.2668097855        0.0200438376        2.2508126379
 Ca         4.1944903952       -0.0246120021        5.6631697607
 Ca         5.4592867350        3.5248346714        2.2568004778
 Ca         1.0025271926        3.5168343116        5.6629927305
  S         1.1012155492       -0.0059382235        5.7315896791
  S         5.3620017930        0.0175487363        2.1717819733
  S         4.2889172996        3.5142421934        5.7437518851
  S         2.1699122443        3.5277068039        2.1739172291
  O         0.1897359537        5.8468598883        5.7165189175
  O         6.2704977855        5.8647480620        2.1944968761
  O         6.2691025348        1.2196803385        2.1385660022
  O         0.1964509741        1.1964093526        5.7224403349
  O         3.3890210118        2.3065730517        5.7735397939
  O         3.0731379011        2.3217021144        2.1489065059
  O         3.0829683928        4.7234736407        2.2027863106
  O         3.3788132234        4.7124782852        5.7110011422
  O         2.0352137293       -0.0113779301        6.8757799269
  O         4.4215020964       -0.0048014905        1.0334477412
  O         1.9637031100       -0.0171664876        4.4935311696
  O         4.5057707207        0.0422015385        3.4141186508
  O         5.2298689311        3.5412739597        6.8817350323
  O         1.2292328417        3.5518678491        1.0358668142
  O         5.1465361973        3.4953451723        4.5011117177
  O         1.3123619368        3.5068220030        3.4157188333
 Ca         2.2721462879        7.0596482839        2.2583097259
 Ca         4.1920759343        7.0503092206        5.6627573893
 Ca         5.4629858416       10.6004779162        2.2620963889
 Ca         0.9984451733       10.5946718974        5.6644946568
  S         1.0994362668        7.0457419499        5.7312861663
  S         5.3654525499        7.0679633212        2.1869432454
  S         4.2866722579       10.5751503863        5.7478072468
  S         2.1727928145       10.5933279464        2.1869937142
  O         0.1836128281       12.9181079437        5.7223761632
  O         6.2738729523       12.9347183640        2.2045493466
  O         6.2733789864        8.2680068765        2.2073886173
  O         0.1966685807        8.2505827404        5.7197916424
  O         3.3868050273        9.3707091517        5.7105923140
  O         3.0804592781        9.3933708988        2.2043790622
  O         3.0786397512       11.7957169496        2.1948787560
  O         3.3659635727       11.7667888246        5.7769835611
  O         2.0321999741        7.0327593846        6.8777939181
  O         4.4313465288        7.0803664538        1.0412960537
  O         1.9667387329        7.0461368068        4.4975956431
  O         4.4993613728        7.0589273901        3.4209935901
  O         5.2203992689       10.5663407081        6.8914725531
  O         1.2387215648       10.5819113558        1.0413072159
  O         5.1488376699       10.6096271897        4.5084884433
  O         1.3060719654       10.6019554560        3.4208862362
 Ca         8.6508998100        0.0230110705        2.2582799005
 Ca        10.5789441197        0.0088570798        5.6629712705
 Ca        11.8438509285        3.5270679671        2.2616385512
 Ca         7.3841011192        3.5176491014        5.6681899797
  S         7.4858529113        0.0064747866        5.7484010266
  S        11.7455031706        0.0190151311        2.1742989658
  S        10.6755136248        3.5325537809        5.7546663559
  S         8.5544136603        3.5301312665        2.1871926660
  O         6.5830876543        5.8543919402        5.7728945673
  O        12.6540819666        5.8645016030        2.1970864964
  O        12.6504504738        1.2224290226        2.1498919390
  O         6.5696725825        1.1977257247        5.7739607547
  O         9.7631390929        2.3349521520        5.7763394855
  O         9.4633369595        2.3297796737        2.1924711495
  O         9.4647950652        4.7276685271        2.2045020312
  O         9.7689637672        4.7320705983        5.7349214857
  O         8.4265166030       -0.0080436383        6.8860498785
  O        10.8054945720       -0.0010784919        1.0357571402
  O         8.3427898429        0.0373276168        4.5057783315
  O        10.8872994516        0.0401076579        3.4151559343
  O        11.6171475745        3.5434828391        6.8923435311
  O         7.6219875780        3.5393553568        1.0416151741
  O        11.5332760262        3.5043795549        4.5125343567
  O         7.6896324765        3.5178036850        3.4231001737
 Ca         8.6558436845        7.0608931154        2.2615664802
 Ca        10.5779580834        7.0573538241        5.6626584540
 Ca        11.8480206963       10.6009756812        2.2611448210
 Ca         7.3847712382       10.5951381516        5.6647777889
  S         7.4847286270        7.0613740284        5.7460324391
  S        11.7495019697        7.0678653282        2.1871151695
  S        10.6745406058       10.5832457128        5.7454062595
  S         8.5568856411       10.5941709209        2.1873161840
  O         6.5792909746       12.9193610816        5.7201859576
  O        12.6567082633       12.9356704420        2.2020399660
  O        12.6577222881        8.2677795991        2.2045771132
  O         6.5733062868        8.2593704944        5.7192805988
  O         9.7730464345        9.3796160014        5.7197705890
  O         9.4649609352        9.3943780198        2.2049794669
  O         9.4613880548       11.7977581085        2.1970275380
  O         9.7593441367       11.7786167976        5.7697123477
  O         8.4251014944        7.0855376293        6.8847260417
  O        10.8148068084        7.0794398291        1.0418642997
  O         8.3425986426        7.0493484064        4.5039612450
  O        10.8820466877        7.0599945128        3.4203844223
  O        11.6159780937       10.5717722095        6.8846348884
  O         7.6227423847       10.5821902101        1.0418111114
  O        11.5333104829       10.6077304259        4.5047129418
  O         7.6885283957       10.6013893947        3.4205261445
      96
 i =       81, E =     -1777.7942754775
 Ca         2.2684426062        0.0224004251        2.2528683307
 Ca         4.1975433652       -0.0362974741        5.6656262715
 Ca         5.4597906018        3.5236924000        2.2594420362
 Ca         1.0029681802        3.5167698227        5.6602447340
  S         1.1023840452       -0.0104385719        5.7325169450
  S         5.3620024485        0.0173449600        2.1764024901
  S         4.2972658629        3.5150466804        5.7527685816
  S         2.1689358490        3.5293362830        2.1745023795
  O         0.1896878123        5.8473164386        5.7142257591
  O         6.2719288528        5.8664431167        2.1948002837
  O         6.2655074508        1.2219434193        2.1577351206
  O         0.1970734402        1.1909233658        5.7201603770
  O         3.3985837008        2.3075204349        5.7689537159
  O         3.0759560232        2.3271243533        2.1502668208
  O         3.0797628541        4.7264043872        2.2045977367
  O         3.3799464328        4.7110272742        5.7360164719
  O         2.0359173740       -0.0134848140        6.8766662162
  O         4.4233274903       -0.0054188579        1.0370414422
  O         1.9658716423       -0.0232143901        4.4951704124
  O         4.5035219332        0.0374227856        3.4172697759
  O         5.2313759944        3.5366712046        6.8951122172
  O         1.2292036999        3.5484993454        1.0357480886
  O         5.1631809683        3.5104283426        4.5145344000
  O         1.3116062751        3.5061557645        3.4153438734
 Ca         2.2714051460        7.0600220166        2.2589806832
 Ca         4.1927092974        7.0449179305        5.6635111976
 Ca         5.4641976683       10.6000724940        2.2589130744
 Ca         1.0007494740       10.5925829162        5.6644144071
  S         1.0974563378        7.0466150630        5.7313817152
  S         5.3652670440        7.0678458800        2.1862829901
  S         4.3075961913       10.5688367682        5.7540436169
  S         2.1726116069       10.5930914339        2.1869728508
  O         0.1874300049       12.9118431507        5.7241288072
  O         6.2746530797       12.9353609249        2.2007139939
  O         6.2712101357        8.2688768696        2.2032971433
  O         0.1934699927        8.2506359864        5.7214439825
  O         3.3892200283        9.3792234892        5.7489157076
  O         3.0809665259        9.3937767158        2.2056474513
  O         3.0768625250       11.7965091420        2.1957190293
  O         3.3994770484       11.7641840529        5.7866687174
  O         2.0306515420        7.0370278437        6.8782416823
  O         4.4313610716        7.0798635694        1.0405976830
  O         1.9652038362        7.0484793759        4.4975200835
  O         4.4967196475        7.0572773694        3.4183131907
  O         5.2619203104       10.5527397641        6.8821366212
  O         1.2389725233       10.5814863060        1.0414324130
  O         5.1521023243       10.6014089903        4.5052101681
  O         1.3067494430       10.6020461997        3.4218185552
 Ca         8.6537536558        0.0251985742        2.2561952709
 Ca        10.5822587546        0.0412816153        5.6653273188
 Ca        11.8403921795        3.5298264211        2.2544884381
 Ca         7.3843848495        3.5198488087        5.6689338397
  S         7.4852995211        0.0106696847        5.7498359943
  S        11.7472165479        0.0224929213        2.1741854517
  S        10.6754887706        3.5462804017        5.7393743129
  S         8.5546456768        3.5313445482        2.1674146928
  O         6.5846411147        5.8558648885        5.7728404407
  O        12.6543023793        5.8671114081        2.1948210545
  O        12.6540711740        1.2263606373        2.1509105637
  O         6.5699797499        1.2018049457        5.7835987992
  O         9.7667031105        2.3493968296        5.7835995460
  O         9.4615147454        2.3308938014        2.1104991841
  O         9.4645412490        4.7291072511        2.2013450581
  O         9.7666636927        4.7459575862        5.6844858256
  O         8.4257147178       -0.0047407377        6.8866489199
  O        10.8069622152        0.0031730216        1.0346559513
  O         8.3420413656        0.0413544135        4.5063845631
  O        10.8877569789        0.0412945569        3.4141553877
  O        11.6221170054        3.5577321003        6.8740611444
  O         7.6069106828        3.5485233001        1.0352798189
  O        11.5227703558        3.5156372255        4.4928192244
  O         7.7027349192        3.5042282020        3.4128791633
 Ca         8.6546360306        7.0606679736        2.2618788909
 Ca        10.5736903754        7.0720293674        5.6627884150
 Ca        11.8466968638       10.6031628366        2.2626463931
 Ca         7.3914195734       10.5971574075        5.6636078601
  S         7.4838487850        7.0645435013        5.7455721061
  S        11.7480626018        7.0692310020        2.1870167716
  S        10.6809517012       10.6119099722        5.7513387020
  S         8.5570554281       10.5936128332        2.1865989272
  O         6.5796545354       12.9230417793        5.7201616563
  O        12.6579871531       12.9386162723        2.2037234155
  O        12.6557094140        8.2689533877        2.2084941276
  O         6.5742238908        8.2624312107        5.7152767424
  O         9.7467508700        9.4283439458        5.7198971482
  O         9.4643110317        9.3938363868        2.2035715185
  O         9.4612532197       11.7970586933        2.1967379552
  O         9.7963682483       11.8309901556        5.7930022676
  O         8.4265822113        7.0878110437        6.8832348566
  O        10.8166682951        7.0832418193        1.0395859286
  O         8.3452342383        7.0540508173        4.5055175792
  O        10.8823090374        7.0604138458        3.4216093781
  O        11.6277094317       10.5687454645        6.8844231066
  O         7.6234239929       10.5811269925        1.0411265934
  O        11.5324171367       10.6160880374        4.5029399506
  O         7.6922826239       10.6043908818        3.4219313035
      96
 i =       82, E =     -1777.7950930792
 Ca         2.2676114779        0.0213192988        2.2514352057
 Ca         4.1953063755       -0.0287431476        5.6639461311
 Ca         5.4597845402        3.5246051571        2.2590466174
 Ca         1.0026149290        3.5169006298        5.6619639930
  S         1.1019816612       -0.0078458472        5.7319658668
  S         5.3623089947        0.0177497701        2.1732124456
  S         4.2921564216        3.5131475046        5.7490069905
  S         2.1692965767        3.5282982964        2.1742199871
  O         0.1893937331        5.8471714352        5.7149113881
  O         6.2711378938        5.8654835651        2.1952834751
  O         6.2683292281        1.2207280850        2.1438825725
  O         0.1966814607        1.1939635737        5.7211236332
  O         3.3927085403        2.3054770174        5.7718493119
  O         3.0746313957        2.3242635788        2.1494768858
  O         3.0817954548        4.7243868003        2.2036355573
  O         3.3782545557        4.7099838924        5.7207622005
  O         2.0355872243       -0.0118009538        6.8762465556
  O         4.4215825053       -0.0061574122        1.0352701454
  O         1.9650887869       -0.0189883089        4.4943486530
  O         4.5051563449        0.0410072074        3.4151492058
  O         5.2307189007        3.5399450621        6.8886006949
  O         1.2290505276        3.5504329605        1.0358318241
  O         5.1521453891        3.5022222603        4.5072455327
  O         1.3121147344        3.5063520963        3.4158947368
 Ca         2.2716379913        7.0599624465        2.2586287957
 Ca         4.1920488842        7.0486443879        5.6637870643
 Ca         5.4636072235       10.6007972334        2.2611030843
 Ca         1.0010544640       10.5935617244        5.6646074397
  S         1.0982784628        7.0463439510        5.7314436297
  S         5.3655872568        7.0679889306        2.1864892299
  S         4.2934463469       10.5719450211        5.7538089712
  S         2.1726357827       10.5933932110        2.1870250516
  O         0.1856829603       12.9152296576        5.7234572683
  O         6.2745362371       12.9352836641        2.2040343003
  O         6.2724598966        8.2685745952        2.2048405483
  O         0.1950720844        8.2510261400        5.7215486987
  O         3.3879660310        9.3720492522        5.7460170741
  O         3.0805915362        9.3936600228        2.2045307074
  O         3.0781181275       11.7960570179        2.1956235273
  O         3.3778927921       11.7653532909        5.7808317177
  O         2.0311994796        7.0345616741        6.8780054096
  O         4.4315043310        7.0800627773        1.0408738865
  O         1.9664571098        7.0474271043        4.4982584017
  O         4.4990106503        7.0584505878        3.4201353807
  O         5.2377501156       10.5642696148        6.8892973272
  O         1.2386185585       10.5818872162        1.0414942678
  O         5.1459601436       10.6038568386        4.5083928717
  O         1.3058285955       10.6021316659        3.4210164602
 Ca         8.6522453825        0.0238399090        2.2569750515
 Ca        10.5800353732        0.0209869050        5.6640871444
 Ca        11.8423528475        3.5287350692        2.2583651635
 Ca         7.3840300626        3.5187312248        5.6681235604
  S         7.4863009104        0.0083107739        5.7493842591
  S        11.7461340525        0.0211012900        2.1745833934
  S        10.6739471412        3.5396315222        5.7473495715
  S         8.5538935404        3.5300804872        2.1778489567
  O         6.5839524522        5.8544493686        5.7719016468
  O        12.6544268966        5.8658568828        2.1957158069
  O        12.6513569537        1.2252627516        2.1504705332
  O         6.5703124355        1.1993730310        5.7794732572
  O         9.7610679096        2.3434611887        5.7791218324
  O         9.4599616178        2.3280893073        2.1556129843
  O         9.4650875002        4.7271137607        2.2036828268
  O         9.7679721342        4.7405822601        5.7136496667
  O         8.4278584458       -0.0075426055        6.8859103302
  O        10.8059226846        0.0008664864        1.0356052135
  O         8.3422769813        0.0393700534        4.5056547408
  O        10.8883172012        0.0404201611        3.4159984749
  O        11.6157721466        3.5501404259        6.8851801066
  O         7.6150221471        3.5449544468        1.0380530308
  O        11.5294078332        3.5113916414        4.5047962640
  O         7.6953728335        3.5117554678        3.4185641043
 Ca         8.6552689398        7.0607357481        2.2618913710
 Ca        10.5758890235        7.0632385975        5.6622415684
 Ca        11.8479119270       10.6021142962        2.2618897286
 Ca         7.3875287730       10.5960150000        5.6645355189
  S         7.4842503831        7.0624320592        5.7456323646
  S        11.7491928369        7.0687312056        2.1868794314
  S        10.6783823352       10.5952093900        5.7483170307
  S         8.5567789411       10.5942211190        2.1870604909
  O         6.5793511035       12.9213225376        5.7203227581
  O        12.6576465287       12.9378837330        2.2032116487
  O        12.6569586757        8.2686555500        2.2052940975
  O         6.5733491875        8.2602945321        5.7174807531
  O         9.7616460542        9.4013995829        5.7185812809
  O         9.4648634415        9.3946676752        2.2053333987
  O         9.4613114963       11.7977058953        2.1965119256
  O         9.7772929301       11.8007885315        5.7794711556
  O         8.4251364405        7.0862204244        6.8843041017
  O        10.8155539297        7.0808934489        1.0410220855
  O         8.3434241315        7.0510082426        4.5043533799
  O        10.8818754476        7.0604223636        3.4202615915
  O        11.6207390813       10.5691341173        6.8855322502
  O         7.6229513619       10.5817245599        1.0414698451
  O        11.5358697720       10.6094031844        4.5057793625
  O         7.6892461272       10.6029366961        3.4207116861
      96
 i =       83, E =     -1777.7950689625
 Ca         2.2677472726        0.0219961628        2.2514507427
 Ca         4.1949828853       -0.0283730345        5.6645618943
 Ca         5.4594265454        3.5249922102        2.2604062764
 Ca         1.0030811467        3.5172817495        5.6623176613
  S         1.1019252243       -0.0076167711        5.7320748326
  S         5.3624471706        0.0176000774        2.1745326030
  S         4.2929675452        3.5131872706        5.7489168983
  S         2.1694473621        3.5282137953        2.1743796015
  O         0.1887798281        5.8466956693        5.7141956212
  O         6.2701813034        5.8652452515        2.1945498551
  O         6.2680557525        1.2209901268        2.1484001880
  O         0.1963472940        1.1943573309        5.7211536476
  O         3.3907428423        2.3069398786        5.7740090631
  O         3.0749909509        2.3244373872        2.1504575942
  O         3.0818211400        4.7244958561        2.2034194850
  O         3.3815236967        4.7114382031        5.7156254163
  O         2.0355111677       -0.0116109191        6.8763206797
  O         4.4228265496       -0.0042169647        1.0358075042
  O         1.9647886104       -0.0189961589        4.4941992020
  O         4.5043661002        0.0403832944        3.4157795213
  O         5.2335527196        3.5375876300        6.8873827477
  O         1.2294684099        3.5502059970        1.0357729446
  O         5.1518729604        3.5043269417        4.5065786216
  O         1.3118253047        3.5063702132        3.4157953584
 Ca         2.2716081162        7.0601517788        2.2584422884
 Ca         4.1920264484        7.0482917212        5.6644498611
 Ca         5.4634481050       10.6008615337        2.2623043565
 Ca         1.0020937665       10.5934665403        5.6659280166
  S         1.0986180736        7.0453696286        5.7316490472
  S         5.3653483955        7.0683894156        2.1863889353
  S         4.2933151443       10.5686424792        5.7590040688
  S         2.1726578475       10.5938607666        2.1868780735
  O         0.1856416331       12.9154733473        5.7234380313
  O         6.2744744086       12.9348719405        2.2037465102
  O         6.2731437003        8.2685336327        2.2056343733
  O         0.1955992599        8.2504875608        5.7212534952
  O         3.3954714523        9.3624702657        5.7731064199
  O         3.0808203637        9.3940717859        2.2046844859
  O         3.0783630231       11.7965908721        2.1953036196
  O         3.3765389462       11.7616296004        5.7811836752
  O         2.0313416337        7.0329687950        6.8781896889
  O         4.4314830895        7.0804447165        1.0406806112
  O         1.9663996581        7.0475028981        4.4980426520
  O         4.4986171266        7.0589111718        3.4200054475
  O         5.2442034926       10.5703054014        6.8889451487
  O         1.2386589134       10.5821263989        1.0414053987
  O         5.1418848552       10.5997599535        4.5102968904
  O         1.3064731527       10.6018074896        3.4215232127
 Ca         8.6516798996        0.0240202854        2.2572330340
 Ca        10.5799715570        0.0264736996        5.6646015989
 Ca        11.8424659760        3.5289905283        2.2578126832
 Ca         7.3840420897        3.5194570530        5.6663472563
  S         7.4861227612        0.0084881899        5.7490391990
  S        11.7455459370        0.0209683043        2.1751165965
  S        10.6774743163        3.5381216768        5.7471033702
  S         8.5540595809        3.5287507286        2.1754006675
  O         6.5824438538        5.8575924256        5.7703207523
  O        12.6544263115        5.8659439883        2.1962724858
  O        12.6512503995        1.2247227739        2.1518498679
  O         6.5690912218        1.1986518193        5.7775684624
  O         9.7598190199        2.3454673070        5.7779699779
  O         9.4607614817        2.3265927902        2.1544093008
  O         9.4653414223        4.7258331356        2.2033725634
  O         9.7695716093        4.7371886488        5.7205624192
  O         8.4276498886       -0.0066457563        6.8856966162
  O        10.8054728352        0.0012246031        1.0361150041
  O         8.3430476725        0.0394648978        4.5060758354
  O        10.8869268590        0.0412873974        3.4160400581
  O        11.6199679944        3.5511331511        6.8842605638
  O         7.6138197182        3.5477648899        1.0367817667
  O        11.5339361403        3.5066396065        4.5051164353
  O         7.6950364370        3.5079272871        3.4156001515
 Ca         8.6555301243        7.0606543513        2.2615550460
 Ca        10.5760304847        7.0624009513        5.6618935421
 Ca        11.8476914319       10.6020579739        2.2628477603
 Ca         7.3885368688       10.5964809869        5.6645691802
  S         7.4846765128        7.0641190781        5.7449182428
  S        11.7491037801        7.0689738500        2.1867064075
  S        10.6770869456       10.5989381884        5.7473005882
  S         8.5565965806       10.5945210714        2.1871899796
  O         6.5796501390       12.9207809308        5.7196227743
  O        12.6572092608       12.9378715148        2.2034109073
  O        12.6569786893        8.2689996664        2.2040650579
  O         6.5743797849        8.2623727952        5.7183444054
  O         9.7658356774        9.4013529260        5.7166784742
  O         9.4647421484        9.3948030790        2.2048475914
  O         9.4619332928       11.7975235998        2.1970017425
  O         9.7795745793       11.8079344924        5.7768672950
  O         8.4247367555        7.0871616677        6.8842336780
  O        10.8151987588        7.0808405833        1.0410877717
  O         8.3436629614        7.0519263871        4.5036576542
  O        10.8822878401        7.0604705886        3.4204806041
  O        11.6198376097       10.5697025244        6.8838916822
  O         7.6228615053       10.5820617939        1.0415470542
  O        11.5358396687       10.6101741929        4.5060591237
  O         7.6893873419       10.6031718897        3.4212027059
      96
 i =       84, E =     -1777.7951885404
 Ca         2.2668824918        0.0212830412        2.2517331291
 Ca         4.1955852093       -0.0283929512        5.6644434311
 Ca         5.4590106642        3.5249292831        2.2590417629
 Ca         1.0037800377        3.5171362066        5.6620592972
  S         1.1016006199       -0.0074416996        5.7321340762
  S         5.3622286429        0.0178199972        2.1745347570
  S         4.2923009107        3.5143916439        5.7475010406
  S         2.1699085178        3.5280988319        2.1742032441
  O         0.1892419364        5.8467370181        5.7153707911
  O         6.2703700940        5.8651344273        2.1957710381
  O         6.2680448359        1.2209987891        2.1489530165
  O         0.1962878826        1.1947051384        5.7213210718
  O         3.3911616972        2.3073436538        5.7736392186
  O         3.0747093598        2.3236076233        2.1499815398
  O         3.0822927159        4.7244289723        2.2035876262
  O         3.3801434327        4.7119477579        5.7183659890
  O         2.0354436320       -0.0116772350        6.8762053690
  O         4.4225228372       -0.0038019774        1.0357641294
  O         1.9647825367       -0.0187642292        4.4945339769
  O         4.5045483926        0.0401527477        3.4159282729
  O         5.2322234273        3.5388502706        6.8860981298
  O         1.2296786609        3.5505669564        1.0359073270
  O         5.1510978876        3.5035518548        4.5049435922
  O         1.3121106168        3.5064364545        3.4155310579
 Ca         2.2715543938        7.0596376447        2.2583900396
 Ca         4.1928945873        7.0481231740        5.6646343940
 Ca         5.4627790994       10.6003982561        2.2631454955
 Ca         1.0000264728       10.5937899793        5.6664031709
  S         1.0985525585        7.0458022967        5.7318920089
  S         5.3650288751        7.0680469431        2.1866504682
  S         4.2953500668       10.5709965071        5.7601671095
  S         2.1730313999       10.5936440985        2.1867200387
  O         0.1851729370       12.9158365874        5.7230227347
  O         6.2741243278       12.9349714292        2.2032026463
  O         6.2726997093        8.2683830249        2.2045353108
  O         0.1955716783        8.2508697942        5.7209638469
  O         3.3921597097        9.3683649299        5.7674337257
  O         3.0807726329        9.3935321820        2.2043866183
  O         3.0787885502       11.7963148235        2.1954701354
  O         3.3779398502       11.7634607617        5.7824025830
  O         2.0316560643        7.0336021650        6.8780113964
  O         4.4311304822        7.0800914048        1.0410379935
  O         1.9665442494        7.0477612014        4.4983183204
  O         4.4981382182        7.0592030790        3.4202070078
  O         5.2444683145       10.5707735261        6.8911037878
  O         1.2387587354       10.5824389667        1.0415695889
  O         5.1429856289       10.5988915361        4.5106593134
  O         1.3063755850       10.6013880893        3.4209307518
 Ca         8.6507861368        0.0231827745        2.2577805168
 Ca        10.5799240849        0.0263678506        5.6642030352
 Ca        11.8424471064        3.5285324731        2.2580928417
 Ca         7.3847854747        3.5190375794        5.6661744216
  S         7.4859212398        0.0084784219        5.7488548604
  S        11.7457102959        0.0204145987        2.1750069968
  S        10.6779092216        3.5379039286        5.7477711094
  S         8.5541257875        3.5284537830        2.1761379554
  O         6.5827898419        5.8564339941        5.7725762963
  O        12.6540885066        5.8651161084        2.1963777485
  O        12.6509373283        1.2243593409        2.1508660956
  O         6.5691204513        1.1990117244        5.7770600044
  O         9.7621837822        2.3440605881        5.7786632470
  O         9.4605002117        2.3258393493        2.1543306164
  O         9.4656946480        4.7254453592        2.2038664226
  O         9.7700511336        4.7367800508        5.7181009609
  O         8.4270151579       -0.0064401197        6.8857617430
  O        10.8054813698        0.0001219901        1.0363576574
  O         8.3427537147        0.0393416757        4.5057924330
  O        10.8875806101        0.0408451361        3.4162103761
  O        11.6213824968        3.5502264339        6.8840978648
  O         7.6146848497        3.5478066651        1.0369619941
  O        11.5340508294        3.5068795650        4.5054978204
  O         7.6958610683        3.5080737644        3.4170121395
 Ca         8.6551715647        7.0605182100        2.2616394694
 Ca        10.5767781487        7.0624325706        5.6622028111
 Ca        11.8468857258       10.6019678484        2.2627610775
 Ca         7.3879123978       10.5964602979        5.6648295156
  S         7.4843224032        7.0635118776        5.7458434957
  S        11.7489751125        7.0683211591        2.1867617962
  S        10.6763592152       10.5977746586        5.7469393238
  S         8.5569072591       10.5944420208        2.1871247742
  O         6.5792109305       12.9210710696        5.7203432949
  O        12.6575071027       12.9373152107        2.2039588013
  O        12.6570128858        8.2683680894        2.2046312827
  O         6.5735593301        8.2614864179        5.7170586568
  O         9.7649898230        9.4001451768        5.7182447146
  O         9.4648851758        9.3945621306        2.2047979551
  O         9.4617617629       11.7978608839        2.1966239945
  O         9.7763108541       11.8054386031        5.7765255229
  O         8.4253040794        7.0865754628        6.8843928714
  O        10.8151852577        7.0803262832        1.0410930473
  O         8.3433451210        7.0510205692        4.5045701561
  O        10.8814181918        7.0600179992        3.4199789522
  O        11.6194917307       10.5707751987        6.8836407819
  O         7.6229707757       10.5821835407        1.0417255551
  O        11.5336806663       10.6106045811        4.5045596744
  O         7.6891870959       10.6030389128        3.4207952330
      96
 i =       85, E =     -1777.7952129992
 Ca         2.2669498832        0.0208389106        2.2517435258
 Ca         4.1955382138       -0.0284672324        5.6643014099
 Ca         5.4587600554        3.5249135567        2.2584105689
 Ca         1.0040116494        3.5168772902        5.6619347078
  S         1.1017514610       -0.0074527499        5.7319966209
  S         5.3620754836        0.0181546718        2.1745402544
  S         4.2921557947        3.5150081070        5.7471453944
  S         2.1699474521        3.5280323064        2.1741116082
  O         0.1896663097        5.8473118780        5.7150618949
  O         6.2705500279        5.8646959694        2.1956059604
  O         6.2679716241        1.2211651120        2.1495314294
  O         0.1966603022        1.1947477043        5.7215308394
  O         3.3914148005        2.3076318708        5.7732349105
  O         3.0746473708        2.3234850992        2.1489296309
  O         3.0822779904        4.7243248086        2.2036001000
  O         3.3797542484        4.7123621550        5.7191596865
  O         2.0357599406       -0.0116731508        6.8759894956
  O         4.4222666518       -0.0040715078        1.0357770728
  O         1.9646913920       -0.0187122253        4.4942983348
  O         4.5046083039        0.0401422288        3.4159508354
  O         5.2325129620        3.5395390621        6.8853504422
  O         1.2296509284        3.5509091269        1.0358422867
  O         5.1515946492        3.5035480231        4.5050278233
  O         1.3126912303        3.5066799300        3.4157965145
 Ca         2.2716513603        7.0595799421        2.2584316299
 Ca         4.1931911203        7.0490253274        5.6648660535
 Ca         5.4628060082       10.6003024316        2.2635858573
 Ca         1.0000194591       10.5939761520        5.6662441593
  S         1.0987364922        7.0464853611        5.7318835549
  S         5.3654525450        7.0677198798        2.1870496170
  S         4.2957925988       10.5754398512        5.7613584188
  S         2.1730182021       10.5935082212        2.1869825415
  O         0.1850155881       12.9162171546        5.7230966582
  O         6.2741981228       12.9354912838        2.2041007003
  O         6.2733336213        8.2678666136        2.2056870071
  O         0.1954466673        8.2511834652        5.7211521842
  O         3.3866485851        9.3773630198        5.7641106516
  O         3.0808711560        9.3935106422        2.2050203100
  O         3.0787917310       11.7960848636        2.1955028411
  O         3.3781466473       11.7675293166        5.7831187320
  O         2.0315579881        7.0340301812        6.8781587201
  O         4.4313022809        7.0797279680        1.0415625706
  O         1.9667033201        7.0483245521        4.4983174233
  O         4.4987915001        7.0593556373        3.4208141085
  O         5.2431450821       10.5706792834        6.8930929753
  O         1.2390195480       10.5822202392        1.0416010478
  O         5.1445083104       10.6008169341        4.5124313621
  O         1.3061908128       10.6013025192        3.4209088281
 Ca         8.6511501706        0.0220761857        2.2575557859
 Ca        10.5800685722        0.0273704213        5.6636273818
 Ca        11.8426174793        3.5283132037        2.2577286029
 Ca         7.3851287271        3.5187003846        5.6661989047
  S         7.4861496120        0.0084306928        5.7490425829
  S        11.7459290048        0.0208899896        2.1746755954
  S        10.6775756612        3.5375098103        5.7477053856
  S         8.5542811259        3.5281523426        2.1758602245
  O         6.5838315967        5.8555209325        5.7728339702
  O        12.6545981807        5.8652602320        2.1962728965
  O        12.6508984950        1.2251079013        2.1498928092
  O         6.5697843951        1.1991867208        5.7788693837
  O         9.7621450392        2.3436226377        5.7785683281
  O         9.4599568793        2.3248453839        2.1524882597
  O         9.4657812833        4.7252397735        2.2037068813
  O         9.7705174751        4.7365941795        5.7173571778
  O         8.4276408385       -0.0067428792        6.8856123384
  O        10.8056443079       -0.0008285351        1.0361545758
  O         8.3423640248        0.0396394358        4.5056278441
  O        10.8880971717        0.0410591310        3.4160003389
  O        11.6202927870        3.5489556472        6.8845342735
  O         7.6146071483        3.5482616145        1.0369298076
  O        11.5326335407        3.5068755660        4.5045021315
  O         7.6955601460        3.5075119964        3.4163674876
 Ca         8.6553509715        7.0603172993        2.2616355053
 Ca        10.5771710497        7.0628886809        5.6623862909
 Ca        11.8474298586       10.6021669091        2.2621696902
 Ca         7.3878910488       10.5965985366        5.6648870646
  S         7.4845335737        7.0630947243        5.7460462031
  S        11.7492462431        7.0681940362        2.1870404834
  S        10.6773967722       10.5980872694        5.7458577687
  S         8.5567552084       10.5942158763        2.1872325128
  O         6.5795613743       12.9210019080        5.7198863919
  O        12.6578043442       12.9379322689        2.2034217876
  O        12.6570746084        8.2682486027        2.2048024870
  O         6.5737951216        8.2610311692        5.7175157872
  O         9.7639555236        9.4017732568        5.7178045650
  O         9.4646509213        9.3943999443        2.2053543587
  O         9.4618067772       11.7974175199        2.1969443510
  O         9.7782028048       11.8064335722        5.7745499104
  O         8.4257833149        7.0866710840        6.8844620913
  O        10.8152711813        7.0801390164        1.0414606556
  O         8.3428052879        7.0509765541        4.5042201924
  O        10.8818128877        7.0598173095        3.4203874487
  O        11.6196577522       10.5725405732        6.8833888517
  O         7.6228612809       10.5819100498        1.0417564130
  O        11.5357027586       10.6105512150        4.5042382261
  O         7.6896142480       10.6031372406        3.4213790441
      96
 i =       86, E =     -1777.7952193892
 Ca         2.2669231687        0.0207499088        2.2516819295
 Ca         4.1951749471       -0.0278442047        5.6644071850
 Ca         5.4588902607        3.5249150668        2.2582136851
 Ca         1.0039927151        3.5168194203        5.6619473134
  S         1.1016807781       -0.0073353381        5.7319600978
  S         5.3619476542        0.0183509463        2.1747359833
  S         4.2921712804        3.5151617424        5.7466751712
  S         2.1697854799        3.5280285796        2.1741648228
  O         0.1897869095        5.8471975378        5.7154345450
  O         6.2704851718        5.8648730090        2.1961372147
  O         6.2678464839        1.2213667970        2.1502858734
  O         0.1967092135        1.1949804564        5.7215237654
  O         3.3910080405        2.3080160882        5.7728846395
  O         3.0744103232        2.3234575382        2.1493249233
  O         3.0822848135        4.7242097915        2.2036553980
  O         3.3803218893        4.7128105835        5.7181594583
  O         2.0354822581       -0.0114889450        6.8761198401
  O         4.4223462507       -0.0036659106        1.0357548683
  O         1.9645872763       -0.0187027596        4.4942002634
  O         4.5043776647        0.0400906744        3.4160094746
  O         5.2329349071        3.5396460507        6.8846055929
  O         1.2296078573        3.5509301656        1.0357747452
  O         5.1516640879        3.5036842001        4.5046516113
  O         1.3123744854        3.5067084587        3.4157393114
 Ca         2.2715117147        7.0595847443        2.2585622612
 Ca         4.1923891606        7.0500845370        5.6649302238
 Ca         5.4627669328       10.6003418096        2.2642241471
 Ca         1.0004696899       10.5941434347        5.6663726609
  S         1.0986540934        7.0465279322        5.7319736396
  S         5.3651970625        7.0677882031        2.1870601382
  S         4.2947638838       10.5771054346        5.7628967828
  S         2.1727642408       10.5934635842        2.1870445378
  O         0.1847189152       12.9165842602        5.7229936560
  O         6.2739433896       12.9355604501        2.2037201079
  O         6.2727970016        8.2681285052        2.2046685925
  O         0.1952839109        8.2511843417        5.7214010460
  O         3.3860645390        9.3788256671        5.7701116618
  O         3.0806399916        9.3934738300        2.2044709261
  O         3.0786550743       11.7959640497        2.1954596194
  O         3.3778577107       11.7697593199        5.7834482115
  O         2.0314709695        7.0339388924        6.8781669384
  O         4.4313256134        7.0799740002        1.0413801170
  O         1.9667251279        7.0487389731        4.4984620490
  O         4.4983680013        7.0595494758        3.4207246739
  O         5.2429598815       10.5720869990        6.8936134924
  O         1.2388779730       10.5821625957        1.0415835170
  O         5.1436328168       10.6015984380        4.5138324613
  O         1.3061879253       10.6012812315        3.4211650917
 Ca         8.6510249293        0.0217414424        2.2575083690
 Ca        10.5797837939        0.0275389562        5.6636186639
 Ca        11.8428567688        3.5280046267        2.2578347845
 Ca         7.3847543972        3.5186761396        5.6661463072
  S         7.4860726286        0.0086284312        5.7489302088
  S        11.7457636400        0.0205592585        2.1746204610
  S        10.6776027244        3.5372728258        5.7479342300
  S         8.5539616210        3.5279189268        2.1757020467
  O         6.5835916030        5.8557925659        5.7726752871
  O        12.6543365536        5.8650343863        2.1962471171
  O        12.6507224865        1.2246929899        2.1501358878
  O         6.5697062933        1.1993872007        5.7782882155
  O         9.7617713916        2.3436555800        5.7784205366
  O         9.4594881540        2.3243114816        2.1519721995
  O         9.4658936245        4.7247269771        2.2039014173
  O         9.7707159565        4.7362936893        5.7177726135
  O         8.4273714273       -0.0065377585        6.8856913155
  O        10.8055919609       -0.0011476386        1.0360480293
  O         8.3425212382        0.0395196861        4.5057035265
  O        10.8879491058        0.0409586845        3.4159367062
  O        11.6206370882        3.5484164665        6.8844851020
  O         7.6142714499        3.5485826977        1.0367684496
  O        11.5332247676        3.5066785299        4.5050715647
  O         7.6960562964        3.5074019349        3.4168560415
 Ca         8.6553753528        7.0601533411        2.2616785265
 Ca        10.5769177278        7.0627533606        5.6623501462
 Ca        11.8476437598       10.6021299884        2.2618048105
 Ca         7.3880414860       10.5967564906        5.6649270949
  S         7.4844769687        7.0632028250        5.7458689581
  S        11.7491074492        7.0680702720        2.1870395739
  S        10.6768545483       10.5982712848        5.7455183976
  S         8.5565582026       10.5941786602        2.1871719634
  O         6.5794351125       12.9212399916        5.7199922960
  O        12.6577469643       12.9376817431        2.2037093841
  O        12.6570437745        8.2680628664        2.2051357413
  O         6.5736694402        8.2610807242        5.7172558920
  O         9.7643468868        9.4012730950        5.7178336279
  O         9.4645056697        9.3943893814        2.2052434822
  O         9.4615452694       11.7974181175        2.1964713001
  O         9.7770329091       11.8064212910        5.7733056424
  O         8.4256796147        7.0868448670        6.8843144376
  O        10.8152836820        7.0801657141        1.0413188952
  O         8.3431558164        7.0509451435        4.5043762934
  O        10.8816469773        7.0598400729        3.4203608264
  O        11.6186257139       10.5728764153        6.8835158698
  O         7.6226686120       10.5818493697        1.0417176416
  O        11.5356203557       10.6103264719        4.5042588050
  O         7.6890773214       10.6030386592        3.4211210437
      96
 i =       87, E =     -1777.7952517376
 Ca         2.2669389834        0.0207319119        2.2516377883
 Ca         4.1953568900       -0.0261301250        5.6645305515
 Ca         5.4589337300        3.5249638253        2.2580332754
 Ca         1.0039720546        3.5167381580        5.6620805389
  S         1.1015378264       -0.0070434446        5.7318595350
  S         5.3619698678        0.0184496955        2.1747443553
  S         4.2926628121        3.5154594602        5.7457821369
  S         2.1697569578        3.5279686438        2.1741395257
  O         0.1898885831        5.8471413402        5.7152413825
  O         6.2701241035        5.8647804202        2.1959391321
  O         6.2676556635        1.2216009777        2.1496575434
  O         0.1966881538        1.1953879497        5.7215991012
  O         3.3909028256        2.3087204579        5.7724372232
  O         3.0742784745        2.3233108432        2.1494006099
  O         3.0822814025        4.7241385386        2.2035334914
  O         3.3815230279        4.7135035730        5.7172503259
  O         2.0353713388       -0.0114104295        6.8759968682
  O         4.4223386067       -0.0034038545        1.0357456464
  O         1.9645338673       -0.0184909061        4.4941350680
  O         4.5044695320        0.0401899589        3.4159997766
  O         5.2340194968        3.5391202456        6.8833562813
  O         1.2295920766        3.5510014033        1.0357209299
  O         5.1517553592        3.5035253310        4.5036218489
  O         1.3122001097        3.5065885612        3.4156127086
 Ca         2.2714809748        7.0594428865        2.2585546303
 Ca         4.1917674225        7.0515866317        5.6648740782
 Ca         5.4628416398       10.6005932913        2.2651331349
 Ca         1.0010169697       10.5945132279        5.6667736614
  S         1.0986476041        7.0465602098        5.7321091649
  S         5.3650404190        7.0678664954        2.1871263048
  S         4.2938400971       10.5793888181        5.7643868494
  S         2.1727519574       10.5934859124        2.1870159972
  O         0.1845258386       12.9169958787        5.7228028831
  O         6.2739105135       12.9355407562        2.2036115420
  O         6.2728741066        8.2680841373        2.2051643542
  O         0.1952275995        8.2511276261        5.7210447659
  O         3.3867225006        9.3802647873        5.7704147608
  O         3.0807128936        9.3935401870        2.2049022649
  O         3.0785649324       11.7960446489        2.1951123962
  O         3.3780799300       11.7730614162        5.7835472872
  O         2.0315888304        7.0339106251        6.8781998921
  O         4.4312741602        7.0798649679        1.0413662059
  O         1.9666559313        7.0496443542        4.4985464004
  O         4.4981653456        7.0597820189        3.4207718827
  O         5.2424054591       10.5741180727        6.8946022015
  O         1.2387725127       10.5821147393        1.0415825713
  O         5.1432196653       10.6024748227        4.5154656646
  O         1.3062569933       10.6013060719        3.4211493815
 Ca         8.6507308040        0.0214779033        2.2574739948
 Ca        10.5798817356        0.0265741535        5.6637761538
 Ca        11.8430301305        3.5276414434        2.2583565143
 Ca         7.3846460679        3.5185301826        5.6659765535
  S         7.4860447822        0.0086402860        5.7486727722
  S        11.7456947712        0.0202125605        2.1746524294
  S        10.6784139804        3.5367136006        5.7483831323
  S         8.5539146450        3.5276246156        2.1758324515
  O         6.5834303982        5.8559838476        5.7728265551
  O        12.6543797166        5.8651674518        2.1965029166
  O        12.6508239424        1.2241652980        2.1501860424
  O         6.5695995104        1.1993883952        5.7770433138
  O         9.7621345115        2.3433165739        5.7783132771
  O         9.4594686393        2.3238289705        2.1540259596
  O         9.4659634096        4.7243645163        2.2037206047
  O         9.7713954783        4.7354572385        5.7196371537
  O         8.4273098202       -0.0062701729        6.8855541713
  O        10.8056048535       -0.0016955562        1.0360826969
  O         8.3429741079        0.0391664132        4.5058502916
  O        10.8877702698        0.0409243659        3.4158956089
  O        11.6216804448        3.5478976610        6.8847383567
  O         7.6142635897        3.5484148736        1.0368165194
  O        11.5346910782        3.5060905994        4.5058049029
  O         7.6955928233        3.5075673487        3.4166202827
 Ca         8.6555738082        7.0599859066        2.2617640665
 Ca        10.5768581613        7.0621727497        5.6622744601
 Ca        11.8476878444       10.6020403960        2.2617646225
 Ca         7.3881325762       10.5969235084        5.6651667720
  S         7.4844849500        7.0632334870        5.7457542274
  S        11.7489999905        7.0681005674        2.1870752613
  S        10.6768232021       10.5974490771        5.7453381804
  S         8.5563539084       10.5940028188        2.1872279852
  O         6.5795080717       12.9211988420        5.7197336841
  O        12.6577150763       12.9373673311        2.2035722999
  O        12.6568656525        8.2681636013        2.2046799999
  O         6.5736966641        8.2611902840        5.7176363600
  O         9.7660618866        9.3992595123        5.7179647454
  O         9.4643077598        9.3942378926        2.2050125142
  O         9.4616484122       11.7970006194        2.1966474860
  O         9.7758438431       11.8048332608        5.7720143512
  O         8.4257317861        7.0870119376        6.8841416245
  O        10.8152179282        7.0800353488        1.0413123535
  O         8.3431723474        7.0509825702        4.5042583456
  O        10.8816385672        7.0599122261        3.4204368778
  O        11.6184810404       10.5730353019        6.8835759257
  O         7.6224578949       10.5819227737        1.0417781645
  O        11.5353365276       10.6098548387        4.5040885374
  O         7.6891757223       10.6029854871        3.4214782876
      96
 i =       88, E =     -1777.7952341857
 Ca         2.2670639351        0.0208312897        2.2516129079
 Ca         4.1956473394       -0.0252837470        5.6645204720
 Ca         5.4590489545        3.5250499626        2.2580417791
 Ca         1.0038826142        3.5167028006        5.6620104770
  S         1.1014891101       -0.0070935315        5.7318933708
  S         5.3619818162        0.0187108033        2.1747479941
  S         4.2928116122        3.5157427326        5.7461261982
  S         2.1697085722        3.5279985805        2.1741601766
  O         0.1901025268        5.8470787751        5.7151177073
  O         6.2700969152        5.8648619014        2.1961289885
  O         6.2675632913        1.2219748432        2.1494693250
  O         0.1966753639        1.1953619840        5.7215814154
  O         3.3915669294        2.3087624592        5.7716876658
  O         3.0742824692        2.3234086813        2.1494819714
  O         3.0821321429        4.7242214079        2.2035422024
  O         3.3813196953        4.7136521938        5.7178891824
  O         2.0352898895       -0.0112927034        6.8760546015
  O         4.4223291683       -0.0033627836        1.0357186337
  O         1.9646703525       -0.0186249477        4.4942984994
  O         4.5044031508        0.0403687391        3.4158886741
  O         5.2335067355        3.5395680202        6.8841486383
  O         1.2294805722        3.5509350437        1.0357549250
  O         5.1520926425        3.5040173451        4.5040755408
  O         1.3122211973        3.5065367570        3.4156434372
 Ca         2.2715508263        7.0593987928        2.2585242771
 Ca         4.1915854786        7.0524496770        5.6648338769
 Ca         5.4628555251       10.6008012015        2.2657263465
 Ca         1.0009207483       10.5946714809        5.6668228606
  S         1.0984443177        7.0467300940        5.7323026574
  S         5.3651276536        7.0679733352        2.1871925739
  S         4.2933332008       10.5809396358        5.7655846987
  S         2.1727404830       10.5934063197        2.1870552853
  O         0.1845173611       12.9169991549        5.7228573552
  O         6.2739365607       12.9357541038        2.2038118590
  O         6.2729784874        8.2681375044        2.2054189257
  O         0.1949042348        8.2511313731        5.7211693903
  O         3.3869812365        9.3815688313        5.7720752765
  O         3.0806175997        9.3934321950        2.2049649059
  O         3.0784946857       11.7959627397        2.1952517964
  O         3.3780692136       11.7751006924        5.7843480204
  O         2.0315641114        7.0338843781        6.8782769873
  O         4.4312362299        7.0799658313        1.0414838058
  O         1.9667631023        7.0509487115        4.4990070936
  O         4.4983502315        7.0598350744        3.4209490341
  O         5.2415446365       10.5755311145        6.8959184097
  O         1.2386291679       10.5820616058        1.0416848576
  O         5.1428423615       10.6027365858        4.5165941356
  O         1.3061287897       10.6013078050        3.4210781505
 Ca         8.6508124238        0.0214109008        2.2573747257
 Ca        10.5797911044        0.0270834055        5.6638396314
 Ca        11.8430869398        3.5274622242        2.2580120328
 Ca         7.3845614131        3.5185969915        5.6658792219
  S         7.4860902547        0.0088847511        5.7486527346
  S        11.7457006208        0.0201129260        2.1746187888
  S        10.6778383873        3.5373552009        5.7476813423
  S         8.5537976073        3.5276486234        2.1751434732
  O         6.5837839401        5.8556585213        5.7727188503
  O        12.6545030947        5.8652954775        2.1965025016
  O        12.6508185363        1.2240948323        2.1500359719
  O         6.5697614127        1.1997766130        5.7770453357
  O         9.7610956368        2.3442396867        5.7785419234
  O         9.4594148583        2.3238310377        2.1511388402
  O         9.4659113061        4.7243308934        2.2037567668
  O         9.7714644189        4.7364680457        5.7178666545
  O         8.4273044107       -0.0060486483        6.8856023525
  O        10.8057412659       -0.0018936957        1.0359454921
  O         8.3429237790        0.0394217713        4.5057450452
  O        10.8876486219        0.0410311031        3.4157621921
  O        11.6208450056        3.5482676777        6.8842614035
  O         7.6136987614        3.5489579837        1.0365064157
  O        11.5339322223        3.5063078205        4.5049468628
  O         7.6960610552        3.5070991669        3.4163734539
 Ca         8.6556881125        7.0598500501        2.2617439883
 Ca        10.5765905791        7.0627257494        5.6621124824
 Ca        11.8476436595       10.6020974304        2.2618699326
 Ca         7.3879432947       10.5970761147        5.6653191244
  S         7.4844391122        7.0631954208        5.7457374325
  S        11.7491639821        7.0682075699        2.1870434559
  S        10.6767033837       10.5980941773        5.7455217225
  S         8.5562911262       10.5938515378        2.1872256934
  O         6.5794222856       12.9216099010        5.7197077816
  O        12.6577353264       12.9372681575        2.2032856710
  O        12.6569188025        8.2682936480        2.2044759535
  O         6.5735905663        8.2611197910        5.7177570326
  O         9.7648654540        9.4005000751        5.7174760500
  O         9.4642433286        9.3941487329        2.2052661125
  O         9.4615407059       11.7968357857        2.1965300543
  O         9.7762151474       11.8059037933        5.7721503457
  O         8.4259866594        7.0870798411        6.8839130631
  O        10.8152221964        7.0800786862        1.0413787357
  O         8.3430717794        7.0511034424        4.5041689833
  O        10.8817620210        7.0600109625        3.4203626951
  O        11.6183071424       10.5728713482        6.8838441266
  O         7.6222912669       10.5818513791        1.0418569531
  O        11.5351828967       10.6096632254        4.5041906359
  O         7.6889607848       10.6029458222        3.4214116619
      96
 i =       89, E =     -1777.7952517341
 Ca         2.2670135566        0.0208945125        2.2516185057
 Ca         4.1958943282       -0.0245222528        5.6645320665
 Ca         5.4589395507        3.5252986236        2.2577098891
 Ca         1.0040304528        3.5167131955        5.6619926473
  S         1.1015331538       -0.0070865819        5.7319344106
  S         5.3618811311        0.0189688690        2.1746271269
  S         4.2924210186        3.5160739415        5.7459146267
  S         2.1697381439        3.5279591607        2.1741240500
  O         0.1902719346        5.8472669155        5.7149899316
  O         6.2702395888        5.8651247064        2.1965683750
  O         6.2674171429        1.2223306857        2.1492607833
  O         0.1966262257        1.1952901326        5.7216583206
  O         3.3911386781        2.3090830149        5.7711861857
  O         3.0743577458        2.3233970272        2.1492362178
  O         3.0821184945        4.7242194426        2.2036004773
  O         3.3810523842        4.7141329656        5.7175637303
  O         2.0351800937       -0.0110806147        6.8761904807
  O         4.4222261334       -0.0033410299        1.0356314876
  O         1.9645508734       -0.0187589283        4.4942101107
  O         4.5043833269        0.0405263639        3.4158226914
  O         5.2329060521        3.5396459296        6.8840978887
  O         1.2294604498        3.5509500843        1.0357566621
  O         5.1522127412        3.5038696527        4.5042635608
  O         1.3122176060        3.5065425657        3.4155760945
 Ca         2.2715259069        7.0594530583        2.2585929656
 Ca         4.1917653412        7.0527479048        5.6648776744
 Ca         5.4626929484       10.6008301956        2.2662178997
 Ca         1.0004116402       10.5948194494        5.6666177146
  S         1.0983214355        7.0470816648        5.7324868882
  S         5.3650754958        7.0680974236        2.1871607839
  S         4.2935839065       10.5821167834        5.7664578266
  S         2.1727132373       10.5934023455        2.1871681308
  O         0.1844714484       12.9170605055        5.7228976106
  O         6.2739891385       12.9360405846        2.2037388716
  O         6.2725999512        8.2684354513        2.2045057808
  O         0.1946279800        8.2513036008        5.7217523978
  O         3.3856550710        9.3838862152        5.7723674098
  O         3.0804777581        9.3933697029        2.2045498072
  O         3.0785471268       11.7958991245        2.1953881479
  O         3.3790672357       11.7770160765        5.7848467650
  O         2.0313967029        7.0338218538        6.8785151277
  O         4.4311631350        7.0801311602        1.0414869045
  O         1.9666941751        7.0523379134        4.4992567624
  O         4.4980546879        7.0599197806        3.4207780803
  O         5.2398063389       10.5764644442        6.8983227145
  O         1.2387026886       10.5820169927        1.0417213283
  O         5.1434536983       10.6026178646        4.5174218997
  O         1.3061666132       10.6013949773        3.4212638800
 Ca         8.6508942502        0.0213123545        2.2572914784
 Ca        10.5798468890        0.0270982558        5.6636999877
 Ca        11.8430810643        3.5273737534        2.2577967023
 Ca         7.3848398062        3.5186131962        5.6657808475
  S         7.4861867385        0.0087472674        5.7486322427
  S        11.7456649672        0.0200595890        2.1745992463
  S        10.6777095234        3.5375606789        5.7477914605
  S         8.5537789281        3.5277042433        2.1751991707
  O         6.5839394725        5.8554061912        5.7724805006
  O        12.6544335998        5.8652630549        2.1963121864
  O        12.6507186522        1.2241512610        2.1499017006
  O         6.5698220226        1.1996140400        5.7773354867
  O         9.7612544881        2.3442526379        5.7784801661
  O         9.4591402546        2.3236379130        2.1509929846
  O         9.4660075336        4.7243196004        2.2038389107
  O         9.7711502879        4.7365274186        5.7183848763
  O         8.4273862262       -0.0060375671        6.8855875665
  O        10.8057230468       -0.0020808713        1.0359180620
  O         8.3428018300        0.0395986672        4.5055745275
  O        10.8876256831        0.0410754836        3.4157501063
  O        11.6207530454        3.5484904687        6.8843412365
  O         7.6139118174        3.5490671414        1.0364204227
  O        11.5336075574        3.5064581073        4.5048317588
  O         7.6961591292        3.5071117633        3.4165530607
 Ca         8.6555800968        7.0598489952        2.2616397108
 Ca        10.5765761600        7.0628907188        5.6621121926
 Ca        11.8476018062       10.6021178909        2.2619384756
 Ca         7.3873463178       10.5970430247        5.6654185971
  S         7.4843468572        7.0631110958        5.7458316831
  S        11.7492069453        7.0682379440        2.1870276402
  S        10.6767650589       10.5979755914        5.7454182305
  S         8.5562958201       10.5938005927        2.1872394763
  O         6.5795414422       12.9215328303        5.7195775995
  O        12.6577937942       12.9372778223        2.2034926383
  O        12.6571122910        8.2681987451        2.2051498390
  O         6.5733922594        8.2610237520        5.7177253703
  O         9.7646812753        9.4005082207        5.7174838159
  O         9.4642213591        9.3941172873        2.2053729398
  O         9.4614356844       11.7968587955        2.1963004021
  O         9.7764609070       11.8058290310        5.7718868735
  O         8.4259459589        7.0871757034        6.8839732478
  O        10.8152783557        7.0803366450        1.0413366828
  O         8.3430945443        7.0509551718        4.5043306122
  O        10.8819969412        7.0600453956        3.4205076586
  O        11.6180150860       10.5728011510        6.8839439567
  O         7.6222780634       10.5816037460        1.0419105536
  O        11.5358714580       10.6097275160        4.5045683685
  O         7.6888349017       10.6029256242        3.4214031985
      96
 i =       90, E =     -1777.7952882032
 Ca         2.2669485410        0.0209028701        2.2517967910
 Ca         4.1962747736       -0.0232620361        5.6647852098
 Ca         5.4588048965        3.5255490571        2.2575602249
 Ca         1.0043549375        3.5167879882        5.6619851217
  S         1.1016105080       -0.0070330567        5.7320022274
  S         5.3617644124        0.0192006156        2.1745537641
  S         4.2924553068        3.5165597423        5.7458277958
  S         2.1697305926        3.5279156629        2.1741123229
  O         0.1907551197        5.8474188768        5.7147904319
  O         6.2702002103        5.8651342281        2.1963289124
  O         6.2671714540        1.2227268423        2.1492135159
  O         0.1966011522        1.1952959617        5.7216766950
  O         3.3911372307        2.3096083803        5.7708375356
  O         3.0743857029        2.3233893740        2.1491161857
  O         3.0820956848        4.7242091520        2.2035676635
  O         3.3811879028        4.7147735212        5.7172741694
  O         2.0351849560       -0.0107777299        6.8762589882
  O         4.4221245111       -0.0032604646        1.0355708192
  O         1.9644616171       -0.0187917971        4.4941690503
  O         4.5044409058        0.0405424218        3.4158610370
  O         5.2325230335        3.5398377525        6.8843484581
  O         1.2295036183        3.5508579850        1.0356967482
  O         5.1521776849        3.5041036863        4.5041779030
  O         1.3122184818        3.5065258342        3.4155609101
 Ca         2.2714873806        7.0595194783        2.2588851070
 Ca         4.1918275111        7.0531137504        5.6650540479
 Ca         5.4625346967       10.6009233203        2.2669375848
 Ca         1.0002398507       10.5950034270        5.6665882692
  S         1.0982530854        7.0475751471        5.7327685260
  S         5.3651083507        7.0681462580        2.1871781141
  S         4.2934716742       10.5838661596        5.7684673190
  S         2.1727176703       10.5934382573        2.1872397595
  O         0.1844559492       12.9171259884        5.7229476672
  O         6.2740087619       12.9362522486        2.2038064620
  O         6.2726957179        8.2683891805        2.2047251418
  O         0.1939885202        8.2512721036        5.7219035872
  O         3.3852395458        9.3858056425        5.7731076929
  O         3.0805513489        9.3934622883        2.2046788729
  O         3.0785152141       11.7959645460        2.1952865322
  O         3.3801064063       11.7800405439        5.7855675505
  O         2.0313337303        7.0340002085        6.8788375035
  O         4.4312556208        7.0802497048        1.0414467965
  O         1.9666067767        7.0545882659        4.4995989478
  O         4.4980893712        7.0598836557        3.4208799361
  O         5.2374889790       10.5790389626        6.9022820209
  O         1.2388069005       10.5819645732        1.0417043241
  O         5.1436941337       10.6025141063        4.5192023434
  O         1.3061180599       10.6014420969        3.4213191290
 Ca         8.6509005089        0.0212495483        2.2571977311
 Ca        10.5800265563        0.0270674658        5.6636642417
 Ca        11.8431032402        3.5272177489        2.2576533421
 Ca         7.3852444999        3.5185917297        5.6657266322
  S         7.4863020758        0.0086667603        5.7486916694
  S        11.7455969851        0.0199661576        2.1745656841
  S        10.6777769747        3.5378460426        5.7479708120
  S         8.5537856847        3.5277414823        2.1751122015
  O         6.5840422660        5.8552959318        5.7724681819
  O        12.6546158664        5.8653721098        2.1963815590
  O        12.6507528908        1.2240750888        2.1497299087
  O         6.5698699316        1.1995377658        5.7775870901
  O         9.7614090368        2.3444430438        5.7785870498
  O         9.4588554136        2.3234042016        2.1504503178
  O         9.4660542343        4.7243411634        2.2039031947
  O         9.7712316408        4.7368115298        5.7187250758
  O         8.4277276477       -0.0061750796        6.8854787540
  O        10.8056903985       -0.0022260651        1.0358533497
  O         8.3428309190        0.0397603962        4.5056027615
  O        10.8877670253        0.0410103754        3.4158751367
  O        11.6208846010        3.5488609174        6.8844657328
  O         7.6139865781        3.5493925024        1.0363134016
  O        11.5339955140        3.5065465455        4.5051854490
  O         7.6962377364        3.5069927748        3.4165398419
 Ca         8.6556318359        7.0598607623        2.2616070274
 Ca        10.5767764653        7.0631121755        5.6621071590
 Ca        11.8476640454       10.6020868431        2.2619555127
 Ca         7.3868202103       10.5970158361        5.6657052081
  S         7.4843220754        7.0630763409        5.7458804601
  S        11.7493077956        7.0682686283        2.1870005108
  S        10.6769599374       10.5978023402        5.7454603305
  S         8.5562179922       10.5936902807        2.1872816968
  O         6.5797116863       12.9215180701        5.7195482804
  O        12.6576984092       12.9371827436        2.2034909638
  O        12.6570842817        8.2682818071        2.2048502899
  O         6.5731952491        8.2609867672        5.7177899942
  O         9.7647160435        9.4004159044        5.7173831636
  O         9.4641070117        9.3940363388        2.2053587540
  O         9.4614494026       11.7966769757        2.1962683098
  O         9.7767458596       11.8055541237        5.7715915356
  O         8.4259310872        7.0872668900        6.8839969492
  O        10.8153830891        7.0803495726        1.0412979941
  O         8.3430890199        7.0510798503        4.5043514805
  O        10.8819781686        7.0600514653        3.4204199678
  O        11.6180425453       10.5726732424        6.8840631555
  O         7.6221929180       10.5815635328        1.0419912235
  O        11.5359597128       10.6093495236        4.5045433108
  O         7.6887582165       10.6028290252        3.4215607448
      96
 i =       91, E =     -1777.7953658291
 Ca         2.2665702828        0.0210576188        2.2525121156
 Ca         4.1977006054       -0.0187626542        5.6655497959
 Ca         5.4582135021        3.5264430563        2.2570263371
 Ca         1.0053461730        3.5168499779        5.6622459249
  S         1.1018226500       -0.0066585771        5.7323078329
  S         5.3613145824        0.0201125001        2.1744239281
  S         4.2926006104        3.5182322105        5.7454357612
  S         2.1697312992        3.5277137849        2.1740843136
  O         0.1923662566        5.8479935793        5.7137688158
  O         6.2706072701        5.8656099112        2.1963446235
  O         6.2664952280        1.2241720047        2.1492756647
  O         0.1963990846        1.1955273293        5.7217839273
  O         3.3904690381        2.3118814592        5.7700869465
  O         3.0744706845        2.3232757542        2.1491098021
  O         3.0820759646        4.7241537549        2.2035489001
  O         3.3823533631        4.7174331755        5.7161321212
  O         2.0351227512       -0.0098771444        6.8765356475
  O         4.4220565451       -0.0024699824        1.0352520580
  O         1.9643854237       -0.0183594907        4.4943415874
  O         4.5042451378        0.0407800819        3.4158119225
  O         5.2319036864        3.5396762163        6.8846753676
  O         1.2296278112        3.5505144110        1.0355317884
  O         5.1522025564        3.5042436306        4.5039367677
  O         1.3121093445        3.5065162890        3.4154491721
 Ca         2.2714985503        7.0598445982        2.2599111546
 Ca         4.1919744898        7.0549378065        5.6656898206
 Ca         5.4620847302       10.6013877503        2.2701303730
 Ca         1.0000796531       10.5956730769        5.6667824281
  S         1.0980638628        7.0492933760        5.7336544453
  S         5.3653466451        7.0685008080        2.1873986668
  S         4.2929254754       10.5911559755        5.7769430735
  S         2.1726950475       10.5935770576        2.1874665941
  O         0.1844174437       12.9173970555        5.7230684297
  O         6.2739593179       12.9369959982        2.2038710090
  O         6.2728781911        8.2686124362        2.2044408748
  O         0.1918986895        8.2512824765        5.7228878617
  O         3.3848996678        9.3924508361        5.7753930987
  O         3.0806184528        9.3936620122        2.2047286897
  O         3.0786516935       11.7960480039        2.1956025794
  O         3.3848893653       11.7931139117        5.7894423812
  O         2.0312971055        7.0342328475        6.8796931343
  O         4.4315116617        7.0806134130        1.0416455424
  O         1.9664124988        7.0622849353        4.5008026824
  O         4.4979343245        7.0597810450        3.4210889266
  O         5.2298546600       10.5885654695        6.9175943011
  O         1.2389665171       10.5819679570        1.0417827665
  O         5.1439413953       10.6025332519        4.5264405916
  O         1.3060745604       10.6014913827        3.4216897061
 Ca         8.6505404023        0.0211533148        2.2569597708
 Ca        10.5805992113        0.0264896871        5.6636432694
 Ca        11.8434075622        3.5265075037        2.2576150983
 Ca         7.3861857664        3.5184444108        5.6656565043
  S         7.4866453741        0.0081590045        5.7485851803
  S        11.7452206865        0.0193729080        2.1743276661
  S        10.6788058612        3.5385859396        5.7484242703
  S         8.5536777626        3.5277702074        2.1743200397
  O         6.5841012667        5.8554468509        5.7721985366
  O        12.6548842915        5.8653418346        2.1960358993
  O        12.6507233288        1.2234191062        2.1493353041
  O         6.5697634464        1.1989302268        5.7769573646
  O         9.7623699167        2.3449974174        5.7785796230
  O         9.4581925025        2.3227676542        2.1489766214
  O         9.4662105538        4.7241873282        2.2031911046
  O         9.7720708644        4.7373934531        5.7203275416
  O         8.4280477165       -0.0059726217        6.8854220280
  O        10.8053703690       -0.0025624368        1.0356235601
  O         8.3432655868        0.0397702219        4.5056572330
  O        10.8875828391        0.0409032861        3.4158098417
  O        11.6219610722        3.5505598478        6.8848590885
  O         7.6140408713        3.5506095056        1.0355384072
  O        11.5351010610        3.5069145191        4.5054818010
  O         7.6963690630        3.5067301739        3.4160705081
 Ca         8.6559856095        7.0599574413        2.2616820184
 Ca        10.5775585261        7.0635228639        5.6619906811
 Ca        11.8476423607       10.6019092993        2.2618145127
 Ca         7.3856577367       10.5970035385        5.6671793024
  S         7.4843712893        7.0632230208        5.7461160820
  S        11.7496217983        7.0682547879        2.1868335969
  S        10.6768724038       10.5968946373        5.7454870079
  S         8.5558847571       10.5934584340        2.1875554645
  O         6.5803561885       12.9212087571        5.7195639417
  O        12.6574099910       12.9367118036        2.2033567355
  O        12.6574646061        8.2681863006        2.2047687786
  O         6.5727806157        8.2612674694        5.7183822916
  O         9.7658152677        9.3986065203        5.7173510586
  O         9.4638066118        9.3939177291        2.2053434625
  O         9.4613922270       11.7962463615        2.1963087576
  O         9.7760544351       11.8037817268        5.7710270087
  O         8.4259547846        7.0873479508        6.8841449756
  O        10.8157602268        7.0804974450        1.0410779732
  O         8.3432418258        7.0513226019        4.5045684302
  O        10.8822355230        7.0601243215        3.4203147364
  O        11.6172432144       10.5721723087        6.8845211446
  O         7.6219443469       10.5814007424        1.0423196446
  O        11.5358759754       10.6093233735        4.5045487521
  O         7.6883637511       10.6024608815        3.4222002431
      96
 i =       92, E =     -1777.7953245236
 Ca         2.2667988572        0.0209413643        2.2521044135
 Ca         4.1966691475       -0.0223218411        5.6649824329
 Ca         5.4586321034        3.5257276884        2.2575694319
 Ca         1.0046627277        3.5168217128        5.6620786868
  S         1.1017114381       -0.0069103687        5.7321100431
  S         5.3616838353        0.0193156539        2.1745318983
  S         4.2925937780        3.5167953072        5.7457878147
  S         2.1697378323        3.5278801501        2.1741177185
  O         0.1911456684        5.8476086044        5.7145310641
  O         6.2703557605        5.8652060630        2.1960601770
  O         6.2671398153        1.2229285407        2.1494085791
  O         0.1964942718        1.1953280668        5.7216442175
  O         3.3907380966        2.3102142034        5.7710269666
  O         3.0744289388        2.3233828431        2.1492051342
  O         3.0821567936        4.7241960826        2.2035379649
  O         3.3815812921        4.7152532942        5.7170708230
  O         2.0352737390       -0.0105798454        6.8762885898
  O         4.4221646800       -0.0030257722        1.0355061464
  O         1.9645181321       -0.0184346231        4.4942850449
  O         4.5044185186        0.0405146141        3.4158854668
  O         5.2327050907        3.5394363719        6.8843368776
  O         1.2295754981        3.5507247425        1.0356580128
  O         5.1519847718        3.5040539741        4.5039523597
  O         1.3122079562        3.5065680366        3.4155714734
 Ca         2.2714999575        7.0596383933        2.2591721935
 Ca         4.1919365972        7.0531600863        5.6652536765
 Ca         5.4624780489       10.6010106540        2.2676793464
 Ca         1.0004550407       10.5950561053        5.6666980283
  S         1.0983184984        7.0479905916        5.7327936789
  S         5.3651851168        7.0681800364        2.1872337008
  S         4.2936850135       10.5848090871        5.7701949868
  S         2.1727534882       10.5935277277        2.1872286020
  O         0.1845943711       12.9170434184        5.7230064836
  O         6.2740000190       12.9363114871        2.2038366800
  O         6.2728550522        8.2683415681        2.2048935084
  O         0.1934879259        8.2512418107        5.7220212679
  O         3.3859609251        9.3859848352        5.7727310679
  O         3.0806849178        9.3935966750        2.2048077112
  O         3.0786070558       11.7960621205        2.1953954458
  O         3.3824151426       11.7831159753        5.7872522098
  O         2.0313965571        7.0341870630        6.8788887962
  O         4.4313516550        7.0802571861        1.0415008190
  O         1.9664996876        7.0559956960        4.4995679734
  O         4.4981365379        7.0597291829        3.4209706522
  O         5.2375447047       10.5791292576        6.9048411205
  O         1.2388403863       10.5820551573        1.0417207454
  O         5.1433802018       10.6022503490        4.5201621185
  O         1.3060917129       10.6014002324        3.4213424918
 Ca         8.6507379952        0.0213993278        2.2571926804
 Ca        10.5802200365        0.0266981702        5.6636878477
 Ca        11.8431784031        3.5271607838        2.2577478565
 Ca         7.3853865861        3.5184996887        5.6657299115
  S         7.4863804204        0.0084417908        5.7486634766
  S        11.7455115508        0.0198509324        2.1744937207
  S        10.6784794178        3.5380050877        5.7481116075
  S         8.5537793611        3.5278292967        2.1748389404
  O         6.5838382393        5.8555466306        5.7725437956
  O        12.6546730734        5.8653273722        2.1962653823
  O        12.6507733798        1.2239317489        2.1497045150
  O         6.5697299642        1.1992218582        5.7771872837
  O         9.7621865174        2.3444994328        5.7786807296
  O         9.4588520949        2.3235226815        2.1504264129
  O         9.4660834888        4.7243914289        2.2036359704
  O         9.7717127444        4.7369066483        5.7191299777
  O         8.4277813924       -0.0061395378        6.8854550181
  O        10.8055762494       -0.0021041384        1.0358077058
  O         8.3430326893        0.0395523510        4.5056719888
  O        10.8878079810        0.0408527952        3.4159346066
  O        11.6215984877        3.5495921883        6.8845884584
  O         7.6139396935        3.5497507812        1.0361094014
  O        11.5346506047        3.5067164950        4.5053444242
  O         7.6962065004        3.5069954605        3.4163066922
 Ca         8.6557500010        7.0599761451        2.2617060769
 Ca        10.5771160421        7.0630883290        5.6620732648
 Ca        11.8476293784       10.6020043222        2.2618718887
 Ca         7.3869357543       10.5969566602        5.6661653552
  S         7.4843950698        7.0631585526        5.7459598922
  S        11.7493129653        7.0682151000        2.1869515800
  S        10.6769889455       10.5974561838        5.7456513984
  S         8.5561513707       10.5937372744        2.1873630330
  O         6.5799298197       12.9212882816        5.7196907343
  O        12.6576173845       12.9370867812        2.2034353521
  O        12.6571063684        8.2682453659        2.2046369116
  O         6.5731337178        8.2611134900        5.7178924076
  O         9.7653170575        9.3997338720        5.7175962411
  O         9.4641115624        9.3941093050        2.2052690490
  O         9.4615050456       11.7966661881        2.1964157898
  O         9.7764796436       11.8048096555        5.7721702233
  O         8.4258370285        7.0870885968        6.8841632442
  O        10.8154714896        7.0802361567        1.0412156836
  O         8.3431567046        7.0511903595        4.5044097058
  O        10.8818760653        7.0600279150        3.4203226087
  O        11.6181682108       10.5723521168        6.8841064348
  O         7.6221822900       10.5816726910        1.0420628918
  O        11.5356720012       10.6096740285        4.5044636866
  O         7.6887259592       10.6027405870        3.4217449777
      96
 i =       93, E =     -1777.7953481332
 Ca         2.2668817089        0.0209427991        2.2520599558
 Ca         4.1970728336       -0.0213100515        5.6650237273
 Ca         5.4586485202        3.5258382390        2.2575324435
 Ca         1.0044671796        3.5167849427        5.6620226469
  S         1.1016923579       -0.0068264467        5.7320722393
  S         5.3616813753        0.0195413807        2.1745493925
  S         4.2926300430        3.5170018029        5.7455752839
  S         2.1697478575        3.5278995422        2.1740988738
  O         0.1913403752        5.8475012521        5.7147619083
  O         6.2702839699        5.8652735954        2.1961314580
  O         6.2671211762        1.2232075574        2.1494366822
  O         0.1964556100        1.1954200581        5.7216132652
  O         3.3907672698        2.3104449129        5.7706769571
  O         3.0744376700        2.3234080091        2.1491029012
  O         3.0821767768        4.7242250178        2.2035549748
  O         3.3814359045        4.7153701258        5.7171185512
  O         2.0352024333       -0.0104836623        6.8762530730
  O         4.4220924384       -0.0028521938        1.0355578919
  O         1.9644215164       -0.0185274599        4.4942040700
  O         4.5044758070        0.0405058929        3.4159085339
  O         5.2327005249        3.5397704691        6.8841348141
  O         1.2295270312        3.5507331360        1.0356836991
  O         5.1520725957        3.5043284377        4.5037840151
  O         1.3122481517        3.5065910892        3.4155614553
 Ca         2.2714714910        7.0595018959        2.2590156378
 Ca         4.1917150590        7.0539847643        5.6651878667
 Ca         5.4624738357       10.6011167538        2.2683662397
 Ca         1.0003555624       10.5951856205        5.6668591382
  S         1.0981808147        7.0481108392        5.7329189930
  S         5.3650729779        7.0682217651        2.1871781187
  S         4.2935097669       10.5871284669        5.7717011917
  S         2.1727933750       10.5935130474        2.1872019828
  O         0.1845762779       12.9171068110        5.7230000279
  O         6.2739418454       12.9364532753        2.2037089166
  O         6.2726494131        8.2684439715        2.2048458392
  O         0.1932203135        8.2512164924        5.7220872973
  O         3.3848005466        9.3888662525        5.7739264512
  O         3.0806862157        9.3935576299        2.2047647340
  O         3.0785991763       11.7960821542        2.1953879850
  O         3.3842399034       11.7872175744        5.7897673346
  O         2.0312905039        7.0342382886        6.8789528576
  O         4.4311447985        7.0801446254        1.0415318470
  O         1.9667274595        7.0565913863        4.4999633511
  O         4.4980205400        7.0598281950        3.4209324474
  O         5.2376539302       10.5797561865        6.9061656591
  O         1.2387995131       10.5820555438        1.0417616336
  O         5.1432246417       10.6030220901        4.5214027209
  O         1.3060767447       10.6013825056        3.4212718786
 Ca         8.6506558382        0.0212924660        2.2571759176
 Ca        10.5801904900        0.0268910864        5.6636963941
 Ca        11.8431829144        3.5270597438        2.2577143631
 Ca         7.3852255917        3.5184521363        5.6655504770
  S         7.4864445431        0.0084697767        5.7486731687
  S        11.7455837594        0.0198530886        2.1745394848
  S        10.6784488272        3.5380371201        5.7481389903
  S         8.5536840850        3.5278131517        2.1746397388
  O         6.5838780162        5.8553433504        5.7728110329
  O        12.6547356986        5.8653661170        2.1964042964
  O        12.6507941672        1.2239858626        2.1496375108
  O         6.5698189596        1.1993215763        5.7773163434
  O         9.7618211030        2.3447688713        5.7787139543
  O         9.4587078178        2.3234178559        2.1494128044
  O         9.4662225798        4.7242237353        2.2039742457
  O         9.7719106121        4.7370293367        5.7192603068
  O         8.4278125827       -0.0061424757        6.8854740917
  O        10.8056789210       -0.0024432653        1.0358510095
  O         8.3429539338        0.0395927809        4.5055819229
  O        10.8879005615        0.0408416591        3.4159803465
  O        11.6213559406        3.5493823779        6.8847414077
  O         7.6135936727        3.5503022805        1.0361274270
  O        11.5344747064        3.5064552190        4.5052451744
  O         7.6963853750        3.5068286004        3.4163450849
 Ca         8.6557116784        7.0598547215        2.2617467210
 Ca        10.5769191678        7.0631104652        5.6620780953
 Ca        11.8475459746       10.6020112084        2.2618917151
 Ca         7.3868989497       10.5969525089        5.6661937061
  S         7.4842890080        7.0630711441        5.7460234394
  S        11.7492960228        7.0681902337        2.1870055463
  S        10.6769510681       10.5975680535        5.7455774239
  S         8.5560787032       10.5937074317        2.1873650505
  O         6.5799670949       12.9213808678        5.7197426388
  O        12.6576995746       12.9370950350        2.2035446584
  O        12.6570257282        8.2682697785        2.2046961911
  O         6.5728370079        8.2609468119        5.7176942130
  O         9.7650245169        9.3999790366        5.7173698564
  O         9.4640669674        9.3941048979        2.2052911555
  O         9.4613958215       11.7966703666        2.1962869880
  O         9.7765083705       11.8049683639        5.7714776278
  O         8.4258713531        7.0872293385        6.8841053455
  O        10.8153861472        7.0800188907        1.0413088572
  O         8.3429607649        7.0512017707        4.5043941364
  O        10.8818962549        7.0600022510        3.4204043660
  O        11.6182632564       10.5725589106        6.8839929664
  O         7.6220326982       10.5816890320        1.0421392088
  O        11.5357250544       10.6092845380        4.5044344256
  O         7.6886328939       10.6027130808        3.4217834748
      96
 i =       94, E =     -1777.7949171105
 Ca         2.2675223663        0.0212350231        2.2520561078
 Ca         4.2026781384       -0.0070152878        5.6662781044
 Ca         5.4585652994        3.5274855050        2.2564428733
 Ca         1.0044247435        3.5164904343        5.6616046940
  S         1.1020587330       -0.0059858731        5.7319119478
  S         5.3613275509        0.0221091837        2.1745749705
  S         4.2927183711        3.5196461693        5.7427865222
  S         2.1697942894        3.5280638695        2.1739029440
  O         0.1937145356        5.8473912364        5.7154328573
  O         6.2699451346        5.8663194627        2.1960918684
  O         6.2667172548        1.2264410955        2.1496914032
  O         0.1958460096        1.1958243001        5.7212458596
  O         3.3893984545        2.3142769879        5.7660989771
  O         3.0746748534        2.3237717737        2.1480882887
  O         3.0823152521        4.7245935094        2.2037303591
  O         3.3802301880        4.7176882342        5.7176784442
  O         2.0346550644       -0.0084894404        6.8761787030
  O         4.4212039751       -0.0009413567        1.0358757669
  O         1.9637429057       -0.0187146961        4.4934501723
  O         4.5047690903        0.0409578190        3.4160165029
  O         5.2334492343        3.5410029367        6.8808375802
  O         1.2291951131        3.5507095217        1.0357804781
  O         5.1530281086        3.5068895112        4.5017850216
  O         1.3126079611        3.5068482647        3.4154528811
 Ca         2.2712530394        7.0584812570        2.2580080923
 Ca         4.1901019980        7.0624675029        5.6650980264
 Ca         5.4624678924       10.6024160882        2.2759281566
 Ca         0.9995907308       10.5969315226        5.6684307217
  S         1.0972066863        7.0502192221        5.7340745952
  S         5.3641291661        7.0688680667        2.1866098820
  S         4.2948144795       10.6141568180        5.7904784117
  S         2.1731746475       10.5935271924        2.1870576018
  O         0.1849897123       12.9173409060        5.7232604168
  O         6.2737031941       12.9384119031        2.2035684898
  O         6.2709075629        8.2695066914        2.2047811627
  O         0.1903555554        8.2513738201        5.7234071779
  O         3.3765261701        9.4204049528        5.7859588144
  O         3.0809515612        9.3935015104        2.2047586085
  O         3.0787971335       11.7963376324        2.1958566230
  O         3.4136564547       11.8395051671        5.8251275392
  O         2.0302937513        7.0355686167        6.8799173662
  O         4.4294992991        7.0798515556        1.0416571214
  O         1.9676821201        7.0643184261        4.5026105813
  O         4.4978217517        7.0606736804        3.4213117625
  O         5.2413957358       10.5866296131        6.9243270816
  O         1.2386308158       10.5819032925        1.0421409112
  O         5.1404822356       10.6110931470        4.5335146878
  O         1.3060546453       10.6015614158        3.4210128582
 Ca         8.6501461056        0.0202848833        2.2567518006
 Ca        10.5802867711        0.0282919610        5.6637754984
 Ca        11.8434632632        3.5260172458        2.2570858540
 Ca         7.3850279127        3.5178726533        5.6637614821
  S         7.4873127897        0.0084070749        5.7487616221
  S        11.7459610890        0.0194951708        2.1750120173
  S        10.6793467859        3.5391309641        5.7488198648
  S         8.5527249192        3.5281432963        2.1717224186
  O         6.5842059270        5.8534510859        5.7753338379
  O        12.6554573780        5.8654133127        2.1968505757
  O        12.6506581509        1.2242468326        2.1486999459
  O         6.5705810707        1.1998891958        5.7780844405
  O         9.7593636287        2.3482280573        5.7801868613
  O         9.4568004282        2.3226398781        2.1366311953
  O         9.4673993171        4.7231209937        2.2058729119
  O         9.7751532111        4.7392663244        5.7201674442
  O         8.4286243630       -0.0058835613        6.8854039042
  O        10.8065176876       -0.0059815782        1.0361879806
  O         8.3426575338        0.0397946948        4.5048591333
  O        10.8886692598        0.0403951712        3.4167208585
  O        11.6210712082        3.5486479567        6.8859707912
  O         7.6100136759        3.5569350401        1.0356628361
  O        11.5347416502        3.5044094831        4.5054472525
  O         7.6984173867        3.5045746459        3.4161293057
 Ca         8.6555700674        7.0589400294        2.2622187395
 Ca        10.5757448339        7.0634774084        5.6622386788
 Ca        11.8469824167       10.6021294442        2.2619712425
 Ca         7.3864451179       10.5968325867        5.6680270348
  S         7.4834761327        7.0621873413        5.7469795499
  S        11.7494739034        7.0678433795        2.1873502641
  S        10.6772011124       10.5978738664        5.7454663161
  S         8.5552535230       10.5933669528        2.1873213216
  O         6.5811117688       12.9218101260        5.7197975739
  O        12.6582204022       12.9368756019        2.2039671355
  O        12.6565322471        8.2684911488        2.2053258111
  O         6.5703562490        8.2596394181        5.7170254998
  O         9.7629768703        9.4015115421        5.7168359853
  O         9.4637172297        9.3941179192        2.2058478898
  O         9.4606871439       11.7963899383        2.1958574690
  O         9.7771755674       11.8052051214        5.7671727696
  O         8.4261614487        7.0880310405        6.8840172534
  O        10.8148783445        7.0783073431        1.0420901175
  O         8.3415472674        7.0512566123        4.5047338981
  O        10.8818276833        7.0598499692        3.4206485100
  O        11.6192301193       10.5731764753        6.8835948263
  O         7.6205177509       10.5816783657        1.0428354596
  O        11.5368657436       10.6063999763        4.5046962705
  O         7.6876164478       10.6024793249        3.4222585632
      96
 i =       95, E =     -1777.7953969741
 Ca         2.2670226161        0.0210266652        2.2519544031
 Ca         4.1981932713       -0.0186501703        5.6654218714
 Ca         5.4586737453        3.5260591394        2.2577151427
 Ca         1.0044329267        3.5167230796        5.6620187826
  S         1.1017612629       -0.0067171951        5.7320290298
  S         5.3617453187        0.0198436831        2.1746966765
  S         4.2928154077        3.5173731879        5.7457371817
  S         2.1697747945        3.5279418620        2.1741174945
  O         0.1914471669        5.8474090463        5.7145240596
  O         6.2702685870        5.8655127570        2.1961097659
  O         6.2672164352        1.2235382149        2.1497332698
  O         0.1963543417        1.1954494854        5.7215289171
  O         3.3908686578        2.3109904520        5.7707521129
  O         3.0744553932        2.3234972989        2.1491708875
  O         3.0821487276        4.7243153933        2.2036685501
  O         3.3814590693        4.7156466647        5.7170914646
  O         2.0351379203       -0.0101139369        6.8762098117
  O         4.4220825255       -0.0024512374        1.0357136795
  O         1.9643545585       -0.0183757155        4.4941187424
  O         4.5044080664        0.0406408620        3.4158861006
  O         5.2329864063        3.5403957070        6.8842153982
  O         1.2295432782        3.5507558715        1.0356879930
  O         5.1523273032        3.5046580414        4.5040462603
  O         1.3122500272        3.5065817163        3.4155231434
 Ca         2.2714738766        7.0593604798        2.2587311872
 Ca         4.1915518468        7.0551884411        5.6652027368
 Ca         5.4624983114       10.6013246820        2.2690655082
 Ca         0.9999339703       10.5953380316        5.6672069356
  S         1.0981227201        7.0481138296        5.7329380364
  S         5.3650086780        7.0683811993        2.1870787693
  S         4.2944755779       10.5909120116        5.7749893265
  S         2.1728834046       10.5935303433        2.1871933502
  O         0.1847367694       12.9170606684        5.7230175407
  O         6.2739572911       12.9366957529        2.2036043797
  O         6.2724964813        8.2686099164        2.2049470767
  O         0.1931700068        8.2511335795        5.7222022872
  O         3.3839435608        9.3935199428        5.7761266962
  O         3.0806773512        9.3935392677        2.2048469019
  O         3.0786445779       11.7961267949        2.1955523393
  O         3.3881443282       11.7938375030        5.7979277240
  O         2.0312961323        7.0343302250        6.8789015577
  O         4.4310406461        7.0802066203        1.0414765048
  O         1.9667373634        7.0567195296        4.5000405175
  O         4.4979711314        7.0599662598        3.4208859652
  O         5.2393067992       10.5804467340        6.9091789228
  O         1.2388100662       10.5820282430        1.0418152003
  O         5.1421420571       10.6055872107        4.5226788348
  O         1.3062123567       10.6014511329        3.4213361874
 Ca         8.6505995532        0.0212647856        2.2570853788
 Ca        10.5801520755        0.0273913442        5.6637638074
 Ca        11.8431287973        3.5269850525        2.2576297727
 Ca         7.3853205804        3.5184491177        5.6654834394
  S         7.4865289184        0.0084685169        5.7487329494
  S        11.7456899766        0.0198353019        2.1746246980
  S        10.6783198468        3.5381943651        5.7481517187
  S         8.5535799837        3.5279309634        2.1740845984
  O         6.5839815998        5.8551744623        5.7728955856
  O        12.6547716313        5.8652832924        2.1964227256
  O        12.6507857709        1.2240018294        2.1496042410
  O         6.5699636275        1.1994392092        5.7775211733
  O         9.7610860214        2.3453741740        5.7788726226
  O         9.4584141258        2.3234334972        2.1468532621
  O         9.4662544743        4.7241979369        2.2039135872
  O         9.7725910378        4.7376630877        5.7193216809
  O         8.4278926514       -0.0059844003        6.8855188632
  O        10.8058037294       -0.0028029698        1.0359280760
  O         8.3429259346        0.0397292433        4.5055728946
  O        10.8878116965        0.0410062403        3.4158983852
  O        11.6210112992        3.5490127209        6.8848739048
  O         7.6130633574        3.5513553709        1.0359882027
  O        11.5342019028        3.5059935502        4.5052415243
  O         7.6966240964        3.5064078873        3.4161083911
 Ca         8.6557594158        7.0597432168        2.2617723340
 Ca        10.5768271896        7.0631897718        5.6621321263
 Ca        11.8474795775       10.6020894828        2.2618882475
 Ca         7.3868649133       10.5968654545        5.6663816864
  S         7.4842362509        7.0630132350        5.7461333301
  S        11.7493985453        7.0681325979        2.1870711202
  S        10.6769229123       10.5977787422        5.7455477291
  S         8.5559843210       10.5937284210        2.1874007260
  O         6.5801759977       12.9213979973        5.7197204137
  O        12.6578182596       12.9371264009        2.2037097824
  O        12.6570941442        8.2682301309        2.2048838753
  O         6.5726941351        8.2608753103        5.7179368750
  O         9.7648374737        9.4002959466        5.7173272303
  O         9.4639724755        9.3941241475        2.2053361304
  O         9.4612807472       11.7967072129        2.1963613042
  O         9.7766235976       11.8052615584        5.7712436805
  O         8.4259588945        7.0873870025        6.8840734509
  O        10.8154233064        7.0798915024        1.0413864172
  O         8.3428351198        7.0512194857        4.5044661817
  O        10.8819290778        7.0599640884        3.4204251783
  O        11.6182418150       10.5726885824        6.8839999198
  O         7.6218883057       10.5816930756        1.0422139026
  O        11.5357870059       10.6089000402        4.5043845920
  O         7.6885150992       10.6026860205        3.4218683755
      96
 i =       96, E =     -1777.7952909486
 Ca         2.2669212929        0.0210261489        2.2520520249
 Ca         4.1958479878       -0.0248619386        5.6648561665
 Ca         5.4588152489        3.5254851473        2.2576869516
 Ca         1.0041103873        3.5167713284        5.6621406393
  S         1.1017719240       -0.0069982769        5.7320359118
  S         5.3618389639        0.0188610728        2.1742482031
  S         4.2926247489        3.5163472646        5.7465242057
  S         2.1696374997        3.5279166364        2.1741532933
  O         0.1907063626        5.8473208345        5.7149802107
  O         6.2703775452        5.8651936544        2.1959569820
  O         6.2673114810        1.2223910562        2.1483763761
  O         0.1965115217        1.1952115981        5.7217549696
  O         3.3912431604        2.3094528118        5.7716302578
  O         3.0744168850        2.3234728096        2.1493165195
  O         3.0820757825        4.7241701956        2.2034014832
  O         3.3819613347        4.7149013686        5.7167696450
  O         2.0353955706       -0.0108565272        6.8762227790
  O         4.4222842476       -0.0034671921        1.0352905986
  O         1.9645004648       -0.0184672694        4.4941273107
  O         4.5046082858        0.0406029090        3.4157481251
  O         5.2319705920        3.5393800064        6.8856786023
  O         1.2295172517        3.5507182874        1.0356690706
  O         5.1512231343        3.5032587937        4.5040708946
  O         1.3122118469        3.5065852139        3.4157345068
 Ca         2.2715656259        7.0598123083        2.2592351415
 Ca         4.1922241683        7.0512402849        5.6649493781
 Ca         5.4623800616       10.6008761726        2.2668092762
 Ca         1.0009197700       10.5947682376        5.6663210978
  S         1.0985051733        7.0473212268        5.7326420707
  S         5.3652890674        7.0682060725        2.1872869222
  S         4.2922254584       10.5806750802        5.7653609144
  S         2.1726537171       10.5935476990        2.1872776194
  O         0.1846272539       12.9169680537        5.7229411210
  O         6.2741468447       12.9359901151        2.2040718042
  O         6.2730129387        8.2683388979        2.2047856304
  O         0.1942174208        8.2510486597        5.7221198927
  O         3.3897323520        9.3780451480        5.7686906296
  O         3.0805293005        9.3935876062        2.2043844198
  O         3.0785147164       11.7960515861        2.1953530376
  O         3.3774203205       11.7763740481        5.7748555574
  O         2.0316391550        7.0337051162        6.8787125445
  O         4.4314829773        7.0803145525        1.0415194503
  O         1.9665101374        7.0540789674        4.4992977012
  O         4.4982206289        7.0594895012        3.4209212810
  O         5.2347417858       10.5793271732        6.9010607558
  O         1.2389211838       10.5821595822        1.0416009047
  O         5.1453658740       10.5987274166        4.5185193281
  O         1.3061498072       10.6014447346        3.4214981690
 Ca         8.6510034287        0.0219120486        2.2572589514
 Ca        10.5801999459        0.0259753661        5.6635688010
 Ca        11.8431295126        3.5275267433        2.2581140729
 Ca         7.3851140365        3.5187711532        5.6660941243
  S         7.4864128599        0.0083953974        5.7486695688
  S        11.7455308686        0.0201320413        2.1744325548
  S        10.6778946053        3.5377222425        5.7482213999
  S         8.5538540190        3.5280628458        2.1759876905
  O         6.5834928863        5.8560364441        5.7719900805
  O        12.6545073647        5.8654484937        2.1963019623
  O        12.6509071120        1.2240931090        2.1500502265
  O         6.5697667511        1.1991164643        5.7772681845
  O         9.7621195221        2.3437564724        5.7779880316
  O         9.4590697050        2.3240674828        2.1546949275
  O         9.4659486302        4.7247291002        2.2038008476
  O         9.7705096959        4.7364385431        5.7197065290
  O         8.4277334528       -0.0062848020        6.8855468732
  O        10.8054250145       -0.0011267929        1.0357914252
  O         8.3428787353        0.0395336479        4.5055240054
  O        10.8876965510        0.0410555286        3.4157693177
  O        11.6210919682        3.5492482176        6.8847294884
  O         7.6147586744        3.5485273015        1.0365640934
  O        11.5339495290        3.5074910401        4.5053333513
  O         7.6956607673        3.5081204652        3.4169195033
 Ca         8.6557219342        7.0602060024        2.2615912443
 Ca        10.5771954320        7.0627459918        5.6620752635
 Ca        11.8477949254       10.6020279645        2.2620676967
 Ca         7.3868649640       10.5969328726        5.6656368908
  S         7.4844717448        7.0633127108        5.7457201530
  S        11.7492190646        7.0683861885        2.1869353266
  S        10.6769173527       10.5969516043        5.7456851070
  S         8.5563337570       10.5939086946        2.1873760017
  O         6.5796308649       12.9213697469        5.7200475490
  O        12.6575681651       12.9373211765        2.2033657604
  O        12.6571654506        8.2682878267        2.2046429690
  O         6.5734002068        8.2613428560        5.7175511978
  O         9.7659208632        9.3988593654        5.7172160749
  O         9.4642418642        9.3942077499        2.2053131128
  O         9.4613425435       11.7970722554        2.1963236255
  O         9.7764260834       11.8042123252        5.7725935233
  O         8.4256367096        7.0869582438        6.8841373219
  O        10.8154657938        7.0806429469        1.0411374563
  O         8.3432872061        7.0511808915        4.5042605947
  O        10.8820507389        7.0600435265        3.4204864380
  O        11.6185810574       10.5723806136        6.8837977871
  O         7.6224680132       10.5817313606        1.0419511720
  O        11.5356491585       10.6101211515        4.5045786549
  O         7.6885486789       10.6026454575        3.4213831301
      96
 i =       97, E =     -1777.7953131409
 Ca         2.2670028821        0.0209688510        2.2519151591
 Ca         4.1970569005       -0.0217645237        5.6649540227
 Ca         5.4587208523        3.5256734497        2.2578610856
 Ca         1.0043372750        3.5167407768        5.6619873090
  S         1.1017372842       -0.0068730638        5.7320170568
  S         5.3618307860        0.0193044382        2.1746227603
  S         4.2926114813        3.5166855522        5.7462532341
  S         2.1697607992        3.5279598152        2.1741405048
  O         0.1908059314        5.8474065229        5.7144271643
  O         6.2702933692        5.8652951977        2.1961002656
  O         6.2672698592        1.2229043873        2.1494244937
  O         0.1964387213        1.1953460171        5.7216049623
  O         3.3907565592        2.3101502101        5.7714868936
  O         3.0744492510        2.3234997486        2.1493075237
  O         3.0821426752        4.7242855995        2.2036268716
  O         3.3816045176        4.7150612819        5.7170506627
  O         2.0352832573       -0.0105852987        6.8761762362
  O         4.4221724151       -0.0029022639        1.0356750670
  O         1.9644855210       -0.0183346464        4.4942003649
  O         4.5044462402        0.0405343330        3.4158746575
  O         5.2326479022        3.5398532974        6.8848710066
  O         1.2295547037        3.5507753932        1.0357159818
  O         5.1520411656        3.5039382830        4.5044458000
  O         1.3121643467        3.5065330493        3.4155300520
 Ca         2.2714949434        7.0595596779        2.2588766439
 Ca         4.1919640311        7.0532911014        5.6651075224
 Ca         5.4625121508       10.6010454810        2.2676007626
 Ca         1.0002367767       10.5950301881        5.6666756024
  S         1.0982962619        7.0476019209        5.7327790474
  S         5.3651139660        7.0682394186        2.1871421765
  S         4.2939123693       10.5853860453        5.7696620875
  S         2.1728171165       10.5935263758        2.1871831637
  O         0.1847425364       12.9169411961        5.7229501305
  O         6.2740135705       12.9362828854        2.2037429631
  O         6.2727193149        8.2684374251        2.2049728185
  O         0.1938206007        8.2510990445        5.7220639955
  O         3.3863939526        9.3859604774        5.7728377621
  O         3.0806803937        9.3935663547        2.2048764150
  O         3.0786046717       11.7960974165        2.1954180648
  O         3.3832123945       11.7844825746        5.7848841000
  O         2.0314200414        7.0341138973        6.8788068976
  O         4.4312517680        7.0802167058        1.0414447887
  O         1.9666075844        7.0547614337        4.4996523069
  O         4.4980517563        7.0597843006        3.4208344977
  O         5.2374780282       10.5803075470        6.9047104529
  O         1.2388087257       10.5820943588        1.0417489060
  O         5.1438242016       10.6022147153        4.5198537676
  O         1.3061635547       10.6013503774        3.4212990933
 Ca         8.6507552005        0.0215741528        2.2571658683
 Ca        10.5801758914        0.0268678747        5.6636882928
 Ca        11.8430500808        3.5273002433        2.2578104767
 Ca         7.3851254788        3.5185607621        5.6657300844
  S         7.4864060461        0.0084772329        5.7487151278
  S        11.7456267730        0.0199760342        2.1745341376
  S        10.6781188957        3.5378892091        5.7479986522
  S         8.5537606121        3.5279736779        2.1748334130
  O         6.5837428308        5.8556536429        5.7724553907
  O        12.6545691189        5.8652666063        2.1963511203
  O        12.6507939634        1.2240431280        2.1499222193
  O         6.5698073647        1.1993168455        5.7772851340
  O         9.7617535923        2.3444560680        5.7786301020
  O         9.4590013994        2.3239002685        2.1500060530
  O         9.4660507010        4.7244894199        2.2036114218
  O         9.7716763210        4.7370636834        5.7189849320
  O         8.4277476157       -0.0060204966        6.8855430254
  O        10.8056667558       -0.0019057481        1.0358454690
  O         8.3429560673        0.0395452150        4.5056629681
  O        10.8877583256        0.0409824254        3.4158289116
  O        11.6211186670        3.5490898148        6.8845662270
  O         7.6137468447        3.5500478171        1.0362488457
  O        11.5343299466        3.5066558745        4.5053497080
  O         7.6961761787        3.5070539575        3.4163003501
 Ca         8.6556535716        7.0599568442        2.2617225315
 Ca        10.5769206218        7.0629783677        5.6620661856
 Ca        11.8475612012       10.6020684107        2.2618635898
 Ca         7.3869572536       10.5969601152        5.6659851816
  S         7.4843376334        7.0632204972        5.7459385158
  S        11.7492894309        7.0682119690        2.1869918219
  S        10.6768651865       10.5977000560        5.7456037504
  S         8.5561551390       10.5938336894        2.1873843403
  O         6.5798954297       12.9213608964        5.7197172496
  O        12.6576877116       12.9372081532        2.2034673424
  O        12.6570936974        8.2682456784        2.2048173116
  O         6.5732390328        8.2612696166        5.7180610266
  O         9.7652395555        9.3999849567        5.7175618361
  O         9.4641005992        9.3941601159        2.2052139156
  O         9.4614174219       11.7968276117        2.1965877110
  O         9.7764540866       11.8051425729        5.7721572595
  O         8.4258252119        7.0871339648        6.8840943430
  O        10.8153729774        7.0801531059        1.0413010115
  O         8.3430824569        7.0511760417        4.5044180369
  O        10.8818052350        7.0600125312        3.4203144516
  O        11.6182510870       10.5725107969        6.8839689356
  O         7.6221540948       10.5817594420        1.0420863606
  O        11.5356003349       10.6097893896        4.5043912741
  O         7.6887530629       10.6027441625        3.4217526017
      96
 i =       98, E =     -1777.7953904632
 Ca         2.2669782638        0.0209579430        2.2520751715
 Ca         4.1987575261       -0.0170293540        5.6656881730
 Ca         5.4586496138        3.5261431617        2.2578020541
 Ca         1.0043501703        3.5165824330        5.6621114513
  S         1.1019090912       -0.0066120008        5.7319344482
  S         5.3618614683        0.0200054721        2.1747051950
  S         4.2928144576        3.5178190149        5.7455987481
  S         2.1697498032        3.5279611094        2.1741588023
  O         0.1917055823        5.8472586634        5.7150406752
  O         6.2701665452        5.8655567537        2.1960473278
  O         6.2673731529        1.2236753032        2.1497852633
  O         0.1962837081        1.1954311245        5.7214947773
  O         3.3908488221        2.3114854345        5.7704563086
  O         3.0744503934        2.3235671532        2.1492676443
  O         3.0821281592        4.7243184862        2.2035257971
  O         3.3815865532        4.7160545786        5.7168095964
  O         2.0351436430       -0.0097863769        6.8761606804
  O         4.4221490484       -0.0022492120        1.0357198014
  O         1.9642871769       -0.0180355579        4.4939298730
  O         4.5044736820        0.0408875693        3.4158061125
  O         5.2331438458        3.5406064745        6.8839566336
  O         1.2296252482        3.5508518380        1.0356519597
  O         5.1518717276        3.5048153878        4.5035771205
  O         1.3124064580        3.5066762282        3.4157056340
 Ca         2.2713623858        7.0593250523        2.2588041986
 Ca         4.1911599328        7.0558320592        5.6652351855
 Ca         5.4624133346       10.6015020905        2.2693689036
 Ca         1.0000291377       10.5955672154        5.6672313766
  S         1.0981920537        7.0481007829        5.7328576355
  S         5.3649375874        7.0684165992        2.1871559571
  S         4.2946921839       10.5939209621        5.7764904450
  S         2.1728727015       10.5935314437        2.1872487205
  O         0.1848514827       12.9171238308        5.7230374924
  O         6.2740875608       12.9368725974        2.2037761354
  O         6.2725053088        8.2685692651        2.2050062482
  O         0.1931563760        8.2510259432        5.7221196654
  O         3.3827878544        9.3971759476        5.7774708284
  O         3.0805936166        9.3935052737        2.2045666463
  O         3.0787269845       11.7960512992        2.1957646838
  O         3.3901723467       11.7986564833        5.8005633037
  O         2.0313541080        7.0344242098        6.8787911967
  O         4.4310791756        7.0802580948        1.0414964124
  O         1.9664984239        7.0569158141        4.4997056413
  O         4.4979685010        7.0599880544        3.4210206030
  O         5.2394896195       10.5803441638        6.9108605110
  O         1.2389009447       10.5820413098        1.0418060493
  O         5.1415318732       10.6064764842        4.5233920489
  O         1.3062922530       10.6015229030        3.4214750602
 Ca         8.6505870233        0.0211519218        2.2570921981
 Ca        10.5802430245        0.0275254809        5.6637461513
 Ca        11.8431031553        3.5269752601        2.2576766215
 Ca         7.3852733977        3.5184546818        5.6655684045
  S         7.4866212746        0.0086090889        5.7487776282
  S        11.7457847191        0.0198499243        2.1746103912
  S        10.6784753531        3.5380115613        5.7482334614
  S         8.5536022719        3.5280868494        2.1737549734
  O         6.5839479468        5.8551635552        5.7729801973
  O        12.6547486032        5.8653018046        2.1965442144
  O        12.6508387922        1.2239888045        2.1494839913
  O         6.5700596316        1.1996592620        5.7776178997
  O         9.7612086092        2.3452630644        5.7788307286
  O         9.4580406598        2.3233581947        2.1458403498
  O         9.4663366292        4.7242754685        2.2041104654
  O         9.7729549294        4.7375698186        5.7194504470
  O         8.4280843408       -0.0058971816        6.8854765623
  O        10.8058754427       -0.0031042878        1.0359375800
  O         8.3429461871        0.0398976003        4.5055741413
  O        10.8879435655        0.0409851833        3.4159308623
  O        11.6212339683        3.5487079535        6.8848921044
  O         7.6128945985        3.5519086794        1.0358577472
  O        11.5340586517        3.5059114027        4.5051452950
  O         7.6967841707        3.5062295484        3.4159103451
 Ca         8.6558421723        7.0597233046        2.2616818536
 Ca        10.5769154317        7.0631126613        5.6621445734
 Ca        11.8475827682       10.6021484292        2.2618784759
 Ca         7.3870662903       10.5969952169        5.6665327299
  S         7.4842361904        7.0629360191        5.7461544984
  S        11.7492738595        7.0680732684        2.1871154014
  S        10.6767364104       10.5976939262        5.7454581713
  S         8.5560177184       10.5938084649        2.1874047461
  O         6.5803005142       12.9215794377        5.7198791743
  O        12.6579386916       12.9371915121        2.2039345077
  O        12.6569502634        8.2681732135        2.2045698068
  O         6.5723878273        8.2606297697        5.7173790140
  O         9.7647388282        9.4002001928        5.7172259696
  O         9.4640596187        9.3942195529        2.2055832958
  O         9.4611384130       11.7969219763        2.1961690461
  O         9.7765576757       11.8052701057        5.7710468525
  O         8.4258198282        7.0872999341        6.8841990915
  O        10.8155049019        7.0799380206        1.0412830444
  O         8.3428047826        7.0512872461        4.5045004427
  O        10.8818450178        7.0599216751        3.4204915482
  O        11.6180405848       10.5728755352        6.8839670679
  O         7.6219433261       10.5816941324        1.0422195404
  O        11.5359056072       10.6087165375        4.5045119635
  O         7.6882144798       10.6026148853        3.4216560857
      96
 i =       99, E =     -1777.7953302573
 Ca         2.2670067977        0.0209535636        2.2519594987
 Ca         4.1973553348       -0.0207942418        5.6651229140
 Ca         5.4587256973        3.5257562529        2.2578756754
 Ca         1.0042802546        3.5166829514        5.6620377571
  S         1.1018082601       -0.0068074988        5.7319709876
  S         5.3618349192        0.0194314129        2.1746092498
  S         4.2926705037        3.5169873378        5.7461622815
  S         2.1697413556        3.5279661754        2.1741544446
  O         0.1909969334        5.8473474132        5.7146241544
  O         6.2702701128        5.8653449700        2.1960886201
  O         6.2673104706        1.2230156642        2.1494030045
  O         0.1963970540        1.1953457850        5.7215827262
  O         3.3908593175        2.3104545971        5.7713484693
  O         3.0744339332        2.3235261638        2.1492848413
  O         3.0821357363        4.7242814251        2.2036114362
  O         3.3816552745        4.7153153491        5.7169316924
  O         2.0352765300       -0.0103897916        6.8761579686
  O         4.4221705362       -0.0028099028        1.0356447824
  O         1.9644093656       -0.0182198651        4.4940770409
  O         4.5044700460        0.0406421212        3.4158457192
  O         5.2327112583        3.5400847052        6.8847697388
  O         1.2295694373        3.5508297054        1.0356994039
  O         5.1519188413        3.5040778939        4.5042276713
  O         1.3122248795        3.5065846024        3.4156032788
 Ca         2.2714593947        7.0595295552        2.2588883551
 Ca         4.1917578916        7.0537833354        5.6651296258
 Ca         5.4624819755       10.6011401234        2.2678736157
 Ca         1.0002704319       10.5951651135        5.6667667100
  S         1.0982925777        7.0476731403        5.7327638506
  S         5.3650921382        7.0682710070        2.1871727354
  S         4.2939261334       10.5872035231        5.7707869162
  S         2.1728018674       10.5935281947        2.1872049196
  O         0.1847830157       12.9169998834        5.7229611951
  O         6.2740239479       12.9364048265        2.2037550323
  O         6.2727012108        8.2684481085        2.2049483935
  O         0.1937360614        8.2510799068        5.7220660163
  O         3.3855712791        9.3882573050        5.7736861345
  O         3.0806300013        9.3935540772        2.2047372596
  O         3.0786111699       11.7960739886        2.1954568483
  O         3.3844352549       11.7874136281        5.7872321672
  O         2.0314340736        7.0341465380        6.8787627357
  O         4.4312283000        7.0802294784        1.0414821046
  O         1.9666041507        7.0551082690        4.4996312420
  O         4.4980670596        7.0598140086        3.4209110523
  O         5.2376231215       10.5802336286        6.9058095797
  O         1.2388413079       10.5820759599        1.0417336198
  O         5.1433990295       10.6029185050        4.5205093011
  O         1.3061987821       10.6014062396        3.4213682737
 Ca         8.6507623312        0.0215113313        2.2571566982
 Ca        10.5801968862        0.0269548632        5.6636837337
 Ca        11.8430653161        3.5272768680        2.2577983260
 Ca         7.3851459266        3.5185592359        5.6657405317
  S         7.4864738531        0.0085262957        5.7487290379
  S        11.7456612682        0.0199961044        2.1745421773
  S        10.6781797156        3.5378249572        5.7480746194
  S         8.5537155060        3.5280275798        2.1746722117
  O         6.5837710801        5.8555727137        5.7725402481
  O        12.6545845673        5.8652845908        2.1963709661
  O        12.6507945964        1.2240745937        2.1498085899
  O         6.5698824182        1.1994121629        5.7774280422
  O         9.7616449622        2.3445233775        5.7785869632
  O         9.4587162601        2.3237917030        2.1494039318
  O         9.4660960016        4.7244681272        2.2037423897
  O         9.7719124113        4.7370704700        5.7191761216
  O         8.4278491571       -0.0060079708        6.8855242323
  O        10.8056792881       -0.0021370214        1.0358740487
  O         8.3429277964        0.0396544653        4.5056097770
  O        10.8877907239        0.0410055429        3.4158425017
  O        11.6211328322        3.5489220553        6.8846703483
  O         7.6136185832        3.5504171610        1.0361770257
  O        11.5341843073        3.5065069112        4.5052799007
  O         7.6962809082        3.5069568668        3.4162726206
 Ca         8.6557044444        7.0599336540        2.2616900225
 Ca        10.5769617661        7.0629651919        5.6620987204
 Ca        11.8476149148       10.6020926824        2.2618874628
 Ca         7.3869918694       10.5969871853        5.6660994278
  S         7.4843286022        7.0631525738        5.7459755632
  S        11.7492746790        7.0681953866        2.1870245061
  S        10.6768446821       10.5976248210        5.7455696237
  S         8.5561418321       10.5938532407        2.1873911071
  O         6.5799722826       12.9214465184        5.7198150750
  O        12.6577389814       12.9372527894        2.2035987371
  O        12.6570787906        8.2682171566        2.2047862729
  O         6.5730556926        8.2611174922        5.7178750705
  O         9.7651804515        9.3999498268        5.7174363080
  O         9.4641058355        9.3941935811        2.2052962171
  O         9.4613244639       11.7969066975        2.1964388883
  O         9.7764751442       11.8050841924        5.7719150138
  O         8.4257998744        7.0871482683        6.8841406245
  O        10.8153988656        7.0801479123        1.0412945213
  O         8.3430306215        7.0512128447        4.5044310453
  O        10.8818515907        7.0599877318        3.4203946453
  O        11.6182608657       10.5726443432        6.8839441617
  O         7.6221396981       10.5817368844        1.0421014023
  O        11.5356757351       10.6094976000        4.5044263359
  O         7.6885976869       10.6027043418        3.4216887372
      96
 i =      100, E =     -1777.7953516983
 Ca         2.2670774803        0.0209932743        2.2519545165
 Ca         4.1977353097       -0.0197222311        5.6652310242
 Ca         5.4587299001        3.5258420473        2.2578317761
 Ca         1.0042512002        3.5166343960        5.6620153022
  S         1.1018329950       -0.0067751946        5.7319478058
  S         5.3617725510        0.0195255648        2.1746263552
  S         4.2926572954        3.5171970477        5.7461098506
  S         2.1697363001        3.5279865867        2.1741528993
  O         0.1910722144        5.8473401392        5.7146486542
  O         6.2702577822        5.8654100714        2.1960680030
  O         6.2672397133        1.2231378446        2.1494541177
  O         0.1963096596        1.1953194490        5.7215286215
  O         3.3907537099        2.3107279131        5.7712592101
  O         3.0744616946        2.3235772527        2.1491973723
  O         3.0821379432        4.7243114260        2.2036263516
  O         3.3815689509        4.7154872670        5.7169222400
  O         2.0352474402       -0.0102245963        6.8761366164
  O         4.4220976938       -0.0027026121        1.0356663569
  O         1.9643415204       -0.0182524687        4.4940081870
  O         4.5044907227        0.0405799834        3.4159094089
  O         5.2326023270        3.5402280366        6.8847890880
  O         1.2295528593        3.5508430501        1.0357085244
  O         5.1519982366        3.5041170965        4.5042512094
  O         1.3121894410        3.5065998735        3.4155705501
 Ca         2.2714459366        7.0594657186        2.2588267578
 Ca         4.1917511270        7.0542145817        5.6651395159
 Ca         5.4625229788       10.6011944266        2.2681943700
 Ca         1.0002808684       10.5952325663        5.6668796108
  S         1.0982179500        7.0477690952        5.7328357404
  S         5.3650552686        7.0683182432        2.1871344024
  S         4.2941070986       10.5884063362        5.7717817533
  S         2.1728243476       10.5935451286        2.1872013404
  O         0.1848451952       12.9169580577        5.7229573617
  O         6.2739368523       12.9364624603        2.2036806518
  O         6.2725967327        8.2685377527        2.2048643381
  O         0.1936080092        8.2511152384        5.7221348108
  O         3.3854740975        9.3895052349        5.7740179110
  O         3.0806598082        9.3935722115        2.2047635973
  O         3.0786015256       11.7961223805        2.1954597050
  O         3.3860763876       11.7898839943        5.7902061924
  O         2.0314030693        7.0340828656        6.8788045936
  O         4.4311305089        7.0802144438        1.0415005902
  O         1.9668501759        7.0555689056        4.4999439061
  O         4.4979878949        7.0598347533        3.4208639361
  O         5.2380795514       10.5803219091        6.9066720052
  O         1.2388354580       10.5820704250        1.0417544174
  O         5.1433124889       10.6034157428        4.5211808854
  O         1.3061273667       10.6014412769        3.4213028091
 Ca         8.6507541577        0.0215330811        2.2571069885
 Ca        10.5802310078        0.0269925284        5.6637259775
 Ca        11.8430728823        3.5272665227        2.2577334542
 Ca         7.3851504821        3.5185710353        5.6656341215
  S         7.4865289237        0.0085110272        5.7487282655
  S        11.7456348515        0.0200006287        2.1745684980
  S        10.6782779851        3.5379014969        5.7481101621
  S         8.5536353076        3.5280642144        2.1745269963
  O         6.5837701444        5.8555268299        5.7726446885
  O        12.6546101913        5.8653018116        2.1964279762
  O        12.6507507507        1.2240978606        2.1497848196
  O         6.5698840967        1.1994072516        5.7774831948
  O         9.7616033896        2.3447068658        5.7786444003
  O         9.4586329234        2.3238299392        2.1487932202
  O         9.4661387494        4.7244147126        2.2038828462
  O         9.7720794037        4.7371923943        5.7193360376
  O         8.4278739873       -0.0059918814        6.8855339582
  O        10.8056831673       -0.0022733755        1.0358819540
  O         8.3429068677        0.0396567433        4.5055587973
  O        10.8878246420        0.0409811659        3.4159176550
  O        11.6211534019        3.5489281274        6.8847564588
  O         7.6134878425        3.5507855425        1.0361026339
  O        11.5341918830        3.5064112448        4.5052677359
  O         7.6963906333        3.5068776663        3.4163018433
 Ca         8.6556562993        7.0599301784        2.2617168390
 Ca        10.5768793241        7.0630201619        5.6621190857
 Ca        11.8475611022       10.6020855779        2.2619088079
 Ca         7.3869614136       10.5969378790        5.6661276936
  S         7.4842975996        7.0631358701        5.7460143029
  S        11.7492757579        7.0681987904        2.1870316763
  S        10.6768578061       10.5976166978        5.7456233015
  S         8.5560842284       10.5938358008        2.1874324180
  O         6.5800273317       12.9214650031        5.7197706681
  O        12.6576931924       12.9372493177        2.2035694030
  O        12.6570654150        8.2682407489        2.2048423632
  O         6.5729739406        8.2611014490        5.7178696515
  O         9.7650318541        9.4000516196        5.7174094557
  O         9.4640706120        9.3941910307        2.2052466614
  O         9.4613220981       11.7968578436        2.1964628272
  O         9.7765475381       11.8050816551        5.7718093455
  O         8.4258061135        7.0871854793        6.8841442447
  O        10.8153633729        7.0800706791        1.0413219053
  O         8.3429306790        7.0512502439        4.5044111854
  O        10.8818707999        7.0599798911        3.4204200950
  O        11.6183036559       10.5726215692        6.8839673917
  O         7.6220849205       10.5817645628        1.0421432997
  O        11.5356941445       10.6093773724        4.5044624154
  O         7.6886164600       10.6026993880        3.4218125094
      96
 i =      101, E =     -1777.7953821800
 Ca         2.2671443840        0.0211690796        2.2519819632
 Ca         4.1996683917       -0.0153002178        5.6661070241
 Ca         5.4586138046        3.5262382653        2.2576841068
 Ca         1.0043536302        3.5165472114        5.6619842376
  S         1.1020506256       -0.0065516134        5.7319167317
  S         5.3618846575        0.0199666813        2.1746183256
  S         4.2928349895        3.5179904653        5.7456414597
  S         2.1698322368        3.5280990127        2.1741076706
  O         0.1915789229        5.8474358051        5.7145418433
  O         6.2703313222        5.8657797199        2.1961717267
  O         6.2673843604        1.2236705800        2.1491997216
  O         0.1961172497        1.1953498171        5.7213615482
  O         3.3905250850        2.3118032626        5.7704108796
  O         3.0745972189        2.3237415528        2.1492860992
  O         3.0822385721        4.7244710174        2.2037479998
  O         3.3817554320        4.7162460750        5.7166326111
  O         2.0353749903       -0.0094599587        6.8759791887
  O         4.4220645685       -0.0023275172        1.0357375995
  O         1.9644938009       -0.0180304354        4.4940036129
  O         4.5045557114        0.0409861028        3.4158029065
  O         5.2328346866        3.5406445140        6.8842868448
  O         1.2295283152        3.5508082437        1.0357546955
  O         5.1521388988        3.5047071832        4.5037965309
  O         1.3123570282        3.5065876335        3.4155547923
 Ca         2.2714477149        7.0593539642        2.2587227539
 Ca         4.1915029276        7.0561554731        5.6652349347
 Ca         5.4622489167       10.6016128162        2.2697636077
 Ca         1.0000998812       10.5956182515        5.6675203754
  S         1.0982889521        7.0481702735        5.7329485505
  S         5.3649173769        7.0685323351        2.1870710405
  S         4.2948312044       10.5942683739        5.7766779535
  S         2.1729704433       10.5935912588        2.1872165530
  O         0.1852606524       12.9168423042        5.7231197968
  O         6.2741087103       12.9368303965        2.2038228785
  O         6.2724429073        8.2687566909        2.2051326091
  O         0.1931573775        8.2510637579        5.7223183230
  O         3.3837604961        9.3963097994        5.7764955228
  O         3.0807285005        9.3935624400        2.2048863256
  O         3.0787865146       11.7961822900        2.1956700587
  O         3.3934761554       11.8018167143        5.8022285150
  O         2.0313098021        7.0344851029        6.8790291240
  O         4.4309749410        7.0803623797        1.0414958536
  O         1.9663213666        7.0569288221        4.4995686865
  O         4.4981998233        7.0600139181        3.4211219022
  O         5.2404089867       10.5814368943        6.9104484036
  O         1.2388160720       10.5822489334        1.0419143131
  O         5.1419593682       10.6056672080        4.5238645860
  O         1.3064731851       10.6016092013        3.4215394344
 Ca         8.6507146110        0.0214975284        2.2570289359
 Ca        10.5804166147        0.0269230244        5.6637333710
 Ca        11.8430960876        3.5271065993        2.2577365868
 Ca         7.3854259825        3.5186562844        5.6653353248
  S         7.4868226051        0.0085754165        5.7488154242
  S        11.7458532257        0.0198556554        2.1746508580
  S        10.6784344314        3.5380383005        5.7483342915
  S         8.5535615078        3.5282492986        2.1738241823
  O         6.5838780936        5.8552429132        5.7725861948
  O        12.6547188319        5.8652399689        2.1962307558
  O        12.6508267785        1.2240505037        2.1496743013
  O         6.5701406111        1.1996716203        5.7777033687
  O         9.7613118340        2.3451481720        5.7787446334
  O         9.4583712074        2.3238354214        2.1463036728
  O         9.4663341278        4.7243916686        2.2036989920
  O         9.7727153207        4.7376401171        5.7198786615
  O         8.4282209325       -0.0056599939        6.8855294950
  O        10.8058729500       -0.0026736497        1.0360103625
  O         8.3429686812        0.0399035333        4.5054836408
  O        10.8879367228        0.0409146859        3.4159591356
  O        11.6210382563        3.5486847573        6.8851095518
  O         7.6129311330        3.5521296661        1.0359196729
  O        11.5344268320        3.5061370695        4.5055780666
  O         7.6966199682        3.5064725741        3.4159516510
 Ca         8.6556696744        7.0598257961        2.2618933371
 Ca        10.5768239244        7.0630277389        5.6620923830
 Ca        11.8474599289       10.6021507984        2.2620425595
 Ca         7.3867945866       10.5969866882        5.6666564985
  S         7.4841581145        7.0630425344        5.7460431582
  S        11.7493701960        7.0681686302        2.1870694244
  S        10.6769311036       10.5975138733        5.7455780134
  S         8.5560511273       10.5938421847        2.1873680436
  O         6.5802597256       12.9217101566        5.7198265783
  O        12.6580148381       12.9371740444        2.2038627196
  O        12.6570913957        8.2683037978        2.2049581458
  O         6.5726044323        8.2609914785        5.7176046317
  O         9.7650047121        9.3999918215        5.7172938188
  O         9.4640716243        9.3941748632        2.2053828413
  O         9.4611919429       11.7969802437        2.1965102151
  O         9.7766848653       11.8050066945        5.7711293996
  O         8.4257376573        7.0872699954        6.8840800287
  O        10.8153488582        7.0798239664        1.0414578959
  O         8.3430505962        7.0509942350        4.5046386670
  O        10.8817996765        7.0600993047        3.4203152164
  O        11.6181773976       10.5724678416        6.8840683030
  O         7.6218878186       10.5818146277        1.0422391088
  O        11.5358874087       10.6090648286        4.5044500670
  O         7.6881839492       10.6026065063        3.4215379228
      96
 i =      102, E =     -1777.7953627386
 Ca         2.2670536986        0.0210137412        2.2519687518
 Ca         4.1981097829       -0.0189199436        5.6654022104
 Ca         5.4587057370        3.5258841719        2.2578031786
 Ca         1.0043032280        3.5166190834        5.6620251948
  S         1.1018977062       -0.0067389250        5.7319387817
  S         5.3618234859        0.0195657722        2.1746266742
  S         4.2927066603        3.5173394501        5.7460195497
  S         2.1697440116        3.5280018307        2.1741472029
  O         0.1911441180        5.8473488496        5.7146895193
  O         6.2702359851        5.8654394409        2.1960477548
  O         6.2672974110        1.2231852239        2.1494402642
  O         0.1962930297        1.1953152042        5.7215009285
  O         3.3907219023        2.3109179344        5.7710840193
  O         3.0744725044        2.3235987330        2.1492595787
  O         3.0821423088        4.7243314011        2.2035748426
  O         3.3816880727        4.7156337062        5.7168200901
  O         2.0352784575       -0.0100635389        6.8761203979
  O         4.4221312991       -0.0026454205        1.0356709154
  O         1.9643963551       -0.0181593278        4.4940082785
  O         4.5044994174        0.0406789731        3.4158691100
  O         5.2327367469        3.5402273766        6.8846429480
  O         1.2295727685        3.5508523222        1.0356988546
  O         5.1519409159        3.5041806354        4.5040905324
  O         1.3122378036        3.5066055538        3.4156000454
 Ca         2.2714268618        7.0594777127        2.2588534256
 Ca         4.1916998472        7.0545048130        5.6651522018
 Ca         5.4624772092       10.6012689973        2.2683569518
 Ca         1.0002820735       10.5953307484        5.6669599333
  S         1.0982459949        7.0478128879        5.7328382538
  S         5.3650281380        7.0683425489        2.1871449220
  S         4.2943674885       10.5894200589        5.7723678516
  S         2.1728357896       10.5935518488        2.1872103146
  O         0.1849497464       12.9169324126        5.7229979437
  O         6.2740057282       12.9365037806        2.2037577302
  O         6.2726061244        8.2685404049        2.2049348092
  O         0.1935787159        8.2511131385        5.7221245446
  O         3.3851355481        9.3907725275        5.7743913520
  O         3.0806351208        9.3935550869        2.2047022720
  O         3.0786652791       11.7960979545        2.1955501998
  O         3.3875930643       11.7920078123        5.7915177841
  O         2.0314164586        7.0341701264        6.8788154067
  O         4.4311464325        7.0802618691        1.0414913788
  O         1.9666864558        7.0556674900        4.4997922530
  O         4.4979835236        7.0598710369        3.4208941432
  O         5.2384759015       10.5804404342        6.9071324113
  O         1.2388496025       10.5820887032        1.0417683447
  O         5.1430215489       10.6035824680        4.5212884833
  O         1.3062090548       10.6014761642        3.4213787177
 Ca         8.6507326687        0.0215275631        2.2571117816
 Ca        10.5802788879        0.0269287826        5.6637087570
 Ca        11.8430696954        3.5272560096        2.2577661387
 Ca         7.3852194110        3.5185907203        5.6656112946
  S         7.4865643174        0.0085399031        5.7487399981
  S        11.7456867363        0.0199738994        2.1745644269
  S        10.6782849158        3.5378631372        5.7481363824
  S         8.5536625408        3.5281177909        2.1744072468
  O         6.5837669630        5.8555157655        5.7726099305
  O        12.6546237942        5.8653092291        2.1964390541
  O        12.6507868918        1.2240707107        2.1497612902
  O         6.5699247225        1.1994870722        5.7774483845
  O         9.7615685284        2.3446933949        5.7786189231
  O         9.4585978854        2.3238379438        2.1484906070
  O         9.4661750016        4.7244548880        2.2038504099
  O         9.7721602571        4.7372089040        5.7194247827
  O         8.4279342667       -0.0059079747        6.8855211457
  O        10.8057120843       -0.0023011224        1.0359010206
  O         8.3429638313        0.0397070509        4.5055909204
  O        10.8878327518        0.0409851573        3.4158930601
  O        11.6211561070        3.5488731871        6.8847753009
  O         7.6134237464        3.5509814513        1.0360758410
  O        11.5342722164        3.5064241572        4.5053493358
  O         7.6964044370        3.5068115433        3.4161913364
 Ca         8.6556854429        7.0599224878        2.2617231821
 Ca        10.5769017447        7.0629793271        5.6620943233
 Ca        11.8475686261       10.6021010929        2.2619061972
 Ca         7.3869588995       10.5969870862        5.6662428209
  S         7.4842878067        7.0631249705        5.7460064432
  S        11.7492496040        7.0681895518        2.1870439454
  S        10.6768539305       10.5975673484        5.7455906901
  S         8.5560954089       10.5938627507        2.1874203754
  O         6.5800587268       12.9215196025        5.7197880181
  O        12.6577744259       12.9372387799        2.2036542865
  O        12.6570299540        8.2682445415        2.2047586867
  O         6.5729313057        8.2610806320        5.7177855548
  O         9.7651446694        9.3999287207        5.7173918176
  O         9.4640964754        9.3942129591        2.2053307003
  O         9.4612883472       11.7969257784        2.1964418125
  O         9.7765081852       11.8050236014        5.7717394310
  O         8.4257782276        7.0871753668        6.8841465853
  O        10.8153819333        7.0800848520        1.0413118174
  O         8.3429704722        7.0512161256        4.5044454841
  O        10.8818357695        7.0599977715        3.4204165765
  O        11.6182536622       10.5726011637        6.8839747902
  O         7.6220773404       10.5817730019        1.0421508696
  O        11.5357407100       10.6093956109        4.5044692324
  O         7.6885254409       10.6026743700        3.4217297535
      96
 i =      103, E =     -1777.7953708227
 Ca         2.2670933241        0.0210068755        2.2519996796
 Ca         4.1983170627       -0.0183329718        5.6654911256
 Ca         5.4586924281        3.5258797257        2.2578169091
 Ca         1.0042711572        3.5165720970        5.6620224274
  S         1.1019437786       -0.0067218704        5.7319262084
  S         5.3617811018        0.0195826420        2.1746439783
  S         4.2926967316        3.5174863620        5.7460470337
  S         2.1697385653        3.5280160342        2.1741578882
  O         0.1911149034        5.8473679013        5.7145746236
  O         6.2702519088        5.8654584323        2.1960920281
  O         6.2672532155        1.2231993574        2.1494907750
  O         0.1962718669        1.1952960368        5.7214881003
  O         3.3906837554        2.3110765336        5.7711959783
  O         3.0744567996        2.3236106467        2.1492181107
  O         3.0821537986        4.7243379244        2.2036529857
  O         3.3817043279        4.7157713995        5.7167664820
  O         2.0352765276       -0.0100128881        6.8761247914
  O         4.4221004037       -0.0025959176        1.0356713367
  O         1.9643289345       -0.0181326344        4.4939298730
  O         4.5044841010        0.0406338313        3.4158979560
  O         5.2327227889        3.5403505426        6.8846728571
  O         1.2295733890        3.5508901978        1.0357021830
  O         5.1519900561        3.5041613364        4.5041689662
  O         1.3121963542        3.5066129228        3.4155828005
 Ca         2.2714206265        7.0594656433        2.2588293451
 Ca         4.1917069789        7.0546170038        5.6651480265
 Ca         5.4624953582       10.6012735281        2.2684093998
 Ca         1.0002265694       10.5952976365        5.6669567925
  S         1.0982278452        7.0478269571        5.7328327223
  S         5.3650410829        7.0683542456        2.1871641644
  S         4.2944120955       10.5901348893        5.7725563933
  S         2.1728371294       10.5935625798        2.1872194773
  O         0.1849814576       12.9169376799        5.7229866767
  O         6.2739516525       12.9365196446        2.2036420886
  O         6.2725961662        8.2685647695        2.2048678749
  O         0.1936040370        8.2511503199        5.7221373878
  O         3.3853659383        9.3912556393        5.7743487450
  O         3.0806537322        9.3935751242        2.2047851630
  O         3.0786353315       11.7961296425        2.1954857314
  O         3.3880143775       11.7931905027        5.7925980651
  O         2.0314400750        7.0342052232        6.8787879321
  O         4.4311567332        7.0802527090        1.0415074178
  O         1.9667609813        7.0556445367        4.4998530115
  O         4.4979847475        7.0598709000        3.4209181314
  O         5.2385283511       10.5804365134        6.9072539563
  O         1.2388585742       10.5820700084        1.0417689798
  O         5.1430253450       10.6038796290        4.5214174511
  O         1.3061935565       10.6014809868        3.4213768843
 Ca         8.6507497748        0.0215332149        2.2571003200
 Ca        10.5803016675        0.0269264655        5.6637092050
 Ca        11.8430607112        3.5272561823        2.2577708364
 Ca         7.3852573838        3.5185938546        5.6656180365
  S         7.4865927939        0.0085446392        5.7487437651
  S        11.7456490662        0.0199948280        2.1745541995
  S        10.6782683703        3.5378654059        5.7481613760
  S         8.5536305865        3.5281511768        2.1743990041
  O         6.5837788188        5.8555052154        5.7726095398
  O        12.6546125799        5.8652852050        2.1963937599
  O        12.6507533220        1.2240864466        2.1497397301
  O         6.5699262184        1.1995013360        5.7775072897
  O         9.7615309916        2.3447089851        5.7786424362
  O         9.4585369560        2.3238596088        2.1484171012
  O         9.4661645954        4.7244690842        2.2038086176
  O         9.7722134265        4.7372669821        5.7194260573
  O         8.4279664329       -0.0058975150        6.8855175984
  O        10.8056811919       -0.0023136292        1.0358832284
  O         8.3429464946        0.0397122972        4.5055701352
  O        10.8878365651        0.0409826836        3.4159116999
  O        11.6211485945        3.5488046287        6.8847974000
  O         7.6134102741        3.5510966353        1.0360599750
  O        11.5342345910        3.5063923517        4.5053500525
  O         7.6964146009        3.5068098368        3.4162242642
 Ca         8.6556889054        7.0599311877        2.2617051621
 Ca        10.5769155598        7.0629741022        5.6621115934
 Ca        11.8475747139       10.6021051623        2.2618802844
 Ca         7.3869362864       10.5969938892        5.6662302755
  S         7.4842984232        7.0631100032        5.7460050171
  S        11.7492732149        7.0681904874        2.1870386349
  S        10.6768571024       10.5975181852        5.7455633425
  S         8.5560500577       10.5938615542        2.1874320002
  O         6.5800918367       12.9215412022        5.7197741128
  O        12.6577112956       12.9372461840        2.2036143982
  O        12.6570756359        8.2682301501        2.2048564621
  O         6.5729507982        8.2610776759        5.7179074335
  O         9.7651639021        9.3998746593        5.7174093217
  O         9.4640521699        9.3942103105        2.2052550175
  O         9.4612755056       11.7969037344        2.1964682121
  O         9.7764464321       11.8049240712        5.7715820890
  O         8.4258169773        7.0872046789        6.8841225224
  O        10.8153837209        7.0800724629        1.0413164580
  O         8.3429516592        7.0512181877        4.5044200785
  O        10.8818518564        7.0599989638        3.4204126268
  O        11.6182290985       10.5726327138        6.8839764753
  O         7.6220759953       10.5817500299        1.0421292334
  O        11.5357567598       10.6092983208        4.5044536397
  O         7.6885491001       10.6026854704        3.4217976909
      96
 i =      104, E =     -1777.7953705798
 Ca         2.2670933241        0.0210068755        2.2519996796
 Ca         4.1983170627       -0.0183329718        5.6654911256
 Ca         5.4586924281        3.5258797257        2.2578169091
 Ca         1.0042711572        3.5165720970        5.6620224274
  S         1.1019437786       -0.0067218704        5.7319262084
  S         5.3617811018        0.0195826420        2.1746439783
  S         4.2926967316        3.5174863620        5.7460470337
  S         2.1697385653        3.5280160342        2.1741578882
  O         0.1911149034        5.8473679013        5.7145746236
  O         6.2702519088        5.8654584323        2.1960920281
  O         6.2672532155        1.2231993574        2.1494907750
  O         0.1962718669        1.1952960368        5.7214881003
  O         3.3906837554        2.3110765336        5.7711959783
  O         3.0744567996        2.3236106467        2.1492181107
  O         3.0821537986        4.7243379244        2.2036529857
  O         3.3817043279        4.7157713995        5.7167664820
  O         2.0352765276       -0.0100128881        6.8761247914
  O         4.4221004037       -0.0025959176        1.0356713367
  O         1.9643289345       -0.0181326344        4.4939298730
  O         4.5044841010        0.0406338313        3.4158979560
  O         5.2327227889        3.5403505426        6.8846728571
  O         1.2295733890        3.5508901978        1.0357021830
  O         5.1519900561        3.5041613364        4.5041689662
  O         1.3121963542        3.5066129228        3.4155828005
 Ca         2.2714206265        7.0594656433        2.2588293451
 Ca         4.1917069789        7.0546170038        5.6651480265
 Ca         5.4624953582       10.6012735281        2.2684093998
 Ca         1.0002265694       10.5952976365        5.6669567925
  S         1.0982278452        7.0478269571        5.7328327223
  S         5.3650410829        7.0683542456        2.1871641644
  S         4.2944120955       10.5901348893        5.7725563933
  S         2.1728371294       10.5935625798        2.1872194773
  O         0.1849814576       12.9169376799        5.7229866767
  O         6.2739516525       12.9365196446        2.2036420886
  O         6.2725961662        8.2685647695        2.2048678749
  O         0.1936040370        8.2511503199        5.7221373878
  O         3.3853659383        9.3912556393        5.7743487450
  O         3.0806537322        9.3935751242        2.2047851630
  O         3.0786353315       11.7961296425        2.1954857314
  O         3.3880143775       11.7931905027        5.7925980651
  O         2.0314400750        7.0342052232        6.8787879321
  O         4.4311567332        7.0802527090        1.0415074178
  O         1.9667609813        7.0556445367        4.4998530115
  O         4.4979847475        7.0598709000        3.4209181314
  O         5.2385283511       10.5804365134        6.9072539563
  O         1.2388585742       10.5820700084        1.0417689798
  O         5.1430253450       10.6038796290        4.5214174511
  O         1.3061935565       10.6014809868        3.4213768843
 Ca         8.6507497748        0.0215332149        2.2571003200
 Ca        10.5803016675        0.0269264655        5.6637092050
 Ca        11.8430607112        3.5272561823        2.2577708364
 Ca         7.3852573838        3.5185938546        5.6656180365
  S         7.4865927939        0.0085446392        5.7487437651
  S        11.7456490662        0.0199948280        2.1745541995
  S        10.6782683703        3.5378654059        5.7481613760
  S         8.5536305865        3.5281511768        2.1743990041
  O         6.5837788188        5.8555052154        5.7726095398
  O        12.6546125799        5.8652852050        2.1963937599
  O        12.6507533220        1.2240864466        2.1497397301
  O         6.5699262184        1.1995013360        5.7775072897
  O         9.7615309916        2.3447089851        5.7786424362
  O         9.4585369560        2.3238596088        2.1484171012
  O         9.4661645954        4.7244690842        2.2038086176
  O         9.7722134265        4.7372669821        5.7194260573
  O         8.4279664329       -0.0058975150        6.8855175984
  O        10.8056811919       -0.0023136292        1.0358832284
  O         8.3429464946        0.0397122972        4.5055701352
  O        10.8878365651        0.0409826836        3.4159116999
  O        11.6211485945        3.5488046287        6.8847974000
  O         7.6134102741        3.5510966353        1.0360599750
  O        11.5342345910        3.5063923517        4.5053500525
  O         7.6964146009        3.5068098368        3.4162242642
 Ca         8.6556889054        7.0599311877        2.2617051621
 Ca        10.5769155598        7.0629741022        5.6621115934
 Ca        11.8475747139       10.6021051623        2.2618802844
 Ca         7.3869362864       10.5969938892        5.6662302755
  S         7.4842984232        7.0631100032        5.7460050171
  S        11.7492732149        7.0681904874        2.1870386349
  S        10.6768571024       10.5975181852        5.7455633425
  S         8.5560500577       10.5938615542        2.1874320002
  O         6.5800918367       12.9215412022        5.7197741128
  O        12.6577112956       12.9372461840        2.2036143982
  O        12.6570756359        8.2682301501        2.2048564621
  O         6.5729507982        8.2610776759        5.7179074335
  O         9.7651639021        9.3998746593        5.7174093217
  O         9.4640521699        9.3942103105        2.2052550175
  O         9.4612755056       11.7969037344        2.1964682121
  O         9.7764464321       11.8049240712        5.7715820890
  O         8.4258169773        7.0872046789        6.8841225224
  O        10.8153837209        7.0800724629        1.0413164580
  O         8.3429516592        7.0512181877        4.5044200785
  O        10.8818518564        7.0599989638        3.4204126268
  O        11.6182290985       10.5726327138        6.8839764753
  O         7.6220759953       10.5817500299        1.0421292334
  O        11.5357567598       10.6092983208        4.5044536397
  O         7.6885491001       10.6026854704        3.4217976909
