 DBCSR| CPU Multiplication driver                                           XSMM (U)
 DBCSR| Multrec recursion limit                                              512 (U)
 DBCSR| Multiplication stack size                                          30000 (D)
 DBCSR| Maximum elements for images                                    UNLIMITED (U)
 DBCSR| Multiplicative factor virtual images                                   1 (U)
 DBCSR| Use multiplication densification                                       F (D)
 DBCSR| Multiplication size stacks                                             3 (U)
 DBCSR| Use memory pool for CPU allocation                                     F (U)
 DBCSR| Number of 3D layers                                               SINGLE (U)
 DBCSR| Use MPI memory allocation                                              F (U)
 DBCSR| Use RMA algorithm                                                      F (U)
 DBCSR| Use Communication thread                                               T (U)
 DBCSR| Communication thread load                                             30 (D)
 DBCSR| MPI: My process id                                                     0
 DBCSR| MPI: Number of processes                                               1
 DBCSR| OMP: Current number of threads                                        16
 DBCSR| OMP: Max number of threads                                            16
 DBCSR| ACC: Number of devices/node                                            1
 DBCSR| ACC: Number of stack-buffers per thread                                8 (U)
 DBCSR| ACC: Avoid driver after busy                                           F (U)
 DBCSR| ACC: Process inhomogeneous stacks                                      T (U)
 DBCSR| ACC: Min. flop for processing                                          0 (U)
 DBCSR| ACC: Use G2G algorithm                                                 F (D)
 DBCSR| ACC: Min. flop for sorting                                          4000 (U)
 DBCSR| ACC: Number of binning bins                                         4096 (U)
 DBCSR| ACC: Size of binning bins                                             16 (U)
 DBCSR| ACC: GPU backend is enabled                                            T (D)
 DBCSR| Split modifier for TAS multiplication algorithm                  1.0E+00 (U)


  **** **** ******  **  PROGRAM STARTED AT               2026-02-04 12:15:53.443
 ***** ** ***  *** **   PROGRAM STARTED ON                          804f4d1dd287
 **    ****   ******    PROGRAM STARTED BY                             <unknown>
 ***** **    ** ** **   PROGRAM PROCESS ID                                   638
  **** **  *******  **  PROGRAM STARTED IN                             /mnt/cp2k

 CP2K| version string:                 CP2K version 2025.2 (Development Version)
 CP2K| source code revision number:                                  git:e68414f
 CP2K| cp2kflags: omp libint fftw3 libxc libgrpp elpa elpa_nvidia_gpu parallel s
 CP2K|            calapack cosma ace deepmd xsmm dbcsr_acc plumed2 spglib libdft
 CP2K|            td4 mctc-lib tblite sirius libvori libbqb libtorch offload_cud
 CP2K|            da spla_gemm_offloading libvdwxc hdf5 trexio libsmeagol greenx
 CP2K| is freely available from                            https://www.cp2k.org/
 CP2K| Program compiled at                          Sun Nov  2 00:48:36 UTC 2025
 CP2K| Program compiled on                                       buildkitsandbox
 CP2K| Program compiled for                                           local_cuda
 CP2K| Data directory path                                        /opt/cp2k/data
 CP2K| Input file name                                               geo_opt.inp

 GLOBAL| Force Environment number                                              1
 GLOBAL| Basis set file name                                    BASIS_MOLOPT_UZH
 GLOBAL| Potential file name                                       POTENTIAL_UZH
 GLOBAL| MM Potential file name                                     MM_POTENTIAL
 GLOBAL| Coordinate file name                optimized_structure_extxyz_wrap.xyz
 GLOBAL| Method name                                                        CP2K
 GLOBAL| Project name                                         gypsum_slab_geoopt
 GLOBAL| Run type                                                        GEO_OPT
 GLOBAL| FFT library                                                       FFTW3
 GLOBAL| Diagonalization library                                            ELPA
 GLOBAL| Cholesky decomposition library                                ScaLAPACK
 GLOBAL| DGEMM library                                                      SPLA
 GLOBAL| Minimum number of eigenvectors for ELPA usage                        16
 GLOBAL| Orthonormality check for eigenvectors                          DISABLED
 GLOBAL| Matrix multiplication library                                     COSMA
 GLOBAL| All-to-all communication in single precision                          F
 GLOBAL| FFTs using library dependent lengths                                  F
 GLOBAL| Grid backend                                                       AUTO
 GLOBAL| Global print level                                                  LOW
 GLOBAL| MPI I/O enabled                                                       T
 GLOBAL| Total number of message passing processes                             1
 GLOBAL| Number of distributed systems (nodes)                                 1
 GLOBAL| Number of threads for this process                                   16
 GLOBAL| This output is from process                                           0
 GLOBAL| OpenMP stack size per thread (OMP_STACKSIZE)                        16M
 GLOBAL| CPU model name                           Intel(R) Core(TM) Ultra 7 265K
 GLOBAL| CPUID                                                              1002

 MEMORY| system memory details [Kb]
 MEMORY|                        rank 0           min           max       average
 MEMORY| MemTotal             49330332      49330332      49330332      49330332
 MEMORY| MemFree              47229872      47229872      47229872      47229872
 MEMORY| Buffers                  7736          7736          7736          7736
 MEMORY| Cached                 918328        918328        918328        918328
 MEMORY| Slab                   166156        166156        166156        166156
 MEMORY| SReclaimable            73024         73024         73024         73024
 MEMORY| MemLikelyFree        48228960      48228960      48228960      48228960


 GENERATE|  Preliminary Number of Bonds generated:                             0
 GENERATE|  Achieved consistency in connectivity generation.

 *******************************************************************************
 *******************************************************************************
 **                                                                           **
 **     #####                         ##              ##                      **
 **    ##   ##            ##          ##              ##                      **
 **   ##     ##                       ##            ######                    **
 **   ##     ##  ##   ##  ##   #####  ##  ##   ####   ##    #####    #####    **
 **   ##     ##  ##   ##  ##  ##      ## ##   ##      ##   ##   ##  ##   ##   **
 **   ##  ## ##  ##   ##  ##  ##      ####     ###    ##   ######   ######    **
 **    ##  ###   ##   ##  ##  ##      ## ##      ##   ##   ##       ##        **
 **     #######   #####   ##   #####  ##  ##  ####    ##    #####   ##        **
 **           ##                                                    ##        **
 **                                                                           **
 **                                                ... make the atoms dance   **
 **                                                                           **
 **            Copyright (C) by CP2K developers group (2000-2025)             **
 **                      J. Chem. Phys. 152, 194103 (2020)                    **
 **                                                                           **
 *******************************************************************************


 TOTAL NUMBERS AND MAXIMUM NUMBERS

  Total number of            - Atomic kinds:                                   4
                             - Atoms:                                        360
                             - Shell sets:                                   360
                             - Shells:                                      1896
                             - Primitive Cartesian functions:               1800
                             - Cartesian basis functions:                   5136
                             - Spherical basis functions:                   4776

  Maximum angular momentum of- Orbital basis functions:                        2
                             - Local part of the GTH pseudopotential:          2
                             - Non-local part of the GTH pseudopotential:      3


 SCF PARAMETERS         Density guess:                                    ATOMIC
                        --------------------------------------------------------
                        max_scf:                                             150
                        max_scf_history:                                       0
                        max_diis:                                              4
                        --------------------------------------------------------
                        eps_scf:                                        1.00E-06
                        eps_scf_history:                                0.00E+00
                        eps_diis:                                       0.00E+00
                        eps_eigval:                                     1.00E-05
                        --------------------------------------------------------
                        level_shift [a.u.]:                             0.000000
                        --------------------------------------------------------
                        Outer loop SCF in use 
                        No variables optimised in outer loop
                        eps_scf                                         1.00E-06
                        max_scf                                               20
                        No outer loop optimization
                        step_size                                       5.00E-01

 BFGS| Use rational function optimization for step estimation:                NO
 BFGS| Use model Hessian for initial guess:                                  YES
 BFGS| Restart Hessian:                                                       NO
 BFGS| Trust radius:                                                       0.472

 *******************************************************************************
 ***                     STARTING GEOMETRY OPTIMIZATION                      ***
 ***                                   BFGS                                  ***
 *******************************************************************************

 Extrapolation method: initial_guess

 Spin 1

 Number of electrons:                                                       1056
 Number of occupied orbitals:                                               1056
 Number of molecular orbitals:                                              1056

 Spin 2

 Number of electrons:                                                       1056
 Number of occupied orbitals:                                               1056
 Number of molecular orbitals:                                              1056

 Number of orbital functions:                                               4776
 Number of independent orbital functions:                                   4776


 SCF WAVEFUNCTION OPTIMIZATION

  ----------------------------------- OT ---------------------------------------
  Minimizer      : DIIS                : direct inversion
                                         in the iterative subspace
                                         using   7 DIIS vectors
                                         safer DIIS on
  Preconditioner : FULL_SINGLE_INVERSE : inversion of 
                                         H + eS - 2*(Sc)(c^T*H*c+const)(Sc)^T
  Precond_solver : INVERSE_UPDATE
  stepsize       :    0.10000000                  energy_gap     :    0.10000000
  eps_taylor     :   0.10000E-15                  max_taylor     :             4
  ----------------------------------- OT ---------------------------------------

  Step     Update method      Time    Convergence         Total energy    Change
  ------------------------------------------------------------------------------
     1 OT DIIS     0.10E+00   67.0     0.00878316     -5533.8118480818 -5.53E+03
     2 OT DIIS     0.10E+00   61.5     0.00589397     -5594.4802755356 -6.07E+01
     3 OT DIIS     0.10E+00   61.8     0.00484195     -5632.3275946424 -3.78E+01
     4 OT DIIS     0.10E+00   62.1     0.00392174     -5656.0513283702 -2.37E+01
     5 OT DIIS     0.10E+00   62.4     0.00285840     -5682.1103295234 -2.61E+01
     6 OT DIIS     0.10E+00   62.1     0.00215345     -5699.7282327763 -1.76E+01
     7 OT DIIS     0.10E+00   62.9     0.00160213     -5711.6182193432 -1.19E+01
     8 OT DIIS     0.10E+00   63.0     0.00117761     -5719.4986467139 -7.88E+00
     9 OT DIIS     0.10E+00   62.5     0.00093595     -5723.6516551633 -4.15E+00
    10 OT DIIS     0.10E+00   62.5     0.00072152     -5726.4677987074 -2.82E+00
    11 OT DIIS     0.10E+00   62.2     0.00063446     -5727.6371300905 -1.17E+00
    12 OT DIIS     0.10E+00   61.7     0.00049696     -5729.1273402647 -1.49E+00
    13 OT DIIS     0.10E+00   62.5     0.00039619     -5729.9845984671 -8.57E-01
    14 OT DIIS     0.10E+00   61.3     0.00032080     -5730.7337755196 -7.49E-01
    15 OT DIIS     0.10E+00   61.6     0.00026600     -5731.0883715406 -3.55E-01
    16 OT DIIS     0.10E+00   61.7     0.00022567     -5731.4554442680 -3.67E-01
    17 OT DIIS     0.10E+00   61.4     0.00017765     -5731.6996251276 -2.44E-01
    18 OT DIIS     0.10E+00   61.5     0.00017138     -5731.7630182244 -6.34E-02
    19 OT DIIS     0.10E+00   61.5     0.00013772     -5731.9222523504 -1.59E-01
    20 OT DIIS     0.10E+00   62.4     0.00012681     -5732.0142729484 -9.20E-02
    21 OT DIIS     0.10E+00   62.9     0.00010499     -5732.1003501074 -8.61E-02
    22 OT DIIS     0.10E+00   61.9     0.00009301     -5732.1673904070 -6.70E-02
    23 OT DIIS     0.10E+00   62.6     0.00008389     -5732.2074247053 -4.00E-02
    24 OT DIIS     0.10E+00   64.8     0.00007145     -5732.2656016564 -5.82E-02
    25 OT DIIS     0.10E+00   63.9     0.00006260     -5732.3026151386 -3.70E-02
    26 OT DIIS     0.10E+00   63.2     0.00005781     -5732.3168895465 -1.43E-02
    27 OT DIIS     0.10E+00   62.5     0.00005228     -5732.3395372109 -2.26E-02
    28 OT DIIS     0.10E+00   62.3     0.00004605     -5732.3665297418 -2.70E-02
    29 OT DIIS     0.10E+00   63.0     0.00003991     -5732.3824690950 -1.59E-02
    30 OT DIIS     0.10E+00   62.3     0.00003793     -5732.3955291055 -1.31E-02
    31 OT DIIS     0.10E+00   61.6     0.00003657     -5732.3982496846 -2.72E-03
    32 OT DIIS     0.10E+00   61.9     0.00003455     -5732.4014944525 -3.24E-03
    33 OT DIIS     0.10E+00   62.4     0.00003087     -5732.4116696438 -1.02E-02
    34 OT DIIS     0.10E+00   61.9     0.00002729     -5732.4214013622 -9.73E-03
    35 OT DIIS     0.10E+00   61.4     0.00002374     -5732.4308329064 -9.43E-03
    36 OT DIIS     0.10E+00   61.0     0.00002201     -5732.4339503316 -3.12E-03
    37 OT DIIS     0.10E+00   60.9     0.00002000     -5732.4383511468 -4.40E-03
    38 OT DIIS     0.10E+00   60.8     0.00001930     -5732.4385297692 -1.79E-04
    39 OT DIIS     0.10E+00   61.2     0.00001855     -5732.4405684502 -2.04E-03
    40 OT DIIS     0.10E+00   60.9     0.00001671     -5732.4451737478 -4.61E-03
    41 OT DIIS     0.10E+00   60.8     0.00001549     -5732.4496876416 -4.51E-03
    42 OT DIIS     0.10E+00   60.7     0.00001440     -5732.4521096368 -2.42E-03
    43 OT DIIS     0.10E+00   61.0     0.00001351     -5732.4555870234 -3.48E-03
    44 OT DIIS     0.10E+00   61.0     0.00001262     -5732.4568389725 -1.25E-03
    45 OT DIIS     0.10E+00   60.7     0.00001193     -5732.4587186863 -1.88E-03
    46 OT DIIS     0.10E+00   60.9     0.00001135     -5732.4602378024 -1.52E-03
    47 OT DIIS     0.10E+00   60.8     0.00001067     -5732.4611728747 -9.35E-04
    48 OT DIIS     0.10E+00   61.0     0.00000975     -5732.4634873509 -2.31E-03
    49 OT DIIS     0.10E+00   60.8     0.00000890     -5732.4644574371 -9.70E-04
    50 OT DIIS     0.10E+00   61.2     0.00000844     -5732.4653203267 -8.63E-04
    51 OT DIIS     0.10E+00   61.0     0.00000806     -5732.4659214096 -6.01E-04
    52 OT DIIS     0.10E+00   60.7     0.00000764     -5732.4669146228 -9.93E-04
    53 OT DIIS     0.10E+00   60.8     0.00000735     -5732.4677897171 -8.75E-04
    54 OT DIIS     0.10E+00   60.9     0.00000708     -5732.4687166576 -9.27E-04
    55 OT DIIS     0.10E+00   60.8     0.00000690     -5732.4693346950 -6.18E-04
    56 OT DIIS     0.10E+00   60.5     0.00000659     -5732.4704866866 -1.15E-03
    57 OT DIIS     0.10E+00   60.7     0.00000644     -5732.4710431180 -5.56E-04
    58 OT DIIS     0.10E+00   60.9     0.00000624     -5732.4717099781 -6.67E-04
    59 OT DIIS     0.10E+00   60.7     0.00000574     -5732.4728850155 -1.18E-03
    60 OT DIIS     0.10E+00   61.1     0.00000546     -5732.4735046088 -6.20E-04
    61 OT DIIS     0.10E+00   60.9     0.00000530     -5732.4739146315 -4.10E-04
    62 OT DIIS     0.10E+00   60.5     0.00000507     -5732.4745151708 -6.01E-04
    63 OT DIIS     0.10E+00   60.8     0.00000495     -5732.4749203555 -4.05E-04
    64 OT DIIS     0.10E+00   60.5     0.00000481     -5732.4753074697 -3.87E-04
    65 OT DIIS     0.10E+00   60.7     0.00000476     -5732.4760099379 -7.02E-04
    66 OT DIIS     0.10E+00   60.5     0.00000500     -5732.4761384101 -1.28E-04
    67 OT DIIS     0.10E+00   60.9     0.00000441     -5732.4767535466 -6.15E-04
    68 OT DIIS     0.10E+00   60.9     0.00000421     -5732.4770662504 -3.13E-04
    69 OT DIIS     0.10E+00   60.8     0.00000412     -5732.4774014248 -3.35E-04
    70 OT SD       0.10E+00   61.4     0.00000411     -5732.4778258231 -4.24E-04
    71 OT DIIS     0.10E+00   61.3     0.00000395     -5732.4778424539 -1.66E-05
    72 OT DIIS     0.10E+00   61.3     0.00000376     -5732.4781063972 -2.64E-04
    73 OT DIIS     0.10E+00   60.8     0.00000366     -5732.4783548150 -2.48E-04
    74 OT DIIS     0.10E+00   60.8     0.00000349     -5732.4786542731 -2.99E-04
    75 OT DIIS     0.10E+00   60.9     0.00000341     -5732.4787537079 -9.94E-05
    76 OT DIIS     0.10E+00   60.9     0.00000334     -5732.4787928582 -3.92E-05
    77 OT DIIS     0.10E+00   60.7     0.00000326     -5732.4788664242 -7.36E-05
    78 OT DIIS     0.10E+00   60.9     0.00000318     -5732.4791781887 -3.12E-04
    79 OT DIIS     0.10E+00   61.2     0.00000312     -5732.4792775144 -9.93E-05
    80 OT DIIS     0.10E+00   61.9     0.00000306     -5732.4795180767 -2.41E-04
    81 OT DIIS     0.10E+00   62.4     0.00000298     -5732.4797811921 -2.63E-04
    82 OT DIIS     0.10E+00   61.6     0.00000294     -5732.4799944202 -2.13E-04
    83 OT DIIS     0.10E+00   61.5     0.00000293     -5732.4801381561 -1.44E-04
    84 OT DIIS     0.10E+00   62.6     0.00000285     -5732.4803112999 -1.73E-04
    85 OT DIIS     0.10E+00   62.3     0.00000287     -5732.4804773851 -1.66E-04
    86 OT DIIS     0.10E+00   62.0     0.00000274     -5732.4806729152 -1.96E-04
    87 OT DIIS     0.10E+00   62.3     0.00000272     -5732.4808966760 -2.24E-04
    88 OT DIIS     0.10E+00   62.2     0.00000265     -5732.4810131196 -1.16E-04
    89 OT DIIS     0.10E+00   61.8     0.00000261     -5732.4812919287 -2.79E-04
    90 OT DIIS     0.10E+00   61.4     0.00000254     -5732.4813565602 -6.46E-05
    91 OT DIIS     0.10E+00   62.7     0.00000259     -5732.4815523178 -1.96E-04
    92 OT DIIS     0.10E+00   61.0     0.00000246     -5732.4815754123 -2.31E-05
    93 OT DIIS     0.10E+00   61.9     0.00000240     -5732.4816369064 -6.15E-05
    94 OT DIIS     0.10E+00   62.3     0.00000232     -5732.4818896588 -2.53E-04
    95 OT DIIS     0.10E+00   61.7     0.00000230     -5732.4819638936 -7.42E-05
    96 OT SD       0.10E+00   61.1     0.00000230     -5732.4821403091 -1.76E-04
    97 OT DIIS     0.10E+00   60.8     0.00000226     -5732.4821456047 -5.30E-06
    98 OT DIIS     0.10E+00   61.1     0.00000219     -5732.4822907906 -1.45E-04
    99 OT DIIS     0.10E+00   60.9     0.00000217     -5732.4823671420 -7.64E-05
   100 OT DIIS     0.10E+00   61.7     0.00000213     -5732.4825098695 -1.43E-04
   101 OT DIIS     0.10E+00   61.2     0.00000211     -5732.4826727407 -1.63E-04
   102 OT DIIS     0.10E+00   61.1     0.00000209     -5732.4827279292 -5.52E-05
   103 OT DIIS     0.10E+00   61.0     0.00000204     -5732.4828895907 -1.62E-04
   104 OT DIIS     0.10E+00   60.9     0.00000202     -5732.4829793639 -8.98E-05
   105 OT DIIS     0.10E+00   61.1     0.00000200     -5732.4831174180 -1.38E-04
   106 OT DIIS     0.10E+00   61.2     0.00000197     -5732.4832702327 -1.53E-04
   107 OT DIIS     0.10E+00   61.3     0.00000197     -5732.4834572252 -1.87E-04
   108 OT DIIS     0.10E+00   61.1     0.00000214     -5732.4835163527 -5.91E-05
   109 OT DIIS     0.10E+00   60.7     0.00000188     -5732.4836416280 -1.25E-04
   110 OT DIIS     0.10E+00   60.9     0.00000222     -5732.4836707042 -2.91E-05
   111 OT DIIS     0.10E+00   61.0     0.00000193     -5732.4837150132 -4.43E-05
   112 OT DIIS     0.10E+00   60.7     0.00000182     -5732.4837767694 -6.18E-05
   113 OT SD       0.10E+00   60.7     0.00000187     -5732.4840568626 -2.80E-04
   114 OT DIIS     0.10E+00   60.6     0.00000182     -5732.4840603292 -3.47E-06
   115 OT DIIS     0.10E+00   60.8     0.00000176     -5732.4840716949 -1.14E-05
   116 OT DIIS     0.10E+00   60.6     0.00000174     -5732.4841488408 -7.71E-05
   117 OT DIIS     0.10E+00   60.9     0.00000178     -5732.4841781631 -2.93E-05
   118 OT DIIS     0.10E+00   61.1     0.00000172     -5732.4842150356 -3.69E-05
   119 OT DIIS     0.10E+00   60.9     0.00000171     -5732.4842504832 -3.54E-05
   120 OT DIIS     0.10E+00   60.7     0.00000168     -5732.4844712050 -2.21E-04
   121 OT DIIS     0.10E+00   60.9     0.00000165     -5732.4845475248 -7.63E-05
   122 OT DIIS     0.10E+00   60.9     0.00000166     -5732.4848045583 -2.57E-04
   123 OT DIIS     0.10E+00   61.0     0.00000161     -5732.4848529445 -4.84E-05
   124 OT DIIS     0.10E+00   61.1     0.00000158     -5732.4848942617 -4.13E-05
   125 OT DIIS     0.10E+00   61.5     0.00000163     -5732.4849694389 -7.52E-05
   126 OT DIIS     0.10E+00   61.3     0.00000161     -5732.4850998598 -1.30E-04
   127 OT DIIS     0.10E+00   62.5     0.00000161     -5732.4851175898 -1.77E-05
   128 OT DIIS     0.10E+00   62.8     0.00000155     -5732.4851520507 -3.45E-05
   129 OT SD       0.10E+00   62.5     0.00000152     -5732.4852584165 -1.06E-04
   130 OT DIIS     0.10E+00   61.1     0.00000152     -5732.4852607476 -2.33E-06
   131 OT DIIS     0.10E+00   62.2     0.00000150     -5732.4854285871 -1.68E-04
   132 OT DIIS     0.10E+00   61.0     0.00000148     -5732.4854783594 -4.98E-05
   133 OT DIIS     0.10E+00   62.1     0.00000147     -5732.4855934041 -1.15E-04
   134 OT SD       0.10E+00   61.7     0.00000149     -5732.4857406558 -1.47E-04
   135 OT DIIS     0.10E+00   63.1     0.00000147     -5732.4857428720 -2.22E-06
   136 OT DIIS     0.10E+00   63.0     0.00000143     -5732.4857697499 -2.69E-05
   137 OT DIIS     0.10E+00   62.4     0.00000141     -5732.4858939909 -1.24E-04
   138 OT DIIS     0.10E+00   63.9     0.00000141     -5732.4860009378 -1.07E-04
   139 OT DIIS     0.10E+00   62.1     0.00000140     -5732.4860557347 -5.48E-05
   140 OT DIIS     0.10E+00   61.6     0.00000139     -5732.4860797045 -2.40E-05
   141 OT DIIS     0.10E+00   60.9     0.00000145     -5732.4863122131 -2.33E-04
   142 OT SD       0.10E+00   61.6     0.00000145     -5732.4863159124 -3.70E-06
   143 OT SD       0.10E+00   61.8     0.00000140     -5732.4863179937 -2.08E-06
   144 OT DIIS     0.10E+00   62.2     0.00000137     -5732.4863199410 -1.95E-06
   145 OT DIIS     0.10E+00   61.4     0.00000139     -5732.4864084405 -8.85E-05
   146 OT DIIS     0.10E+00   61.6     0.00000138     -5732.4864347456 -2.63E-05
   147 OT DIIS     0.10E+00   61.3     0.00000135     -5732.4864338937  8.52E-07
   148 OT DIIS     0.10E+00   61.3     0.00000132     -5732.4864580632 -2.42E-05
   149 OT DIIS     0.10E+00   60.7     0.00000132     -5732.4864617973 -3.73E-06
   150 OT DIIS     0.10E+00   61.2     0.00000130     -5732.4864902806 -2.85E-05

  Leaving inner SCF loop after reaching   150 steps.


  Electronic density on regular grids:      -2111.9999999970        0.0000000030
  Core density on regular grids:             2111.9999999992       -0.0000000008
  Total charge density on r-space grids:        0.0000000022
  Total charge density g-space grids:           0.0000000022

  Overlap energy of the core charge distribution:               0.00001247384370
  Self energy of the core charge distribution:             -14063.09528692122331
  Core Hamiltonian energy:                                   3729.02322364434804
  Hartree energy:                                            5734.55102268805877
  Exchange-correlation energy:                              -1132.44825588889603
  Dispersion energy:                                           -0.51720627674891

  Total energy:                                             -5732.48649028061755

  outer SCF iter =    1 RMS gradient =   0.13E-05 energy =      -5732.4864902806

  ----------------------------------- OT ---------------------------------------
  Minimizer      : DIIS                : direct inversion
                                         in the iterative subspace
                                         using   7 DIIS vectors
                                         safer DIIS on
  Preconditioner : FULL_SINGLE_INVERSE : inversion of 
                                         H + eS - 2*(Sc)(c^T*H*c+const)(Sc)^T
  Precond_solver : INVERSE_UPDATE
  stepsize       :    0.10000000                  energy_gap     :    0.10000000
  eps_taylor     :   0.10000E-15                  max_taylor     :             4
  ----------------------------------- OT ---------------------------------------

  Step     Update method      Time    Convergence         Total energy    Change
  ------------------------------------------------------------------------------


     Lanczos converged:  F threshold:   0.100E-02
     Est. extremal eigenvalues:    0.206E+02   0.472E-01
     Est. condition number :    0.436E+03
     Hotelling iter   1 1.00000000   0.991E+00       4.445    98044.438
     Hotelling iter   2 1.00000000   0.966E+00       1.002   434945.479
     Hotelling iter   3 1.00000000   0.873E+00       0.970   449359.456
     Hotelling iter   4 1.00000000   0.599E+00       0.988   440867.490
     Hotelling iter   5 1.00000000   0.183E+00       0.993   438992.837



     Lanczos converged:  F threshold:   0.100E-02
     Est. extremal eigenvalues:    0.206E+02   0.472E-01
     Est. condition number :    0.436E+03
     Hotelling iter   1 1.00000000   0.991E+00       2.505   173945.873
     Hotelling iter   2 1.00000000   0.966E+00       0.981   444163.379
     Hotelling iter   3 1.00000000   0.873E+00       0.974   447460.405
     Hotelling iter   4 1.00000000   0.599E+00       0.996   437678.671
     Hotelling iter   5 1.00000000   0.183E+00       0.978   445361.375

     1 OT DIIS     0.10E+00  143.5     0.00001597     -5732.4865721634 -8.19E-05
     2 OT DIIS     0.10E+00   60.4     0.00001172     -5732.4867856345 -2.13E-04
     3 OT DIIS     0.10E+00   60.4     0.00000936     -5732.4869575153 -1.72E-04
     4 OT DIIS     0.10E+00   61.3     0.00000676     -5732.4870685947 -1.11E-04
     5 OT DIIS     0.10E+00   60.6     0.00000537     -5732.4871410866 -7.25E-05
     6 OT DIIS     0.10E+00   60.1     0.00000502     -5732.4871999565 -5.89E-05
     7 OT DIIS     0.10E+00   60.9     0.00000491     -5732.4872412895 -4.13E-05
     8 OT DIIS     0.10E+00   60.6     0.00000480     -5732.4872961774 -5.49E-05
     9 OT DIIS     0.10E+00   60.4     0.00000472     -5732.4873624305 -6.63E-05
    10 OT DIIS     0.10E+00   60.4     0.00000466     -5732.4874515841 -8.92E-05
    11 OT DIIS     0.10E+00   60.4     0.00000459     -5732.4875740324 -1.22E-04
    12 OT DIIS     0.10E+00   60.6     0.00000451     -5732.4877212743 -1.47E-04
    13 OT DIIS     0.10E+00   60.3     0.00000442     -5732.4879003266 -1.79E-04
    14 OT DIIS     0.10E+00   60.2     0.00000434     -5732.4880392536 -1.39E-04
    15 OT DIIS     0.10E+00   60.6     0.00000423     -5732.4882621149 -2.23E-04
    16 OT DIIS     0.10E+00   60.0     0.00000412     -5732.4884336711 -1.72E-04
    17 OT DIIS     0.10E+00   60.2     0.00000402     -5732.4886387420 -2.05E-04
    18 OT DIIS     0.10E+00   60.5     0.00000388     -5732.4887770188 -1.38E-04
    19 OT DIIS     0.10E+00   60.7     0.00000397     -5732.4889621171 -1.85E-04
    20 OT DIIS     0.10E+00   60.9     0.00000391     -5732.4890495643 -8.74E-05
    21 OT DIIS     0.10E+00   60.7     0.00000364     -5732.4891970548 -1.47E-04
    22 OT DIIS     0.10E+00   60.8     0.00000350     -5732.4893723995 -1.75E-04
    23 OT DIIS     0.10E+00   61.0     0.00000340     -5732.4895153858 -1.43E-04
    24 OT DIIS     0.10E+00   61.4     0.00000334     -5732.4896248248 -1.09E-04
    25 OT DIIS     0.10E+00   60.7     0.00000319     -5732.4897611611 -1.36E-04
    26 OT DIIS     0.10E+00   60.6     0.00000311     -5732.4898833502 -1.22E-04
    27 OT DIIS     0.10E+00   60.7     0.00000316     -5732.4899220855 -3.87E-05
    28 OT DIIS     0.10E+00   60.7     0.00000297     -5732.4900136480 -9.16E-05
    29 OT DIIS     0.10E+00   60.8     0.00000293     -5732.4900526419 -3.90E-05
    30 OT DIIS     0.10E+00   60.7     0.00000288     -5732.4901100193 -5.74E-05
    31 OT DIIS     0.10E+00   60.6     0.00000281     -5732.4901540466 -4.40E-05
    32 OT DIIS     0.10E+00   61.1     0.00000276     -5732.4902025816 -4.85E-05
    33 OT DIIS     0.10E+00   60.7     0.00000274     -5732.4902192131 -1.66E-05
    34 OT DIIS     0.10E+00   60.9     0.00000271     -5732.4902468095 -2.76E-05
    35 OT DIIS     0.10E+00   60.8     0.00000269     -5732.4902702720 -2.35E-05
    36 OT DIIS     0.10E+00   60.7     0.00000265     -5732.4903104760 -4.02E-05
    37 OT DIIS     0.10E+00   60.6     0.00000264     -5732.4903412715 -3.08E-05
    38 OT DIIS     0.10E+00   60.7     0.00000260     -5732.4904105964 -6.93E-05
    39 OT DIIS     0.10E+00   60.6     0.00000258     -5732.4904306253 -2.00E-05
    40 OT DIIS     0.10E+00   60.6     0.00000252     -5732.4905174329 -8.68E-05
    41 OT DIIS     0.10E+00   60.6     0.00000250     -5732.4906288684 -1.11E-04
    42 OT DIIS     0.10E+00   60.9     0.00000246     -5732.4906584469 -2.96E-05
    43 OT DIIS     0.10E+00   60.9     0.00000243     -5732.4907318240 -7.34E-05
    44 OT DIIS     0.10E+00   60.7     0.00000241     -5732.4907950548 -6.32E-05
    45 OT DIIS     0.10E+00   61.0     0.00000240     -5732.4908225105 -2.75E-05
    46 OT SD       0.10E+00   61.1     0.00000240     -5732.4908442449 -2.17E-05
    47 OT SD       0.10E+00   61.1     0.00000241     -5732.4908500654 -5.82E-06
    48 OT DIIS     0.10E+00   60.5     0.00000243     -5732.4908559440 -5.88E-06
    49 OT DIIS     0.10E+00   60.5     0.00000237     -5732.4908636920 -7.75E-06
    50 OT DIIS     0.10E+00   60.8     0.00000235     -5732.4909071824 -4.35E-05
    51 OT DIIS     0.10E+00   61.0     0.00000232     -5732.4909767040 -6.95E-05
    52 OT DIIS     0.10E+00   60.9     0.00000229     -5732.4910424688 -6.58E-05
    53 OT DIIS     0.10E+00   60.6     0.00000226     -5732.4910990845 -5.66E-05
    54 OT DIIS     0.10E+00   60.8     0.00000214     -5732.4912190598 -1.20E-04
    55 OT DIIS     0.10E+00   61.1     0.00000207     -5732.4912922154 -7.32E-05
    56 OT DIIS     0.10E+00   61.2     0.00000206     -5732.4913236083 -3.14E-05
    57 OT DIIS     0.10E+00   60.8     0.00000203     -5732.4913365842 -1.30E-05
    58 OT DIIS     0.10E+00   60.6     0.00000202     -5732.4913571232 -2.05E-05
    59 OT DIIS     0.10E+00   60.5     0.00000200     -5732.4913859962 -2.89E-05
    60 OT DIIS     0.10E+00   61.2     0.00000200     -5732.4913871779 -1.18E-06
    61 OT DIIS     0.10E+00   60.9     0.00000200     -5732.4913901202 -2.94E-06
    62 OT SD       0.10E+00   60.9     0.00000200     -5732.4913977333 -7.61E-06
    63 OT SD       0.10E+00   60.8     0.00000201     -5732.4914017717 -4.04E-06
    64 OT SD       0.10E+00   60.7     0.00000201     -5732.4914058345 -4.06E-06
    65 OT SD       0.10E+00   60.6     0.00000203     -5732.4914099338 -4.10E-06
    66 OT DIIS     0.10E+00   61.0     0.00000204     -5732.4914140824 -4.15E-06
    67 OT DIIS     0.10E+00   61.0     0.00000193     -5732.4914345870 -2.05E-05
    68 OT DIIS     0.10E+00   61.0     0.00000191     -5732.4914571264 -2.25E-05
    69 OT DIIS     0.10E+00   60.7     0.00000190     -5732.4914754640 -1.83E-05
    70 OT DIIS     0.10E+00   60.8     0.00000187     -5732.4915114418 -3.60E-05
    71 OT DIIS     0.10E+00   60.9     0.00000186     -5732.4915350802 -2.36E-05
    72 OT DIIS     0.10E+00   60.7     0.00000186     -5732.4915468536 -1.18E-05
    73 OT SD       0.10E+00   61.2     0.00000186     -5732.4915569915 -1.01E-05
    74 OT SD       0.10E+00   60.7     0.00000186     -5732.4915604879 -3.50E-06
    75 OT DIIS     0.10E+00   60.6     0.00000187     -5732.4915639996 -3.51E-06
    76 OT DIIS     0.10E+00   60.6     0.00000184     -5732.4915691474 -5.15E-06
    77 OT DIIS     0.10E+00   60.5     0.00000183     -5732.4915846566 -1.55E-05
    78 OT DIIS     0.10E+00   60.6     0.00000182     -5732.4915961773 -1.15E-05
    79 OT DIIS     0.10E+00   60.8     0.00000181     -5732.4916127039 -1.65E-05
    80 OT DIIS     0.10E+00   60.9     0.00000180     -5732.4916328082 -2.01E-05
    81 OT DIIS     0.10E+00   60.6     0.00000179     -5732.4916531740 -2.04E-05
    82 OT DIIS     0.10E+00   60.8     0.00000179     -5732.4916718993 -1.87E-05
    83 OT DIIS     0.10E+00   60.9     0.00000179     -5732.4916851105 -1.32E-05
    84 OT DIIS     0.10E+00   61.1     0.00000179     -5732.4916892397 -4.13E-06
    85 OT DIIS     0.10E+00   61.3     0.00000179     -5732.4916894475 -2.08E-07
    86 OT DIIS     0.10E+00   60.7     0.00000179     -5732.4916899222 -4.75E-07
    87 OT SD       0.10E+00   60.8     0.00000179     -5732.4916931663 -3.24E-06
    88 OT SD       0.10E+00   60.9     0.00000179     -5732.4916963830 -3.22E-06
    89 OT SD       0.10E+00   60.8     0.00000179     -5732.4916996067 -3.22E-06
    90 OT SD       0.10E+00   60.7     0.00000179     -5732.4917028405 -3.23E-06
    91 OT SD       0.10E+00   61.0     0.00000180     -5732.4917060877 -3.25E-06
    92 OT SD       0.10E+00   60.8     0.00000180     -5732.4917093518 -3.26E-06
    93 OT SD       0.10E+00   60.9     0.00000181     -5732.4917126368 -3.28E-06
    94 OT DIIS     0.10E+00   60.8     0.00000182     -5732.4917159471 -3.31E-06
    95 OT DIIS     0.10E+00   60.8     0.00000175     -5732.4917214523 -5.51E-06
    96 OT DIIS     0.10E+00   60.6     0.00000175     -5732.4917234414 -1.99E-06
    97 OT DIIS     0.10E+00   60.7     0.00000175     -5732.4917427564 -1.93E-05
    98 OT DIIS     0.10E+00   60.6     0.00000174     -5732.4917549351 -1.22E-05
    99 OT DIIS     0.10E+00   60.8     0.00000174     -5732.4917623737 -7.44E-06
   100 OT DIIS     0.10E+00   60.7     0.00000174     -5732.4917625429 -1.69E-07
   101 OT DIIS     0.10E+00   60.8     0.00000174     -5732.4917675903 -5.05E-06
   102 OT DIIS     0.10E+00   60.6     0.00000174     -5732.4917740886 -6.50E-06
   103 OT DIIS     0.10E+00   60.7     0.00000174     -5732.4917786187 -4.53E-06
   104 OT DIIS     0.10E+00   61.2     0.00000174     -5732.4917798238 -1.21E-06
   105 OT SD       0.10E+00   61.1     0.00000174     -5732.4917826963 -2.87E-06
   106 OT SD       0.10E+00   60.8     0.00000174     -5732.4917857561 -3.06E-06
   107 OT SD       0.10E+00   61.0     0.00000174     -5732.4917888206 -3.06E-06
   108 OT SD       0.10E+00   61.0     0.00000175     -5732.4917918920 -3.07E-06
   109 OT SD       0.10E+00   60.7     0.00000175     -5732.4917949724 -3.08E-06
   110 OT SD       0.10E+00   61.0     0.00000175     -5732.4917980642 -3.09E-06
   111 OT SD       0.10E+00   60.9     0.00000176     -5732.4918011697 -3.11E-06
   112 OT DIIS     0.10E+00   60.7     0.00000177     -5732.4918042915 -3.12E-06
   113 OT DIIS     0.10E+00   60.8     0.00000171     -5732.4918107742 -6.48E-06
   114 OT DIIS     0.10E+00   60.8     0.00000171     -5732.4918110992 -3.25E-07
   115 OT SD       0.10E+00   61.0     0.00000171     -5732.4918192720 -8.17E-06
   116 OT SD       0.10E+00   60.6     0.00000171     -5732.4918222265 -2.95E-06
   117 OT SD       0.10E+00   60.5     0.00000172     -5732.4918251862 -2.96E-06
   118 OT DIIS     0.10E+00   60.8     0.00000172     -5732.4918281532 -2.97E-06
   119 OT DIIS     0.10E+00   60.8     0.00000170     -5732.4918294507 -1.30E-06
   120 OT DIIS     0.10E+00   60.9     0.00000169     -5732.4918841993 -5.47E-05
   121 OT DIIS     0.10E+00   60.5     0.00000168     -5732.4919145766 -3.04E-05
   122 OT DIIS     0.10E+00   60.9     0.00000167     -5732.4919274373 -1.29E-05
   123 OT DIIS     0.10E+00   60.7     0.00000165     -5732.4919926862 -6.52E-05
   124 OT DIIS     0.10E+00   60.9     0.00000163     -5732.4920537281 -6.10E-05
   125 OT DIIS     0.10E+00   60.9     0.00000162     -5732.4920685115 -1.48E-05
   126 OT DIIS     0.10E+00   60.9     0.00000162     -5732.4920788224 -1.03E-05
   127 OT SD       0.10E+00   60.8     0.00000163     -5732.4920866741 -7.85E-06
   128 OT SD       0.10E+00   60.7     0.00000163     -5732.4920893368 -2.66E-06
   129 OT SD       0.10E+00   60.7     0.00000163     -5732.4920920079 -2.67E-06
   130 OT DIIS     0.10E+00   60.9     0.00000164     -5732.4920946936 -2.69E-06
   131 OT DIIS     0.10E+00   60.6     0.00000161     -5732.4921051019 -1.04E-05
   132 OT DIIS     0.10E+00   61.0     0.00000163     -5732.4921901061 -8.50E-05
   133 OT DIIS     0.10E+00   60.4     0.00000170     -5732.4922683478 -7.82E-05
   134 OT SD       0.10E+00   61.0     0.00000168     -5732.4923000023 -3.17E-05
   135 OT SD       0.10E+00   60.9     0.00000156     -5732.4923025965 -2.59E-06
   136 OT DIIS     0.10E+00   61.0     0.00000154     -5732.4923049810 -2.38E-06
   137 OT DIIS     0.10E+00   60.9     0.00000164     -5732.4923604804 -5.55E-05
   138 OT SD       0.10E+00   60.7     0.00000153     -5732.4923899089 -2.94E-05
   139 OT DIIS     0.10E+00   60.9     0.00000152     -5732.4923922441 -2.34E-06
   140 OT SD       0.10E+00   61.1     0.00000156     -5732.4923998503 -7.61E-06
   141 OT SD       0.10E+00   61.2     0.00000152     -5732.4924022285 -2.38E-06
   142 OT DIIS     0.10E+00   61.0     0.00000151     -5732.4924045410 -2.31E-06
   143 OT DIIS     0.10E+00   61.0     0.00000150     -5732.4924096136 -5.07E-06
   144 OT DIIS     0.10E+00   60.9     0.00000147     -5732.4924412622 -3.16E-05
   145 OT DIIS     0.10E+00   60.5     0.00000145     -5732.4924787275 -3.75E-05
   146 OT DIIS     0.10E+00   60.7     0.00000144     -5732.4925235439 -4.48E-05
   147 OT SD       0.10E+00   60.7     0.00000142     -5732.4925416881 -1.81E-05
   148 OT DIIS     0.10E+00   60.8     0.00000142     -5732.4925437169 -2.03E-06
   149 OT DIIS     0.10E+00   60.7     0.00000142     -5732.4925444351 -7.18E-07
   150 OT SD       0.10E+00   61.0     0.00000142     -5732.4925447907 -3.56E-07

  Leaving inner SCF loop after reaching   150 steps.


  Electronic density on regular grids:      -2111.9999999968        0.0000000032
  Core density on regular grids:             2111.9999999992       -0.0000000008
  Total charge density on r-space grids:        0.0000000023
  Total charge density g-space grids:           0.0000000023

  Overlap energy of the core charge distribution:               0.00001247384370
  Self energy of the core charge distribution:             -14063.09528692122331
  Core Hamiltonian energy:                                   3728.99980514505842
  Hartree energy:                                            5734.56338931385744
  Exchange-correlation energy:                              -1132.44325852544966
  Dispersion energy:                                           -0.51720627674891

  Total energy:                                             -5732.49254479066258

  outer SCF iter =    2 RMS gradient =   0.14E-05 energy =      -5732.4925447907

  ----------------------------------- OT ---------------------------------------
  Minimizer      : DIIS                : direct inversion
                                         in the iterative subspace
                                         using   7 DIIS vectors
                                         safer DIIS on
  Preconditioner : FULL_SINGLE_INVERSE : inversion of 
                                         H + eS - 2*(Sc)(c^T*H*c+const)(Sc)^T
  Precond_solver : INVERSE_UPDATE
  stepsize       :    0.10000000                  energy_gap     :    0.10000000
  eps_taylor     :   0.10000E-15                  max_taylor     :             4
  ----------------------------------- OT ---------------------------------------

  Step     Update method      Time    Convergence         Total energy    Change
  ------------------------------------------------------------------------------


     Lanczos converged:  T threshold:   0.100E-02
     Est. extremal eigenvalues:    0.511E+01   0.139E+00
     Est. condition number :    0.367E+02
     Hotelling iter   1 1.00000000   0.902E+00       1.511   288448.262
     Hotelling iter   2 1.00000000   0.674E+00       1.010   431328.775
     Hotelling iter   3 1.00000000   0.258E+00       0.993   438518.888



     Lanczos converged:  T threshold:   0.100E-02
     Est. extremal eigenvalues:    0.510E+01   0.140E+00
     Est. condition number :    0.365E+02
     Hotelling iter   1 1.00000000   0.901E+00       1.530   284856.932
     Hotelling iter   2 1.00000000   0.673E+00       1.000   435666.517
     Hotelling iter   3 1.00000000   0.257E+00       0.998   436237.341

     1 OT DIIS     0.10E+00  138.4     0.00000156     -5732.4925468244 -2.03E-06
     2 OT DIIS     0.10E+00   59.9     0.00000157     -5732.4925492772 -2.45E-06
     3 OT SD       0.10E+00   59.5     0.00000157     -5732.4925493088 -3.15E-08
     4 OT SD       0.10E+00   59.8     0.00000160     -5732.4925517943 -2.49E-06
     5 OT SD       0.10E+00   59.6     0.00000167     -5732.4925543122 -2.52E-06
     6 OT SD       0.10E+00   59.8     0.00000190     -5732.4925568059 -2.49E-06
     7 OT SD       0.10E+00   60.0     0.00000260     -5732.4925590004 -2.19E-06
     8 OT SD       0.10E+00   60.0     0.00000444     -5732.4925596766 -6.76E-07
     9 OT DIIS     0.10E+00   60.0     0.00000862     -5732.4925536292  6.05E-06
    10 OT DIIS     0.10E+00   60.0     0.00000147     -5732.4925463319  7.30E-06
    11 OT DIIS     0.10E+00   59.7     0.00000147     -5732.4925487320 -2.40E-06
    12 OT SD       0.10E+00   59.9     0.00000147     -5732.4925502299 -1.50E-06
    13 OT SD       0.10E+00   60.0     0.00000147     -5732.4925524067 -2.18E-06
    14 OT SD       0.10E+00   59.7     0.00000148     -5732.4925545937 -2.19E-06
    15 OT SD       0.10E+00   60.1     0.00000148     -5732.4925567941 -2.20E-06
    16 OT SD       0.10E+00   60.0     0.00000149     -5732.4925590110 -2.22E-06
    17 OT SD       0.10E+00   60.0     0.00000150     -5732.4925612470 -2.24E-06
    18 OT SD       0.10E+00   60.2     0.00000153     -5732.4925635011 -2.25E-06
    19 OT SD       0.10E+00   60.0     0.00000162     -5732.4925657551 -2.25E-06
    20 OT SD       0.10E+00   60.2     0.00000193     -5732.4925679138 -2.16E-06
    21 OT SD       0.10E+00   59.8     0.00000289     -5732.4925695432 -1.63E-06
    22 OT SD       0.10E+00   60.2     0.00000533     -5732.4925687097  8.33E-07
    23 OT DIIS     0.10E+00   59.8     0.00001082     -5732.4925568262  1.19E-05
    24 OT SD       0.10E+00   60.1     0.00000145     -5732.4925538288  3.00E-06
    25 OT SD       0.10E+00   59.9     0.00000145     -5732.4925559369 -2.11E-06
    26 OT SD       0.10E+00   60.0     0.00000145     -5732.4925580493 -2.11E-06
    27 OT SD       0.10E+00   59.8     0.00000146     -5732.4925601667 -2.12E-06
    28 OT SD       0.10E+00   59.9     0.00000149     -5732.4925622848 -2.12E-06
    29 OT SD       0.10E+00   60.0     0.00000158     -5732.4925643801 -2.10E-06
    30 OT SD       0.10E+00   60.0     0.00000192     -5732.4925663438 -1.96E-06
    31 OT SD       0.10E+00   60.0     0.00000293     -5732.4925677071 -1.36E-06
    32 OT DIIS     0.10E+00   60.1     0.00000544     -5732.4925664621  1.24E-06
    33 OT SD       0.10E+00   59.8     0.00000143     -5732.4925676022 -1.14E-06
    34 OT SD       0.10E+00   60.1     0.00000143     -5732.4925696706 -2.07E-06
    35 OT SD       0.10E+00   60.0     0.00000143     -5732.4925717423 -2.07E-06
    36 OT SD       0.10E+00   60.2     0.00000144     -5732.4925738183 -2.08E-06
    37 OT SD       0.10E+00   60.0     0.00000145     -5732.4925758988 -2.08E-06
    38 OT SD       0.10E+00   59.9     0.00000147     -5732.4925779783 -2.08E-06
    39 OT SD       0.10E+00   60.0     0.00000158     -5732.4925800293 -2.05E-06
    40 OT SD       0.10E+00   60.1     0.00000196     -5732.4925819246 -1.90E-06
    41 OT SD       0.10E+00   60.3     0.00000312     -5732.4925830964 -1.17E-06
    42 OT DIIS     0.10E+00   59.9     0.00000598     -5732.4925810156  2.08E-06
    43 OT SD       0.10E+00   59.7     0.00000142     -5732.4925768694  4.15E-06
    44 OT SD       0.10E+00   60.0     0.00000142     -5732.4925789135 -2.04E-06
    45 OT SD       0.10E+00   60.2     0.00000143     -5732.4925809602 -2.05E-06
    46 OT SD       0.10E+00   59.9     0.00000143     -5732.4925830108 -2.05E-06
    47 OT SD       0.10E+00   60.0     0.00000143     -5732.4925850666 -2.06E-06
    48 OT SD       0.10E+00   60.1     0.00000143     -5732.4925871284 -2.06E-06
    49 OT SD       0.10E+00   60.0     0.00000144     -5732.4925891961 -2.07E-06
    50 OT SD       0.10E+00   59.9     0.00000148     -5732.4925912641 -2.07E-06
    51 OT SD       0.10E+00   60.3     0.00000159     -5732.4925933033 -2.04E-06
    52 OT SD       0.10E+00   59.9     0.00000198     -5732.4925951842 -1.88E-06
    53 OT SD       0.10E+00   60.0     0.00000313     -5732.4925963523 -1.17E-06
    54 OT SD       0.10E+00   60.1     0.00000587     -5732.4925944369  1.92E-06
    55 OT DIIS     0.10E+00   60.2     0.00001183     -5732.4925792885  1.51E-05
    56 OT SD       0.10E+00   60.1     0.00000142     -5732.4925827895 -3.50E-06
    57 OT SD       0.10E+00   60.0     0.00000142     -5732.4925848150 -2.03E-06
    58 OT SD       0.10E+00   59.9     0.00000142     -5732.4925868418 -2.03E-06
    59 OT SD       0.10E+00   60.1     0.00000142     -5732.4925888706 -2.03E-06
    60 OT SD       0.10E+00   60.0     0.00000142     -5732.4925909016 -2.03E-06
    61 OT SD       0.10E+00   59.9     0.00000143     -5732.4925929348 -2.03E-06
    62 OT SD       0.10E+00   59.7     0.00000145     -5732.4925949659 -2.03E-06
    63 OT DIIS     0.10E+00   59.9     0.00000152     -5732.4925969752 -2.01E-06
    64 OT DIIS     0.10E+00   60.1     0.00000141     -5732.4926008484 -3.87E-06
    65 OT SD       0.10E+00   60.1     0.00000141     -5732.4926101835 -9.34E-06
    66 OT SD       0.10E+00   60.0     0.00000141     -5732.4926121884 -2.00E-06
    67 OT SD       0.10E+00   59.9     0.00000141     -5732.4926141966 -2.01E-06
    68 OT SD       0.10E+00   60.2     0.00000142     -5732.4926162105 -2.01E-06
    69 OT DIIS     0.10E+00   59.9     0.00000142     -5732.4926182313 -2.02E-06
    70 OT DIIS     0.10E+00   59.9     0.00000141     -5732.4926203148 -2.08E-06
    71 OT SD       0.10E+00   60.0     0.00000151     -5732.4927051477 -8.48E-05
    72 OT SD       0.10E+00   60.2     0.00000142     -5732.4927072035 -2.06E-06
    73 OT DIIS     0.10E+00   60.1     0.00000155     -5732.4927090200 -1.82E-06
    74 OT DIIS     0.10E+00   59.9     0.00000136     -5732.4927148959 -5.88E-06
    75 OT DIIS     0.10E+00   60.1     0.00000137     -5732.4927369899 -2.21E-05
    76 OT DIIS     0.10E+00   60.0     0.00000136     -5732.4927513028 -1.43E-05
    77 OT SD       0.10E+00   60.4     0.00000136     -5732.4927557172 -4.41E-06
    78 OT SD       0.10E+00   60.1     0.00000136     -5732.4927575803 -1.86E-06
    79 OT SD       0.10E+00   60.0     0.00000136     -5732.4927594400 -1.86E-06
    80 OT SD       0.10E+00   59.7     0.00000138     -5732.4927613022 -1.86E-06
    81 OT SD       0.10E+00   60.0     0.00000144     -5732.4927631552 -1.85E-06
    82 OT SD       0.10E+00   59.9     0.00000167     -5732.4927649367 -1.78E-06
    83 OT SD       0.10E+00   60.1     0.00000239     -5732.4927663699 -1.43E-06
    84 OT SD       0.10E+00   60.0     0.00000427     -5732.4927662489  1.21E-07
    85 OT DIIS     0.10E+00   60.0     0.00000851     -5732.4927593350  6.91E-06
    86 OT DIIS     0.10E+00   60.1     0.00000134     -5732.4927522631  7.07E-06
    87 OT SD       0.10E+00   60.0     0.00000134     -5732.4927525533 -2.90E-07
    88 OT SD       0.10E+00   60.1     0.00000134     -5732.4927543649 -1.81E-06
    89 OT SD       0.10E+00   59.7     0.00000135     -5732.4927561783 -1.81E-06
    90 OT SD       0.10E+00   60.2     0.00000136     -5732.4927579919 -1.81E-06
    91 OT SD       0.10E+00   60.1     0.00000141     -5732.4927597956 -1.80E-06
    92 OT SD       0.10E+00   60.1     0.00000158     -5732.4927615431 -1.75E-06
    93 OT SD       0.10E+00   59.9     0.00000214     -5732.4927630361 -1.49E-06
    94 OT SD       0.10E+00   60.1     0.00000368     -5732.4927634199 -3.84E-07
    95 OT DIIS     0.10E+00   59.8     0.00000721     -5732.4927589925  4.43E-06
    96 OT SD       0.10E+00   60.1     0.00000133     -5732.4927524742  6.52E-06
    97 OT SD       0.10E+00   60.1     0.00000133     -5732.4927542631 -1.79E-06
    98 OT SD       0.10E+00   60.2     0.00000133     -5732.4927560545 -1.79E-06
    99 OT SD       0.10E+00   59.9     0.00000134     -5732.4927578493 -1.79E-06
   100 OT SD       0.10E+00   60.1     0.00000134     -5732.4927596482 -1.80E-06
   101 OT SD       0.10E+00   60.0     0.00000135     -5732.4927614513 -1.80E-06
   102 OT SD       0.10E+00   60.0     0.00000137     -5732.4927632549 -1.80E-06
   103 OT SD       0.10E+00   59.7     0.00000144     -5732.4927650411 -1.79E-06
   104 OT SD       0.10E+00   60.0     0.00000172     -5732.4927667278 -1.69E-06
   105 OT SD       0.10E+00   60.1     0.00000259     -5732.4927679600 -1.23E-06
   106 OT SD       0.10E+00   59.9     0.00000477     -5732.4927671961  7.64E-07
   107 OT DIIS     0.10E+00   60.0     0.00000960     -5732.4927577304  9.47E-06
   108 OT DIIS     0.10E+00   60.0     0.00000133     -5732.4927492965  8.43E-06
   109 OT DIIS     0.10E+00   59.7     0.00000133     -5732.4927493322 -3.56E-08
   110 OT SD       0.10E+00   60.2     0.00000133     -5732.4927516823 -2.35E-06
   111 OT SD       0.10E+00   60.1     0.00000133     -5732.4927534577 -1.78E-06
   112 OT SD       0.10E+00   60.0     0.00000133     -5732.4927552333 -1.78E-06
   113 OT SD       0.10E+00   60.1     0.00000133     -5732.4927570103 -1.78E-06
   114 OT SD       0.10E+00   60.2     0.00000134     -5732.4927587879 -1.78E-06
   115 OT SD       0.10E+00   60.1     0.00000135     -5732.4927605633 -1.78E-06
   116 OT SD       0.10E+00   60.0     0.00000142     -5732.4927623187 -1.76E-06
   117 OT SD       0.10E+00   60.0     0.00000167     -5732.4927639835 -1.66E-06
   118 OT SD       0.10E+00   59.9     0.00000245     -5732.4927652491 -1.27E-06
   119 OT SD       0.10E+00   60.0     0.00000443     -5732.4927648050  4.44E-07
   120 OT DIIS     0.10E+00   60.3     0.00000884     -5732.4927570196  7.79E-06
   121 OT SD       0.10E+00   59.7     0.00000132     -5732.4927546653  2.35E-06
   122 OT SD       0.10E+00   60.3     0.00000132     -5732.4927564304 -1.77E-06
   123 OT SD       0.10E+00   59.7     0.00000132     -5732.4927581966 -1.77E-06
   124 OT SD       0.10E+00   60.0     0.00000133     -5732.4927599648 -1.77E-06
   125 OT SD       0.10E+00   60.1     0.00000133     -5732.4927617353 -1.77E-06
   126 OT SD       0.10E+00   60.2     0.00000133     -5732.4927635080 -1.77E-06
   127 OT SD       0.10E+00   59.7     0.00000135     -5732.4927652800 -1.77E-06
   128 OT SD       0.10E+00   59.8     0.00000141     -5732.4927670363 -1.76E-06
   129 OT SD       0.10E+00   59.7     0.00000165     -5732.4927687081 -1.67E-06
   130 OT SD       0.10E+00   59.8     0.00000243     -5732.4927699875 -1.28E-06
   131 OT SD       0.10E+00   60.1     0.00000447     -5732.4927695058  4.82E-07
   132 OT DIIS     0.10E+00   60.0     0.00000908     -5732.4927611779  8.33E-06
   133 OT SD       0.10E+00   60.1     0.00000132     -5732.4927557122  5.47E-06
   134 OT SD       0.10E+00   59.8     0.00000132     -5732.4927574683 -1.76E-06
   135 OT SD       0.10E+00   59.8     0.00000132     -5732.4927592251 -1.76E-06
   136 OT SD       0.10E+00   60.1     0.00000132     -5732.4927609829 -1.76E-06
   137 OT SD       0.10E+00   60.0     0.00000132     -5732.4927627421 -1.76E-06
   138 OT SD       0.10E+00   60.1     0.00000132     -5732.4927645029 -1.76E-06
   139 OT SD       0.10E+00   59.9     0.00000133     -5732.4927662646 -1.76E-06
   140 OT SD       0.10E+00   59.9     0.00000135     -5732.4927680241 -1.76E-06
   141 OT SD       0.10E+00   60.1     0.00000141     -5732.4927697640 -1.74E-06
   142 OT SD       0.10E+00   59.8     0.00000167     -5732.4927714097 -1.65E-06
   143 OT SD       0.10E+00   60.1     0.00000248     -5732.4927726350 -1.23E-06
   144 OT SD       0.10E+00   59.9     0.00000456     -5732.4927720245  6.11E-07
   145 OT DIIS     0.10E+00   60.0     0.00000919     -5732.4927634198  8.60E-06
   146 OT SD       0.10E+00   60.1     0.00000132     -5732.4927587245  4.70E-06
   147 OT SD       0.10E+00   60.0     0.00000132     -5732.4927604742 -1.75E-06
   148 OT SD       0.10E+00   60.1     0.00000132     -5732.4927622246 -1.75E-06
   149 OT SD       0.10E+00   60.0     0.00000132     -5732.4927639763 -1.75E-06
   150 OT SD       0.10E+00   59.9     0.00000132     -5732.4927657294 -1.75E-06

  Leaving inner SCF loop after reaching   150 steps.


  Electronic density on regular grids:      -2111.9999999981        0.0000000019
  Core density on regular grids:             2111.9999999992       -0.0000000008
  Total charge density on r-space grids:        0.0000000011
  Total charge density g-space grids:           0.0000000011

  Overlap energy of the core charge distribution:               0.00001247384370
  Self energy of the core charge distribution:             -14063.09528692122331
  Core Hamiltonian energy:                                   3728.99872109528133
  Hartree energy:                                            5734.56423095739865
  Exchange-correlation energy:                              -1132.44323705796137
  Dispersion energy:                                           -0.51720627674891

  Total energy:                                             -5732.49276572940926

  outer SCF iter =    3 RMS gradient =   0.13E-05 energy =      -5732.4927657294

  ----------------------------------- OT ---------------------------------------
  Minimizer      : DIIS                : direct inversion
                                         in the iterative subspace
                                         using   7 DIIS vectors
                                         safer DIIS on
  Preconditioner : FULL_SINGLE_INVERSE : inversion of 
                                         H + eS - 2*(Sc)(c^T*H*c+const)(Sc)^T
  Precond_solver : INVERSE_UPDATE
  stepsize       :    0.10000000                  energy_gap     :    0.10000000
  eps_taylor     :   0.10000E-15                  max_taylor     :             4
  ----------------------------------- OT ---------------------------------------

  Step     Update method      Time    Convergence         Total energy    Change
  ------------------------------------------------------------------------------


     Lanczos converged:  T threshold:   0.100E-02
     Est. extremal eigenvalues:    0.122E+01   0.579E+00
     Est. condition number :    0.211E+01
     Hotelling iter   1 1.00000000   0.152E+00       1.584   271306.786



     Lanczos converged:  T threshold:   0.100E-02
     Est. extremal eigenvalues:    0.122E+01   0.580E+00
     Est. condition number :    0.210E+01
     Hotelling iter   1 1.00000000   0.149E+00       1.592   270066.920

     1 OT DIIS     0.10E+00  128.0     0.00000139     -5732.4927674847 -1.76E-06
     2 OT DIIS     0.10E+00   59.8     0.00000139     -5732.4927694305 -1.95E-06
     3 OT SD       0.10E+00   59.6     0.00000139     -5732.4927699871 -5.57E-07
     4 OT SD       0.10E+00   59.8     0.00000139     -5732.4927719365 -1.95E-06
     5 OT SD       0.10E+00   59.8     0.00000139     -5732.4927738901 -1.95E-06
     6 OT SD       0.10E+00   59.7     0.00000140     -5732.4927758491 -1.96E-06
     7 OT SD       0.10E+00   59.9     0.00000141     -5732.4927778135 -1.96E-06
     8 OT SD       0.10E+00   60.0     0.00000143     -5732.4927797797 -1.97E-06
     9 OT SD       0.10E+00   59.9     0.00000152     -5732.4927817257 -1.95E-06
    10 OT SD       0.10E+00   59.9     0.00000184     -5732.4927835533 -1.83E-06
    11 OT SD       0.10E+00   60.3     0.00000281     -5732.4927848396 -1.29E-06
    12 OT SD       0.10E+00   60.0     0.00000516     -5732.4927837896  1.05E-06
    13 OT DIIS     0.10E+00   59.8     0.00001030     -5732.4927727864  1.10E-05
    14 OT SD       0.10E+00   60.0     0.00000138     -5732.4927666027  6.18E-06
    15 OT DIIS     0.10E+00   59.8     0.00000138     -5732.4927685327 -1.93E-06
    16 OT SD       0.10E+00   59.6     0.00000138     -5732.4927686753 -1.43E-07
    17 OT DIIS     0.10E+00   60.0     0.00000138     -5732.4927706048 -1.93E-06
    18 OT DIIS     0.10E+00   59.8     0.00000138     -5732.4927719758 -1.37E-06
    19 OT SD       0.10E+00   59.7     0.00000138     -5732.4927758411 -3.87E-06
    20 OT SD       0.10E+00   59.8     0.00000138     -5732.4927777708 -1.93E-06
    21 OT SD       0.10E+00   59.8     0.00000139     -5732.4927797022 -1.93E-06
    22 OT SD       0.10E+00   60.0     0.00000139     -5732.4927816349 -1.93E-06
    23 OT SD       0.10E+00   59.9     0.00000140     -5732.4927835660 -1.93E-06
    24 OT SD       0.10E+00   60.1     0.00000146     -5732.4927854810 -1.91E-06
    25 OT SD       0.10E+00   60.3     0.00000168     -5732.4927873115 -1.83E-06
    26 OT SD       0.10E+00   59.9     0.00000246     -5732.4927887433 -1.43E-06
    27 OT SD       0.10E+00   60.1     0.00000455     -5732.4927883386  4.05E-07
    28 OT DIIS     0.10E+00   60.0     0.00000937     -5732.4927795153  8.82E-06
    29 OT SD       0.10E+00   60.3     0.00000138     -5732.4927711220  8.39E-06
    30 OT SD       0.10E+00   59.9     0.00000138     -5732.4927730410 -1.92E-06
    31 OT SD       0.10E+00   59.8     0.00000138     -5732.4927749606 -1.92E-06
    32 OT SD       0.10E+00   60.1     0.00000138     -5732.4927768808 -1.92E-06
    33 OT SD       0.10E+00   60.2     0.00000139     -5732.4927788005 -1.92E-06
    34 OT SD       0.10E+00   59.8     0.00000143     -5732.4927807111 -1.91E-06
    35 OT SD       0.10E+00   60.5     0.00000156     -5732.4927825762 -1.87E-06
    36 OT SD       0.10E+00   60.1     0.00000203     -5732.4927842356 -1.66E-06
    37 OT SD       0.10E+00   60.0     0.00000337     -5732.4927849956 -7.60E-07
    38 OT DIIS     0.10E+00   60.1     0.00000654     -5732.4927818182  3.18E-06
    39 OT SD       0.10E+00   60.3     0.00000138     -5732.4927828303 -1.01E-06
    40 OT SD       0.10E+00   59.8     0.00000138     -5732.4927847401 -1.91E-06
    41 OT SD       0.10E+00   60.0     0.00000138     -5732.4927866510 -1.91E-06
    42 OT SD       0.10E+00   60.1     0.00000138     -5732.4927885626 -1.91E-06
    43 OT SD       0.10E+00   60.0     0.00000139     -5732.4927904745 -1.91E-06
    44 OT SD       0.10E+00   60.0     0.00000141     -5732.4927923798 -1.91E-06
    45 OT SD       0.10E+00   60.3     0.00000152     -5732.4927942497 -1.87E-06
    46 OT SD       0.10E+00   60.2     0.00000192     -5732.4927959500 -1.70E-06
    47 OT SD       0.10E+00   60.2     0.00000314     -5732.4927968807 -9.31E-07
    48 OT SD       0.10E+00   60.2     0.00000614     -5732.4927943251  2.56E-06
    49 OT DIIS     0.10E+00   59.8     0.00001278     -5732.4927760045  1.83E-05
    50 OT SD       0.10E+00   60.0     0.00000137     -5732.4927806262 -4.62E-06
    51 OT SD       0.10E+00   60.3     0.00000137     -5732.4927825278 -1.90E-06
    52 OT SD       0.10E+00   60.1     0.00000137     -5732.4927844298 -1.90E-06
    53 OT SD       0.10E+00   60.0     0.00000137     -5732.4927863332 -1.90E-06
    54 OT SD       0.10E+00   60.0     0.00000138     -5732.4927882383 -1.91E-06
    55 OT SD       0.10E+00   60.0     0.00000138     -5732.4927901454 -1.91E-06
    56 OT SD       0.10E+00   60.1     0.00000139     -5732.4927920524 -1.91E-06
    57 OT SD       0.10E+00   59.8     0.00000143     -5732.4927939500 -1.90E-06
    58 OT SD       0.10E+00   60.2     0.00000160     -5732.4927957903 -1.84E-06
    59 OT SD       0.10E+00   60.4     0.00000218     -5732.4927973614 -1.57E-06
    60 OT SD       0.10E+00   60.1     0.00000382     -5732.4927977057 -3.44E-07
    61 OT DIIS     0.10E+00   60.2     0.00000766     -5732.4927925299  5.18E-06
    62 OT SD       0.10E+00   60.3     0.00000137     -5732.4927887942  3.74E-06
    63 OT SD       0.10E+00   59.8     0.00000137     -5732.4927906884 -1.89E-06
    64 OT SD       0.10E+00   60.3     0.00000137     -5732.4927925833 -1.89E-06
    65 OT SD       0.10E+00   60.2     0.00000137     -5732.4927944793 -1.90E-06
    66 OT SD       0.10E+00   60.0     0.00000137     -5732.4927963766 -1.90E-06
    67 OT SD       0.10E+00   60.3     0.00000137     -5732.4927982752 -1.90E-06
    68 OT SD       0.10E+00   60.3     0.00000138     -5732.4928001737 -1.90E-06
    69 OT SD       0.10E+00   60.2     0.00000141     -5732.4928020652 -1.89E-06
    70 OT SD       0.10E+00   60.4     0.00000153     -5732.4928039168 -1.85E-06
    71 OT SD       0.10E+00   60.2     0.00000196     -5732.4928055831 -1.67E-06
    72 OT SD       0.10E+00   60.3     0.00000325     -5732.4928064127 -8.30E-07
    73 OT SD       0.10E+00   60.4     0.00000636     -5732.4928034941  2.92E-06
    74 OT DIIS     0.10E+00   59.8     0.00001322     -5732.4927837296  1.98E-05
    75 OT SD       0.10E+00   60.3     0.00000137     -5732.4927876166 -3.89E-06
    76 OT SD       0.10E+00   60.4     0.00000137     -5732.4927895040 -1.89E-06
    77 OT SD       0.10E+00   59.9     0.00000137     -5732.4927913917 -1.89E-06
    78 OT SD       0.10E+00   60.0     0.00000137     -5732.4927932802 -1.89E-06
    79 OT SD       0.10E+00   60.1     0.00000137     -5732.4927951692 -1.89E-06
    80 OT SD       0.10E+00   60.2     0.00000139     -5732.4927970567 -1.89E-06
    81 OT SD       0.10E+00   60.2     0.00000143     -5732.4927989304 -1.87E-06
    82 OT SD       0.10E+00   60.2     0.00000162     -5732.4928007383 -1.81E-06
    83 OT SD       0.10E+00   60.1     0.00000224     -5732.4928022480 -1.51E-06
    84 OT DIIS     0.10E+00   60.2     0.00000394     -5732.4928024469 -1.99E-07
    85 OT SD       0.10E+00   60.0     0.00000137     -5732.4928008842  1.56E-06
    86 OT SD       0.10E+00   60.2     0.00000137     -5732.4928027640 -1.88E-06
    87 OT SD       0.10E+00   60.0     0.00000137     -5732.4928046444 -1.88E-06
    88 OT SD       0.10E+00   60.1     0.00000137     -5732.4928065260 -1.88E-06
    89 OT SD       0.10E+00   59.9     0.00000138     -5732.4928084073 -1.88E-06
    90 OT SD       0.10E+00   60.1     0.00000140     -5732.4928102826 -1.88E-06
    91 OT SD       0.10E+00   59.9     0.00000151     -5732.4928121221 -1.84E-06
    92 OT SD       0.10E+00   60.2     0.00000191     -5732.4928137957 -1.67E-06
    93 OT SD       0.10E+00   59.8     0.00000311     -5732.4928147139 -9.18E-07
    94 OT SD       0.10E+00   60.3     0.00000607     -5732.4928122246  2.49E-06
    95 OT DIIS     0.10E+00   59.8     0.00001265     -5732.4927943015  1.79E-05
    96 OT SD       0.10E+00   59.9     0.00000136     -5732.4927971658 -2.86E-06
    97 OT SD       0.10E+00   60.1     0.00000136     -5732.4927990374 -1.87E-06
    98 OT SD       0.10E+00   59.9     0.00000136     -5732.4928009094 -1.87E-06
    99 OT SD       0.10E+00   59.9     0.00000136     -5732.4928027823 -1.87E-06
   100 OT SD       0.10E+00   60.2     0.00000136     -5732.4928046564 -1.87E-06
   101 OT SD       0.10E+00   60.3     0.00000137     -5732.4928065316 -1.88E-06
   102 OT SD       0.10E+00   60.2     0.00000138     -5732.4928084046 -1.87E-06
   103 OT SD       0.10E+00   60.0     0.00000144     -5732.4928102615 -1.86E-06
   104 OT SD       0.10E+00   60.2     0.00000166     -5732.4928120363 -1.77E-06
   105 OT SD       0.10E+00   60.0     0.00000241     -5732.4928134377 -1.40E-06
   106 OT SD       0.10E+00   59.9     0.00000438     -5732.4928131671  2.71E-07
   107 OT DIIS     0.10E+00   60.4     0.00000886     -5732.4928054517  7.72E-06
   108 OT SD       0.10E+00   60.2     0.00000136     -5732.4928055068 -5.51E-08
   109 OT SD       0.10E+00   60.0     0.00000136     -5732.4928073722 -1.87E-06
   110 OT SD       0.10E+00   60.2     0.00000136     -5732.4928092384 -1.87E-06
   111 OT SD       0.10E+00   60.3     0.00000136     -5732.4928111056 -1.87E-06
   112 OT SD       0.10E+00   60.1     0.00000136     -5732.4928129740 -1.87E-06
   113 OT SD       0.10E+00   60.3     0.00000137     -5732.4928148434 -1.87E-06
   114 OT SD       0.10E+00   59.9     0.00000138     -5732.4928167110 -1.87E-06
   115 OT SD       0.10E+00   60.0     0.00000143     -5732.4928185639 -1.85E-06
   116 OT SD       0.10E+00   60.2     0.00000163     -5732.4928203425 -1.78E-06
   117 OT SD       0.10E+00   60.1     0.00000233     -5732.4928217775 -1.44E-06
   118 OT SD       0.10E+00   60.2     0.00000423     -5732.4928216531  1.24E-07
   119 OT DIIS     0.10E+00   60.1     0.00000862     -5732.4928144591  7.19E-06
   120 OT SD       0.10E+00   60.0     0.00000136     -5732.4928054166  9.04E-06
   121 OT SD       0.10E+00   60.4     0.00000136     -5732.4928072757 -1.86E-06
   122 OT SD       0.10E+00   60.2     0.00000136     -5732.4928091352 -1.86E-06
   123 OT SD       0.10E+00   60.3     0.00000136     -5732.4928109956 -1.86E-06
   124 OT SD       0.10E+00   60.2     0.00000136     -5732.4928128568 -1.86E-06
   125 OT SD       0.10E+00   60.0     0.00000137     -5732.4928147173 -1.86E-06
   126 OT SD       0.10E+00   60.1     0.00000141     -5732.4928165677 -1.85E-06
   127 OT SD       0.10E+00   60.1     0.00000155     -5732.4928183691 -1.80E-06
   128 OT SD       0.10E+00   60.0     0.00000206     -5732.4928199451 -1.58E-06
   129 OT SD       0.10E+00   60.0     0.00000349     -5732.4928205296 -5.85E-07
   130 OT DIIS     0.10E+00   60.0     0.00000686     -5732.4928167434  3.79E-06
   131 OT SD       0.10E+00   60.2     0.00000136     -5732.4928138393  2.90E-06
   132 OT SD       0.10E+00   59.7     0.00000136     -5732.4928156921 -1.85E-06
   133 OT SD       0.10E+00   59.9     0.00000136     -5732.4928175458 -1.85E-06
   134 OT SD       0.10E+00   60.1     0.00000136     -5732.4928194005 -1.85E-06
   135 OT SD       0.10E+00   60.1     0.00000136     -5732.4928212568 -1.86E-06
   136 OT SD       0.10E+00   59.9     0.00000136     -5732.4928231147 -1.86E-06
   137 OT SD       0.10E+00   59.9     0.00000136     -5732.4928249742 -1.86E-06
   138 OT SD       0.10E+00   60.2     0.00000138     -5732.4928268323 -1.86E-06
   139 OT SD       0.10E+00   59.8     0.00000142     -5732.4928286782 -1.85E-06
   140 OT SD       0.10E+00   60.1     0.00000160     -5732.4928304634 -1.79E-06
   141 OT SD       0.10E+00   60.2     0.00000215     -5732.4928319920 -1.53E-06
   142 OT SD       0.10E+00   59.9     0.00000364     -5732.4928324418 -4.50E-07
   143 OT SD       0.10E+00   60.0     0.00000703     -5732.4928283642  4.08E-06
   144 OT DIIS     0.10E+00   60.0     0.00001423     -5732.4928050682  2.33E-05
   145 OT DIIS     0.10E+00   59.9     0.00000135     -5732.4928095843 -4.52E-06
   146 OT SD       0.10E+00   60.3     0.00000135     -5732.4928106084 -1.02E-06
   147 OT DIIS     0.10E+00   59.9     0.00000135     -5732.4928124542 -1.85E-06
   148 OT DIIS     0.10E+00   60.0     0.00000135     -5732.4928128837 -4.30E-07
   149 OT SD       0.10E+00   60.1     0.00000135     -5732.4928129286 -4.49E-08
   150 OT SD       0.10E+00   60.0     0.00000135     -5732.4928147747 -1.85E-06

  Leaving inner SCF loop after reaching   150 steps.


  Electronic density on regular grids:      -2111.9999999969        0.0000000031
  Core density on regular grids:             2111.9999999992       -0.0000000008
  Total charge density on r-space grids:        0.0000000023
  Total charge density g-space grids:           0.0000000023

  Overlap energy of the core charge distribution:               0.00001247384370
  Self energy of the core charge distribution:             -14063.09528692122331
  Core Hamiltonian energy:                                   3728.99855046936500
  Hartree energy:                                            5734.56434466185965
  Exchange-correlation energy:                              -1132.44322918179728
  Dispersion energy:                                           -0.51720627674891

  Total energy:                                             -5732.49281477470140

  outer SCF iter =    4 RMS gradient =   0.14E-05 energy =      -5732.4928147747

  ----------------------------------- OT ---------------------------------------
  Minimizer      : DIIS                : direct inversion
                                         in the iterative subspace
                                         using   7 DIIS vectors
                                         safer DIIS on
  Preconditioner : FULL_SINGLE_INVERSE : inversion of 
                                         H + eS - 2*(Sc)(c^T*H*c+const)(Sc)^T
  Precond_solver : INVERSE_UPDATE
  stepsize       :    0.10000000                  energy_gap     :    0.10000000
  eps_taylor     :   0.10000E-15                  max_taylor     :             4
  ----------------------------------- OT ---------------------------------------

  Step     Update method      Time    Convergence         Total energy    Change
  ------------------------------------------------------------------------------


     Lanczos converged:  T threshold:   0.100E-02
     Est. extremal eigenvalues:    0.103E+01   0.803E+00
     Est. condition number :    0.128E+01
     Hotelling iter   1 1.00000000   0.279E-01       1.556   274664.355



     Lanczos converged:  T threshold:   0.100E-02
     Est. extremal eigenvalues:    0.103E+01   0.805E+00
     Est. condition number :    0.128E+01
     Hotelling iter   1 1.00000000   0.275E-01       1.558   273795.221

     1 OT DIIS     0.10E+00  133.1     0.00000141     -5732.4928166217 -1.85E-06
     2 OT DIIS     0.10E+00   59.8     0.00000141     -5732.4928186290 -2.01E-06
     3 OT SD       0.10E+00   59.9     0.00000141     -5732.4928190209 -3.92E-07
     4 OT SD       0.10E+00   59.7     0.00000141     -5732.4928210297 -2.01E-06
     5 OT SD       0.10E+00   59.8     0.00000141     -5732.4928230405 -2.01E-06
     6 OT SD       0.10E+00   60.0     0.00000142     -5732.4928250537 -2.01E-06
     7 OT SD       0.10E+00   60.2     0.00000142     -5732.4928270682 -2.01E-06
     8 OT SD       0.10E+00   60.2     0.00000146     -5732.4928290772 -2.01E-06
     9 OT SD       0.10E+00   60.2     0.00000159     -5732.4928310437 -1.97E-06
    10 OT SD       0.10E+00   60.2     0.00000207     -5732.4928327993 -1.76E-06
    11 OT SD       0.10E+00   60.4     0.00000350     -5732.4928335687 -7.69E-07
    12 OT DIIS     0.10E+00   60.2     0.00000695     -5732.4928298246  3.74E-06
    13 OT SD       0.10E+00   60.0     0.00000141     -5732.4928230936  6.73E-06
    14 OT SD       0.10E+00   59.8     0.00000141     -5732.4928250927 -2.00E-06
    15 OT SD       0.10E+00   59.9     0.00000141     -5732.4928270921 -2.00E-06
    16 OT SD       0.10E+00   59.9     0.00000141     -5732.4928290927 -2.00E-06
    17 OT SD       0.10E+00   60.0     0.00000141     -5732.4928310936 -2.00E-06
    18 OT SD       0.10E+00   60.1     0.00000142     -5732.4928330934 -2.00E-06
    19 OT SD       0.10E+00   60.0     0.00000146     -5732.4928350802 -1.99E-06
    20 OT SD       0.10E+00   60.1     0.00000163     -5732.4928370073 -1.93E-06
    21 OT SD       0.10E+00   60.1     0.00000221     -5732.4928386567 -1.65E-06
    22 OT SD       0.10E+00   60.1     0.00000384     -5732.4928390748 -4.18E-07
    23 OT DIIS     0.10E+00   60.1     0.00000766     -5732.4928339854  5.09E-06
    24 OT SD       0.10E+00   59.7     0.00000141     -5732.4928253656  8.62E-06
    25 OT SD       0.10E+00   60.2     0.00000141     -5732.4928273577 -1.99E-06
    26 OT SD       0.10E+00   60.1     0.00000141     -5732.4928293506 -1.99E-06
    27 OT SD       0.10E+00   60.1     0.00000141     -5732.4928313450 -1.99E-06
    28 OT SD       0.10E+00   60.0     0.00000141     -5732.4928333412 -2.00E-06
    29 OT SD       0.10E+00   60.0     0.00000142     -5732.4928353375 -2.00E-06
    30 OT SD       0.10E+00   60.2     0.00000147     -5732.4928373231 -1.99E-06
    31 OT SD       0.10E+00   60.4     0.00000163     -5732.4928392506 -1.93E-06
    32 OT SD       0.10E+00   60.1     0.00000220     -5732.4928409130 -1.66E-06
    33 OT SD       0.10E+00   60.1     0.00000376     -5732.4928414183 -5.05E-07
    34 OT DIIS     0.10E+00   60.0     0.00000736     -5732.4928369069  4.51E-06
    35 OT SD       0.10E+00   60.0     0.00000140     -5732.4928309716  5.94E-06
    36 OT SD       0.10E+00   60.2     0.00000140     -5732.4928329552 -1.98E-06
    37 OT SD       0.10E+00   60.2     0.00000140     -5732.4928349395 -1.98E-06
    38 OT SD       0.10E+00   60.2     0.00000140     -5732.4928369246 -1.99E-06
    39 OT SD       0.10E+00   59.9     0.00000141     -5732.4928389107 -1.99E-06
    40 OT SD       0.10E+00   60.1     0.00000141     -5732.4928408963 -1.99E-06
    41 OT SD       0.10E+00   60.3     0.00000144     -5732.4928428740 -1.98E-06
    42 OT SD       0.10E+00   60.2     0.00000156     -5732.4928448088 -1.93E-06
    43 OT SD       0.10E+00   59.8     0.00000202     -5732.4928465400 -1.73E-06
    44 OT SD       0.10E+00   60.2     0.00000340     -5732.4928473344 -7.94E-07
    45 OT SD       0.10E+00   59.9     0.00000677     -5732.4928438446  3.49E-06
    46 OT DIIS     0.10E+00   59.8     0.00001421     -5732.4928207556  2.31E-05
    47 OT SD       0.10E+00   60.2     0.00000140     -5732.4928319191 -1.12E-05
    48 OT SD       0.10E+00   59.9     0.00000140     -5732.4928338965 -1.98E-06
    49 OT SD       0.10E+00   60.0     0.00000140     -5732.4928358745 -1.98E-06
    50 OT SD       0.10E+00   60.1     0.00000140     -5732.4928378537 -1.98E-06
    51 OT SD       0.10E+00   60.0     0.00000140     -5732.4928398352 -1.98E-06
    52 OT SD       0.10E+00   59.9     0.00000141     -5732.4928418189 -1.98E-06
    53 OT SD       0.10E+00   60.0     0.00000141     -5732.4928438040 -1.99E-06
    54 OT SD       0.10E+00   60.1     0.00000145     -5732.4928457834 -1.98E-06
    55 OT SD       0.10E+00   60.3     0.00000157     -5732.4928477232 -1.94E-06
    56 OT SD       0.10E+00   60.0     0.00000201     -5732.4928494735 -1.75E-06
    57 OT SD       0.10E+00   59.7     0.00000330     -5732.4928503768 -9.03E-07
    58 OT SD       0.10E+00   60.0     0.00000638     -5732.4928475512  2.83E-06
    59 OT DIIS     0.10E+00   60.0     0.00001309     -5732.4928283203  1.92E-05
    60 OT SD       0.10E+00   60.2     0.00000140     -5732.4928358097 -7.49E-06
    61 OT DIIS     0.10E+00   60.0     0.00000140     -5732.4928377797 -1.97E-06
    62 OT SD       0.10E+00   60.0     0.00000140     -5732.4928386889 -9.09E-07
    63 OT SD       0.10E+00   59.8     0.00000140     -5732.4928406595 -1.97E-06
    64 OT SD       0.10E+00   60.2     0.00000140     -5732.4928426309 -1.97E-06
    65 OT SD       0.10E+00   60.0     0.00000140     -5732.4928446031 -1.97E-06
    66 OT SD       0.10E+00   60.1     0.00000140     -5732.4928465753 -1.97E-06
    67 OT SD       0.10E+00   59.9     0.00000142     -5732.4928485430 -1.97E-06
    68 OT SD       0.10E+00   60.2     0.00000150     -5732.4928504839 -1.94E-06
    69 OT SD       0.10E+00   60.0     0.00000182     -5732.4928522974 -1.81E-06
    70 OT SD       0.10E+00   60.1     0.00000283     -5732.4928535267 -1.23E-06
    71 OT SD       0.10E+00   60.0     0.00000540     -5732.4928521004  1.43E-06
    72 OT DIIS     0.10E+00   60.0     0.00001120     -5732.4928386034  1.35E-05
    73 OT SD       0.10E+00   60.0     0.00000140     -5732.4928410901 -2.49E-06
    74 OT SD       0.10E+00   59.9     0.00000140     -5732.4928430542 -1.96E-06
    75 OT SD       0.10E+00   60.1     0.00000140     -5732.4928450188 -1.96E-06
    76 OT SD       0.10E+00   60.0     0.00000140     -5732.4928469853 -1.97E-06
    77 OT SD       0.10E+00   60.2     0.00000140     -5732.4928489537 -1.97E-06
    78 OT SD       0.10E+00   59.9     0.00000141     -5732.4928509243 -1.97E-06
    79 OT SD       0.10E+00   60.0     0.00000143     -5732.4928528905 -1.97E-06
    80 OT SD       0.10E+00   60.1     0.00000153     -5732.4928548301 -1.94E-06
    81 OT SD       0.10E+00   60.2     0.00000187     -5732.4928566294 -1.80E-06
    82 OT SD       0.10E+00   60.1     0.00000293     -5732.4928578017 -1.17E-06
    83 OT SD       0.10E+00   60.1     0.00000557     -5732.4928561653  1.64E-06
    84 OT DIIS     0.10E+00   60.2     0.00001142     -5732.4928420658  1.41E-05
    85 OT SD       0.10E+00   60.0     0.00000139     -5732.4928438036 -1.74E-06
    86 OT DIIS     0.10E+00   60.1     0.00000139     -5732.4928457594 -1.96E-06
