 DBCSR| CPU Multiplication driver                                           XSMM (U)
 DBCSR| Multrec recursion limit                                              512 (U)
 DBCSR| Multiplication stack size                                           1000 (D)
 DBCSR| Maximum elements for images                                    UNLIMITED (U)
 DBCSR| Multiplicative factor virtual images                                   1 (U)
 DBCSR| Use multiplication densification                                       T (D)
 DBCSR| Multiplication size stacks                                             3 (U)
 DBCSR| Use memory pool for CPU allocation                                     F (U)
 DBCSR| Number of 3D layers                                               SINGLE (U)
 DBCSR| Use MPI memory allocation                                              F (U)
 DBCSR| Use RMA algorithm                                                      F (U)
 DBCSR| Use Communication thread                                               T (U)
 DBCSR| Communication thread load                                             30 (D)
 DBCSR| MPI: My process id                                                     0
 DBCSR| MPI: Number of processes                                               1
 DBCSR| OMP: Current number of threads                                        16
 DBCSR| OMP: Max number of threads                                            16
 DBCSR| Split modifier for TAS multiplication algorithm                  1.0E+00 (U)


  **** **** ******  **  PROGRAM STARTED AT               2026-02-07 05:05:04.788
 ***** ** ***  *** **   PROGRAM STARTED ON                          ea5e199e594b
 **    ****   ******    PROGRAM STARTED BY                             <unknown>
 ***** **    ** ** **   PROGRAM PROCESS ID                                   678
  **** **  *******  **  PROGRAM STARTED IN                             /mnt/cp2k

 CP2K| version string:                 CP2K version 2026.1 (Development Version)
 CP2K| source code revision number:                                   4e96ea1a00
 CP2K| cp2kflags: omp libint fftw3 libxc elpa parallel scalapack mpi_f08 cosma a
 CP2K|            ce deepmd xsmm dbcsr_acc plumed2 spglib libdftd4 mctc-lib tbli
 CP2K|            ite sirius libvori libbqb libtorch mimic offload_cuda libvdwxc
 CP2K|            c hdf5 trexio libsmeagol greenx
 CP2K| is freely available from                            https://www.cp2k.org/
 CP2K| Program compiled at                                   2026-01-16 05:48:39
 CP2K| Program compiled on                                                      
 CP2K| Program compiled for                                               x86_64
 CP2K| Data directory path                     /opt/cp2k/install/share/cp2k/data
 CP2K| Input file name                                               geo_opt.inp

 GLOBAL| Force Environment number                                              1
 GLOBAL| Basis set file name                                    BASIS_MOLOPT_UZH
 GLOBAL| Potential file name                                       POTENTIAL_UZH
 GLOBAL| MM Potential file name                                     MM_POTENTIAL
 GLOBAL| Coordinate file name                optimized_structure_extxyz_wrap.xyz
 GLOBAL| Method name                                                        CP2K
 GLOBAL| Project name                                         gypsum_slab_geoopt
 GLOBAL| Run type                                                        GEO_OPT
 GLOBAL| FFT library                                                       FFTW3
 GLOBAL| Diagonalization library                                            ELPA
 GLOBAL| Cholesky decomposition library                                ScaLAPACK
 GLOBAL| DGEMM library                                                      BLAS
 GLOBAL| Minimum number of eigenvectors for ELPA usage                        16
 GLOBAL| Orthonormality check for eigenvectors                          DISABLED
 GLOBAL| Matrix multiplication library                                     COSMA
 GLOBAL| All-to-all communication in single precision                          F
 GLOBAL| FFTs using library dependent lengths                                  F
 GLOBAL| Grid backend                                                       AUTO
 GLOBAL| Global print level                                                  LOW
 GLOBAL| MPI I/O enabled                                                       T
 GLOBAL| Total number of message passing processes                             1
 GLOBAL| Number of distributed systems (nodes)                                 1
 GLOBAL| Number of threads for this process                                   16
 GLOBAL| This output is from process                                           0
 GLOBAL| OpenMP stack size per thread (OMP_STACKSIZE)                        16M
 GLOBAL| CPU model name                           Intel(R) Core(TM) Ultra 7 265K
 GLOBAL| CPUID                                                              1002

 MEMORY| system memory details [Kb]
 MEMORY|                        rank 0           min           max       average
 MEMORY| MemTotal             32486564      32486564      32486564      32486564
 MEMORY| MemFree              30107504      30107504      30107504      30107504
 MEMORY| Buffers                 35376         35376         35376         35376
 MEMORY| Cached                 667492        667492        667492        667492
 MEMORY| Slab                   171680        171680        171680        171680
 MEMORY| SReclaimable            50104         50104         50104         50104
 MEMORY| MemLikelyFree        30860476      30860476      30860476      30860476


 GENERATE|  Preliminary Number of Bonds generated:                             0
 GENERATE|  Achieved consistency in connectivity generation.

 *******************************************************************************
 *******************************************************************************
 **                                                                           **
 **     #####                         ##              ##                      **
 **    ##   ##            ##          ##              ##                      **
 **   ##     ##                       ##            ######                    **
 **   ##     ##  ##   ##  ##   #####  ##  ##   ####   ##    #####    #####    **
 **   ##     ##  ##   ##  ##  ##      ## ##   ##      ##   ##   ##  ##   ##   **
 **   ##  ## ##  ##   ##  ##  ##      ####     ###    ##   ######   ######    **
 **    ##  ###   ##   ##  ##  ##      ## ##      ##   ##   ##       ##        **
 **     #######   #####   ##   #####  ##  ##  ####    ##    #####   ##        **
 **           ##                                                    ##        **
 **                                                                           **
 **                                                ... make the atoms dance   **
 **                                                                           **
 **            Copyright (C) by CP2K developers group (2000-2026)             **
 **                      J. Chem. Phys. 152, 194103 (2020)                    **
 **                                                                           **
 *******************************************************************************


 TOTAL NUMBERS AND MAXIMUM NUMBERS

  Total number of            - Atomic kinds:                                   4
                             - Atoms:                                        360
                             - Shell sets:                                   360
                             - Shells:                                      1896
                             - Primitive Cartesian functions:               1800
                             - Cartesian basis functions:                   5136
                             - Spherical basis functions:                   4776

  Maximum angular momentum of- Orbital basis functions:                        2
                             - Local part of the GTH pseudopotential:          2
                             - Non-local part of the GTH pseudopotential:      3


 SCF PARAMETERS         Density guess:                                    ATOMIC
                        --------------------------------------------------------
                        max_scf:                                             180
                        max_scf_history:                                       0
                        max_diis:                                              4
                        --------------------------------------------------------
                        eps_scf:                                        1.50E-06
                        eps_scf_history:                                0.00E+00
                        eps_diis:                                       0.00E+00
                        eps_eigval:                                     1.00E-05
                        --------------------------------------------------------
                        level_shift [a.u.]:                             0.000000
                        --------------------------------------------------------
                        Outer loop SCF in use 
                        No variables optimised in outer loop
                        eps_scf                                         1.50E-06
                        max_scf                                               20
                        No outer loop optimization
                        step_size                                       5.00E-01

 BFGS| Use rational function optimization for step estimation:                NO
 BFGS| Use model Hessian for initial guess:                                  YES
 BFGS| Restart Hessian:                                                       NO
 BFGS| Trust radius:                                                       0.472

 *******************************************************************************
 ***                     STARTING GEOMETRY OPTIMIZATION                      ***
 ***                                   BFGS                                  ***
 *******************************************************************************

 Extrapolation method: initial_guess

 Spin 1

 Number of electrons:                                                       1056
 Number of occupied orbitals:                                               1056
 Number of molecular orbitals:                                              1056

 Spin 2

 Number of electrons:                                                       1056
 Number of occupied orbitals:                                               1056
 Number of molecular orbitals:                                              1056

 Number of orbital functions:                                               4776
 Number of independent orbital functions:                                   4776


 SCF WAVEFUNCTION OPTIMIZATION

  ----------------------------------- OT ---------------------------------------
  Minimizer      : DIIS                : direct inversion
                                         in the iterative subspace
                                         using   7 DIIS vectors
                                         safer DIIS on
  Preconditioner : FULL_SINGLE_INVERSE : inversion of 
                                         H + eS - 2*(Sc)(c^T*H*c+const)(Sc)^T
  Precond_solver : INVERSE_UPDATE
  stepsize       :    0.10000000                  energy_gap     :    0.10000000
  eps_taylor     :   0.10000E-15                  max_taylor     :             4
  ----------------------------------- OT ---------------------------------------

  Step     Update method      Time    Convergence         Total energy    Change
  ------------------------------------------------------------------------------
     1 OT DIIS     0.10E+00   35.7     0.00878316     -5533.8118480818 -5.53E+03
     2 OT DIIS     0.10E+00   32.0     0.00589397     -5594.4802755357 -6.07E+01
     3 OT DIIS     0.10E+00   32.1     0.00484195     -5632.3275946424 -3.78E+01
     4 OT DIIS     0.10E+00   32.2     0.00392174     -5656.0513283703 -2.37E+01
     5 OT DIIS     0.10E+00   32.3     0.00285840     -5682.1103295234 -2.61E+01
     6 OT DIIS     0.10E+00   32.2     0.00215345     -5699.7282327763 -1.76E+01
     7 OT DIIS     0.10E+00   32.3     0.00160213     -5711.6182193432 -1.19E+01
     8 OT DIIS     0.10E+00   32.2     0.00117761     -5719.4986467139 -7.88E+00
     9 OT DIIS     0.10E+00   31.9     0.00093595     -5723.6516551633 -4.15E+00
    10 OT DIIS     0.10E+00   32.3     0.00072152     -5726.4677987074 -2.82E+00
    11 OT DIIS     0.10E+00   32.4     0.00063446     -5727.6371300905 -1.17E+00
    12 OT DIIS     0.10E+00   32.2     0.00049696     -5729.1273402647 -1.49E+00
    13 OT DIIS     0.10E+00   32.3     0.00039619     -5729.9845984671 -8.57E-01
    14 OT DIIS     0.10E+00   32.2     0.00032080     -5730.7337755197 -7.49E-01
    15 OT DIIS     0.10E+00   32.3     0.00026600     -5731.0883715406 -3.55E-01
    16 OT DIIS     0.10E+00   32.3     0.00022567     -5731.4554442680 -3.67E-01
    17 OT DIIS     0.10E+00   32.2     0.00017765     -5731.6996251276 -2.44E-01
    18 OT DIIS     0.10E+00   32.6     0.00017138     -5731.7630182244 -6.34E-02
    19 OT DIIS     0.10E+00   32.3     0.00013772     -5731.9222523504 -1.59E-01
    20 OT DIIS     0.10E+00   32.3     0.00012681     -5732.0142729484 -9.20E-02
    21 OT DIIS     0.10E+00   32.2     0.00010499     -5732.1003501074 -8.61E-02
    22 OT DIIS     0.10E+00   32.2     0.00009301     -5732.1673904070 -6.70E-02
    23 OT DIIS     0.10E+00   32.2     0.00008389     -5732.2074247053 -4.00E-02
    24 OT DIIS     0.10E+00   32.2     0.00007145     -5732.2656016564 -5.82E-02
    25 OT DIIS     0.10E+00   32.2     0.00006260     -5732.3026151386 -3.70E-02
    26 OT DIIS     0.10E+00   32.2     0.00005781     -5732.3168895465 -1.43E-02
    27 OT DIIS     0.10E+00   32.1     0.00005228     -5732.3395372109 -2.26E-02
    28 OT DIIS     0.10E+00   32.2     0.00004605     -5732.3665297418 -2.70E-02
    29 OT DIIS     0.10E+00   32.2     0.00003991     -5732.3824690950 -1.59E-02
    30 OT DIIS     0.10E+00   32.1     0.00003793     -5732.3955291056 -1.31E-02
    31 OT DIIS     0.10E+00   32.0     0.00003657     -5732.3982496846 -2.72E-03
    32 OT DIIS     0.10E+00   32.0     0.00003455     -5732.4014944525 -3.24E-03
    33 OT DIIS     0.10E+00   32.0     0.00003087     -5732.4116696438 -1.02E-02
    34 OT DIIS     0.10E+00   32.0     0.00002729     -5732.4214013622 -9.73E-03
    35 OT DIIS     0.10E+00   32.2     0.00002374     -5732.4308329064 -9.43E-03
    36 OT DIIS     0.10E+00   32.0     0.00002201     -5732.4339503316 -3.12E-03
    37 OT DIIS     0.10E+00   32.1     0.00002000     -5732.4383511468 -4.40E-03
    38 OT DIIS     0.10E+00   32.1     0.00001930     -5732.4385297692 -1.79E-04
    39 OT DIIS     0.10E+00   32.1     0.00001855     -5732.4405684502 -2.04E-03
    40 OT DIIS     0.10E+00   32.1     0.00001671     -5732.4451737478 -4.61E-03
    41 OT DIIS     0.10E+00   32.1     0.00001549     -5732.4496876416 -4.51E-03
    42 OT DIIS     0.10E+00   32.2     0.00001440     -5732.4521096369 -2.42E-03
    43 OT DIIS     0.10E+00   32.2     0.00001351     -5732.4555870235 -3.48E-03
    44 OT DIIS     0.10E+00   32.2     0.00001262     -5732.4568389725 -1.25E-03
    45 OT DIIS     0.10E+00   32.1     0.00001193     -5732.4587186863 -1.88E-03
    46 OT DIIS     0.10E+00   32.3     0.00001135     -5732.4602378024 -1.52E-03
    47 OT DIIS     0.10E+00   32.2     0.00001067     -5732.4611728747 -9.35E-04
    48 OT DIIS     0.10E+00   32.1     0.00000975     -5732.4634873509 -2.31E-03
    49 OT DIIS     0.10E+00   32.2     0.00000890     -5732.4644574371 -9.70E-04
    50 OT DIIS     0.10E+00   32.1     0.00000844     -5732.4653203267 -8.63E-04
    51 OT DIIS     0.10E+00   32.2     0.00000806     -5732.4659214096 -6.01E-04
    52 OT DIIS     0.10E+00   32.1     0.00000764     -5732.4669146228 -9.93E-04
    53 OT DIIS     0.10E+00   32.2     0.00000735     -5732.4677897171 -8.75E-04
    54 OT DIIS     0.10E+00   32.2     0.00000708     -5732.4687166576 -9.27E-04
    55 OT DIIS     0.10E+00   32.1     0.00000690     -5732.4693346950 -6.18E-04
    56 OT DIIS     0.10E+00   32.1     0.00000659     -5732.4704866866 -1.15E-03
    57 OT DIIS     0.10E+00   32.1     0.00000644     -5732.4710431180 -5.56E-04
    58 OT DIIS     0.10E+00   32.3     0.00000624     -5732.4717099781 -6.67E-04
    59 OT DIIS     0.10E+00   32.1     0.00000574     -5732.4728850155 -1.18E-03
    60 OT DIIS     0.10E+00   32.2     0.00000546     -5732.4735046088 -6.20E-04
    61 OT DIIS     0.10E+00   32.2     0.00000530     -5732.4739146315 -4.10E-04
    62 OT DIIS     0.10E+00   32.1     0.00000507     -5732.4745151708 -6.01E-04
    63 OT DIIS     0.10E+00   32.2     0.00000495     -5732.4749203555 -4.05E-04
    64 OT DIIS     0.10E+00   32.2     0.00000481     -5732.4753074697 -3.87E-04
    65 OT DIIS     0.10E+00   32.2     0.00000476     -5732.4760099379 -7.02E-04
    66 OT DIIS     0.10E+00   32.1     0.00000500     -5732.4761384101 -1.28E-04
    67 OT DIIS     0.10E+00   32.1     0.00000441     -5732.4767535466 -6.15E-04
    68 OT DIIS     0.10E+00   32.1     0.00000421     -5732.4770662504 -3.13E-04
    69 OT DIIS     0.10E+00   32.1     0.00000412     -5732.4774014248 -3.35E-04
    70 OT SD       0.10E+00   32.2     0.00000411     -5732.4778258231 -4.24E-04
    71 OT DIIS     0.10E+00   32.2     0.00000395     -5732.4778424539 -1.66E-05
    72 OT DIIS     0.10E+00   32.1     0.00000376     -5732.4781063972 -2.64E-04
    73 OT DIIS     0.10E+00   32.1     0.00000366     -5732.4783548150 -2.48E-04
    74 OT DIIS     0.10E+00   32.1     0.00000349     -5732.4786542731 -2.99E-04
    75 OT DIIS     0.10E+00   32.2     0.00000341     -5732.4787537079 -9.94E-05
    76 OT DIIS     0.10E+00   32.1     0.00000334     -5732.4787928582 -3.92E-05
    77 OT DIIS     0.10E+00   32.0     0.00000326     -5732.4788664243 -7.36E-05
    78 OT DIIS     0.10E+00   32.0     0.00000318     -5732.4791781888 -3.12E-04
    79 OT DIIS     0.10E+00   32.1     0.00000312     -5732.4792775144 -9.93E-05
    80 OT DIIS     0.10E+00   32.1     0.00000306     -5732.4795180767 -2.41E-04
    81 OT DIIS     0.10E+00   32.0     0.00000298     -5732.4797811921 -2.63E-04
    82 OT DIIS     0.10E+00   32.2     0.00000294     -5732.4799944202 -2.13E-04
    83 OT DIIS     0.10E+00   32.1     0.00000293     -5732.4801381562 -1.44E-04
    84 OT DIIS     0.10E+00   32.0     0.00000285     -5732.4803112999 -1.73E-04
    85 OT DIIS     0.10E+00   32.1     0.00000287     -5732.4804773851 -1.66E-04
    86 OT DIIS     0.10E+00   32.0     0.00000274     -5732.4806729152 -1.96E-04
    87 OT DIIS     0.10E+00   32.1     0.00000272     -5732.4808966760 -2.24E-04
    88 OT DIIS     0.10E+00   32.1     0.00000265     -5732.4810131196 -1.16E-04
    89 OT DIIS     0.10E+00   32.1     0.00000261     -5732.4812919287 -2.79E-04
    90 OT DIIS     0.10E+00   32.1     0.00000254     -5732.4813565602 -6.46E-05
    91 OT DIIS     0.10E+00   32.1     0.00000259     -5732.4815523179 -1.96E-04
    92 OT DIIS     0.10E+00   32.1     0.00000246     -5732.4815754124 -2.31E-05
    93 OT DIIS     0.10E+00   32.1     0.00000240     -5732.4816369065 -6.15E-05
    94 OT DIIS     0.10E+00   32.1     0.00000232     -5732.4818896591 -2.53E-04
    95 OT DIIS     0.10E+00   32.1     0.00000230     -5732.4819638935 -7.42E-05
    96 OT SD       0.10E+00   32.1     0.00000230     -5732.4821403093 -1.76E-04
    97 OT DIIS     0.10E+00   32.1     0.00000226     -5732.4821456049 -5.30E-06
    98 OT DIIS     0.10E+00   32.1     0.00000219     -5732.4822907904 -1.45E-04
    99 OT DIIS     0.10E+00   32.1     0.00000217     -5732.4823671418 -7.64E-05
   100 OT DIIS     0.10E+00   32.1     0.00000213     -5732.4825098720 -1.43E-04
   101 OT DIIS     0.10E+00   32.2     0.00000211     -5732.4826727453 -1.63E-04
   102 OT DIIS     0.10E+00   32.1     0.00000209     -5732.4827279295 -5.52E-05
   103 OT DIIS     0.10E+00   32.1     0.00000204     -5732.4828895834 -1.62E-04
   104 OT DIIS     0.10E+00   32.0     0.00000202     -5732.4829793543 -8.98E-05
   105 OT DIIS     0.10E+00   32.1     0.00000200     -5732.4831174258 -1.38E-04
   106 OT DIIS     0.10E+00   32.1     0.00000197     -5732.4832702273 -1.53E-04
   107 OT DIIS     0.10E+00   32.2     0.00000197     -5732.4834572199 -1.87E-04
   108 OT DIIS     0.10E+00   32.2     0.00000214     -5732.4835163550 -5.91E-05
   109 OT DIIS     0.10E+00   32.1     0.00000188     -5732.4836416349 -1.25E-04
   110 OT DIIS     0.10E+00   32.2     0.00000222     -5732.4836707000 -2.91E-05
   111 OT DIIS     0.10E+00   32.1     0.00000193     -5732.4837150172 -4.43E-05
   112 OT DIIS     0.10E+00   32.2     0.00000182     -5732.4837767781 -6.18E-05
   113 OT SD       0.10E+00   32.4     0.00000187     -5732.4840568488 -2.80E-04
   114 OT DIIS     0.10E+00   32.1     0.00000182     -5732.4840603152 -3.47E-06
   115 OT DIIS     0.10E+00   32.1     0.00000176     -5732.4840717037 -1.14E-05
   116 OT DIIS     0.10E+00   32.1     0.00000174     -5732.4841488540 -7.72E-05
   117 OT DIIS     0.10E+00   32.1     0.00000178     -5732.4841781689 -2.93E-05
   118 OT DIIS     0.10E+00   32.2     0.00000172     -5732.4842149903 -3.68E-05
   119 OT DIIS     0.10E+00   32.1     0.00000171     -5732.4842504315 -3.54E-05
   120 OT DIIS     0.10E+00   32.1     0.00000168     -5732.4844710152 -2.21E-04
   121 OT DIIS     0.10E+00   32.1     0.00000165     -5732.4845474236 -7.64E-05
   122 OT DIIS     0.10E+00   32.1     0.00000166     -5732.4848037166 -2.56E-04
   123 OT DIIS     0.10E+00   32.1     0.00000161     -5732.4848527740 -4.91E-05
   124 OT DIIS     0.10E+00   32.2     0.00000158     -5732.4848956717 -4.29E-05
   125 OT DIIS     0.10E+00   32.2     0.00000164     -5732.4849720644 -7.64E-05
   126 OT DIIS     0.10E+00   32.1     0.00000162     -5732.4851016091 -1.30E-04
   127 OT DIIS     0.10E+00   32.1     0.00000161     -5732.4851187824 -1.72E-05
   128 OT DIIS     0.10E+00   32.0     0.00000155     -5732.4851359047 -1.71E-05
   129 OT DIIS     0.10E+00   32.1     0.00000153     -5732.4852344408 -9.85E-05
   130 OT DIIS     0.10E+00   32.2     0.00000160     -5732.4852371738 -2.73E-06
   131 OT DIIS     0.10E+00   32.1     0.00000151     -5732.4853268656 -8.97E-05
   132 OT DIIS     0.10E+00   32.2     0.00000150     -5732.4853589090 -3.20E-05
   133 OT DIIS     0.10E+00   32.1     0.00000147     -5732.4855496641 -1.91E-04

  *** SCF run converged in   133 steps ***


  Electronic density on regular grids:      -2111.9999999970        0.0000000030
  Core density on regular grids:             2111.9999999992       -0.0000000008
  Total charge density on r-space grids:        0.0000000022
  Total charge density g-space grids:           0.0000000022

  Overlap energy of the core charge distribution:               0.00001247384370
  Self energy of the core charge distribution:             -14063.09528692122331
  Core Hamiltonian energy:                                   3729.02747857543181
  Hartree energy:                                            5734.54841064354514
  Exchange-correlation energy:                              -1132.44895815897826
  Dispersion energy:                                           -0.51720627674891

  Total energy:                                             -5732.48554966413030

  outer SCF iter =    1 RMS gradient =   0.15E-05 energy =      -5732.4855496641
  outer SCF loop converged in   1 iterations or  133 steps


  Integrated spin density:                                          0.0000000000
  Integrated absolute spin density:                                 0.0000000065
  Ideal and single determinant S**2 :                    0.000000      -0.000000

 ENERGY| Total FORCE_EVAL ( QS ) energy [hartree]          -5732.485571596891532

 OPT| **************************************************************************
 OPT| Step number                                                              0
 OPT| Optimization method                                                   BFGS
 OPT| Total energy [hartree]                                    -5732.4855715969
 OPT| Used time [s]                                                     4449.861
 OPT| **************************************************************************
 OPT| Estimated peak process memory [MiB]                                  26279

 --------------------------
 OPTIMIZATION STEP:      1
 --------------------------

 Extrapolation method: ASPC

 Spin 1

 Number of electrons:                                                       1056
 Number of occupied orbitals:                                               1056
 Number of molecular orbitals:                                              1056

 Spin 2

 Number of electrons:                                                       1056
 Number of occupied orbitals:                                               1056
 Number of molecular orbitals:                                              1056

 Number of orbital functions:                                               4776
 Number of independent orbital functions:                                   4776


 SCF WAVEFUNCTION OPTIMIZATION

  ----------------------------------- OT ---------------------------------------
  Minimizer      : DIIS                : direct inversion
                                         in the iterative subspace
                                         using   7 DIIS vectors
                                         safer DIIS on
  Preconditioner : FULL_SINGLE_INVERSE : inversion of 
                                         H + eS - 2*(Sc)(c^T*H*c+const)(Sc)^T
  Precond_solver : INVERSE_UPDATE
  stepsize       :    0.10000000                  energy_gap     :    0.10000000
  eps_taylor     :   0.10000E-15                  max_taylor     :             4
  ----------------------------------- OT ---------------------------------------

  Step     Update method      Time    Convergence         Total energy    Change
  ------------------------------------------------------------------------------


     Lanczos converged:  F threshold:   0.100E-02
     Est. extremal eigenvalues:    0.208E+02   0.464E-01
     Est. condition number :    0.448E+03
     Hotelling iter   1 1.00000000   0.992E+00       2.393   182113.474
     Hotelling iter   2 1.00000000   0.967E+00       1.276   341597.540
     Hotelling iter   3 1.00000000   0.875E+00       1.340   325096.818
     Hotelling iter   4 1.00000000   0.606E+00       1.258   346373.740
     Hotelling iter   5 1.00000000   0.189E+00       1.285   339179.828



     Lanczos converged:  F threshold:   0.100E-02
     Est. extremal eigenvalues:    0.208E+02   0.464E-01
     Est. condition number :    0.448E+03
     Hotelling iter   1 1.00000000   0.992E+00       2.375   183443.695
     Hotelling iter   2 1.00000000   0.967E+00       1.291   337452.024
     Hotelling iter   3 1.00000000   0.875E+00       1.323   329382.865
     Hotelling iter   4 1.00000000   0.606E+00       1.267   343802.011
     Hotelling iter   5 1.00000000   0.189E+00       1.269   343510.123

     1 OT DIIS     0.10E+00   39.0     0.00019461     -5732.5024491107 -5.73E+03
     2 OT DIIS     0.10E+00   31.3     0.00013253     -5732.5336459597 -3.12E-02
     3 OT DIIS     0.10E+00   31.3     0.00007250     -5732.5583352319 -2.47E-02
     4 OT DIIS     0.10E+00   31.3     0.00003591     -5732.5672773052 -8.94E-03
     5 OT DIIS     0.10E+00   31.3     0.00002422     -5732.5687920503 -1.51E-03
     6 OT DIIS     0.10E+00   31.4     0.00001413     -5732.5693251096 -5.33E-04
     7 OT DIIS     0.10E+00   31.3     0.00000850     -5732.5695872579 -2.62E-04
     8 OT DIIS     0.10E+00   31.4     0.00000658     -5732.5697055372 -1.18E-04
     9 OT DIIS     0.10E+00   31.4     0.00000589     -5732.5697647776 -5.92E-05
    10 OT DIIS     0.10E+00   31.3     0.00000543     -5732.5698152317 -5.05E-05
    11 OT DIIS     0.10E+00   31.3     0.00000520     -5732.5698731022 -5.79E-05
    12 OT DIIS     0.10E+00   31.3     0.00000507     -5732.5699370422 -6.39E-05
    13 OT DIIS     0.10E+00   31.3     0.00000500     -5732.5700024266 -6.54E-05
    14 OT DIIS     0.10E+00   31.2     0.00000494     -5732.5700697042 -6.73E-05
    15 OT DIIS     0.10E+00   31.3     0.00000487     -5732.5701547862 -8.51E-05
    16 OT DIIS     0.10E+00   31.3     0.00000480     -5732.5702691240 -1.14E-04
    17 OT DIIS     0.10E+00   31.4     0.00000473     -5732.5704058702 -1.37E-04
    18 OT DIIS     0.10E+00   31.3     0.00000465     -5732.5705617817 -1.56E-04
    19 OT DIIS     0.10E+00   31.3     0.00000456     -5732.5707475897 -1.86E-04
    20 OT DIIS     0.10E+00   31.4     0.00000443     -5732.5709318306 -1.84E-04
    21 OT DIIS     0.10E+00   31.3     0.00000435     -5732.5711682392 -2.36E-04
    22 OT DIIS     0.10E+00   31.4     0.00000424     -5732.5712777726 -1.10E-04
    23 OT DIIS     0.10E+00   31.3     0.00000421     -5732.5714869103 -2.09E-04
    24 OT DIIS     0.10E+00   31.8     0.00000419     -5732.5715491165 -6.22E-05
    25 OT DIIS     0.10E+00   31.7     0.00000401     -5732.5716905087 -1.41E-04
    26 OT DIIS     0.10E+00   31.7     0.00000398     -5732.5718521849 -1.62E-04
    27 OT DIIS     0.10E+00   31.7     0.00000380     -5732.5720787172 -2.27E-04
    28 OT DIIS     0.10E+00   31.7     0.00000372     -5732.5722678602 -1.89E-04
    29 OT DIIS     0.10E+00   31.7     0.00000371     -5732.5723877461 -1.20E-04
    30 OT DIIS     0.10E+00   31.7     0.00000348     -5732.5725672866 -1.80E-04
    31 OT DIIS     0.10E+00   31.7     0.00000371     -5732.5726388983 -7.16E-05
    32 OT SD       0.10E+00   31.8     0.00000424     -5732.5729540547 -3.15E-04
    33 OT DIIS     0.10E+00   31.9     0.00000329     -5732.5729677284 -1.37E-05
    34 OT DIIS     0.10E+00   31.8     0.00000315     -5732.5731307995 -1.63E-04
    35 OT DIIS     0.10E+00   31.8     0.00000295     -5732.5732615510 -1.31E-04
    36 OT DIIS     0.10E+00   31.8     0.00000289     -5732.5733585350 -9.70E-05
    37 OT DIIS     0.10E+00   31.7     0.00000288     -5732.5734308262 -7.23E-05
    38 OT DIIS     0.10E+00   31.8     0.00000273     -5732.5735392464 -1.08E-04
    39 OT DIIS     0.10E+00   31.7     0.00000267     -5732.5736470419 -1.08E-04
    40 OT DIIS     0.10E+00   31.8     0.00000262     -5732.5736925223 -4.55E-05
    41 OT DIIS     0.10E+00   31.8     0.00000253     -5732.5737997648 -1.07E-04
    42 OT SD       0.10E+00   31.8     0.00000274     -5732.5739678759 -1.68E-04
    43 OT DIIS     0.10E+00   31.8     0.00000246     -5732.5739746486 -6.77E-06
    44 OT DIIS     0.10E+00   31.8     0.00000241     -5732.5740039305 -2.93E-05
    45 OT DIIS     0.10E+00   31.8     0.00000239     -5732.5740940756 -9.01E-05
    46 OT DIIS     0.10E+00   31.7     0.00000230     -5732.5741763701 -8.23E-05
    47 OT DIIS     0.10E+00   31.8     0.00000226     -5732.5742424084 -6.60E-05
    48 OT DIIS     0.10E+00   31.7     0.00000223     -5732.5742886334 -4.62E-05
    49 OT DIIS     0.10E+00   31.8     0.00000218     -5732.5743455666 -5.69E-05
    50 OT DIIS     0.10E+00   31.8     0.00000217     -5732.5744122164 -6.66E-05
    51 OT DIIS     0.10E+00   31.8     0.00000213     -5732.5744313879 -1.92E-05
    52 OT DIIS     0.10E+00   31.8     0.00000222     -5732.5745373952 -1.06E-04
    53 OT DIIS     0.10E+00   31.7     0.00000209     -5732.5745441544 -6.76E-06
    54 OT DIIS     0.10E+00   31.7     0.00000219     -5732.5746586553 -1.15E-04
    55 OT DIIS     0.10E+00   31.8     0.00000201     -5732.5747257341 -6.71E-05
    56 OT DIIS     0.10E+00   31.7     0.00000203     -5732.5747787408 -5.30E-05
    57 OT DIIS     0.10E+00   31.8     0.00000195     -5732.5748360666 -5.73E-05
    58 OT DIIS     0.10E+00   31.8     0.00000195     -5732.5748980525 -6.20E-05
    59 OT DIIS     0.10E+00   31.7     0.00000189     -5732.5749458507 -4.78E-05
    60 OT DIIS     0.10E+00   31.8     0.00000188     -5732.5749599740 -1.41E-05
    61 OT DIIS     0.10E+00   31.7     0.00000187     -5732.5749727263 -1.28E-05
    62 OT SD       0.10E+00   31.7     0.00000187     -5732.5749804015 -7.68E-06
    63 OT SD       0.10E+00   31.8     0.00000188     -5732.5749839371 -3.54E-06
    64 OT SD       0.10E+00   31.8     0.00000188     -5732.5749874896 -3.55E-06
    65 OT SD       0.10E+00   31.7     0.00000189     -5732.5749910697 -3.58E-06
    66 OT SD       0.10E+00   31.8     0.00000191     -5732.5749946879 -3.62E-06
    67 OT SD       0.10E+00   31.7     0.00000192     -5732.5749983549 -3.67E-06
    68 OT SD       0.10E+00   31.9     0.00000194     -5732.5750020833 -3.73E-06
    69 OT SD       0.10E+00   31.8     0.00000197     -5732.5750058871 -3.80E-06
    70 OT DIIS     0.10E+00   31.8     0.00000200     -5732.5750097827 -3.90E-06
    71 OT DIIS     0.10E+00   31.7     0.00000178     -5732.5750158069 -6.02E-06
    72 OT DIIS     0.10E+00   31.8     0.00000178     -5732.5750258325 -1.00E-05
    73 OT DIIS     0.10E+00   31.8     0.00000177     -5732.5750419268 -1.61E-05
    74 OT DIIS     0.10E+00   31.8     0.00000177     -5732.5750554308 -1.35E-05
    75 OT DIIS     0.10E+00   31.8     0.00000176     -5732.5750733415 -1.79E-05
    76 OT SD       0.10E+00   31.8     0.00000177     -5732.5750755018 -2.16E-06
    77 OT SD       0.10E+00   32.1     0.00000177     -5732.5750786485 -3.15E-06
    78 OT DIIS     0.10E+00   31.7     0.00000177     -5732.5750818058 -3.16E-06
    79 OT DIIS     0.10E+00   31.8     0.00000175     -5732.5750896500 -7.84E-06
    80 OT DIIS     0.10E+00   31.8     0.00000174     -5732.5751059436 -1.63E-05
    81 OT DIIS     0.10E+00   31.7     0.00000173     -5732.5751266344 -2.07E-05
    82 OT DIIS     0.10E+00   31.8     0.00000172     -5732.5751514210 -2.48E-05
    83 OT DIIS     0.10E+00   31.7     0.00000171     -5732.5751718012 -2.04E-05
    84 OT DIIS     0.10E+00   31.9     0.00000171     -5732.5751764205 -4.62E-06
    85 OT DIIS     0.10E+00   31.8     0.00000171     -5732.5751777402 -1.32E-06
    86 OT DIIS     0.10E+00   31.8     0.00000171     -5732.5751785679 -8.28E-07
    87 OT DIIS     0.10E+00   31.8     0.00000171     -5732.5751806000 -2.03E-06
    88 OT SD       0.10E+00   31.9     0.00000171     -5732.5751851101 -4.51E-06
    89 OT SD       0.10E+00   31.8     0.00000171     -5732.5751880676 -2.96E-06
    90 OT DIIS     0.10E+00   31.8     0.00000172     -5732.5751910354 -2.97E-06
    91 OT DIIS     0.10E+00   31.8     0.00000170     -5732.5751932623 -2.23E-06
    92 OT DIIS     0.10E+00   31.8     0.00000170     -5732.5751985821 -5.32E-06
    93 OT DIIS     0.10E+00   31.8     0.00000167     -5732.5752607978 -6.22E-05
    94 OT DIIS     0.10E+00   31.8     0.00000166     -5732.5752633227 -2.52E-06
    95 OT DIIS     0.10E+00   31.8     0.00000164     -5732.5752988384 -3.55E-05
    96 OT DIIS     0.10E+00   31.8     0.00000163     -5732.5753293665 -3.05E-05
    97 OT DIIS     0.10E+00   31.9     0.00000162     -5732.5753513984 -2.20E-05
    98 OT DIIS     0.10E+00   31.8     0.00000160     -5732.5753681824 -1.68E-05
    99 OT DIIS     0.10E+00   31.8     0.00000159     -5732.5753894257 -2.12E-05
   100 OT DIIS     0.10E+00   31.9     0.00000159     -5732.5753949098 -5.48E-06
   101 OT DIIS     0.10E+00   31.8     0.00000159     -5732.5754032337 -8.32E-06
   102 OT DIIS     0.10E+00   31.8     0.00000159     -5732.5754099545 -6.72E-06
   103 OT DIIS     0.10E+00   31.8     0.00000159     -5732.5754106190 -6.64E-07
   104 OT SD       0.10E+00   31.8     0.00000159     -5732.5754133761 -2.76E-06
   105 OT SD       0.10E+00   31.8     0.00000159     -5732.5754159167 -2.54E-06
   106 OT SD       0.10E+00   31.8     0.00000159     -5732.5754184631 -2.55E-06
   107 OT SD       0.10E+00   31.7     0.00000159     -5732.5754210180 -2.55E-06
   108 OT SD       0.10E+00   31.8     0.00000160     -5732.5754235842 -2.57E-06
   109 OT SD       0.10E+00   31.8     0.00000160     -5732.5754261643 -2.58E-06
   110 OT SD       0.10E+00   31.8     0.00000161     -5732.5754287613 -2.60E-06
   111 OT SD       0.10E+00   31.8     0.00000162     -5732.5754313782 -2.62E-06
   112 OT SD       0.10E+00   31.7     0.00000162     -5732.5754340183 -2.64E-06
   113 OT DIIS     0.10E+00   31.7     0.00000163     -5732.5754366854 -2.67E-06
   114 OT SD       0.10E+00   31.9     0.00000155     -5732.5754479231 -1.12E-05
   115 OT SD       0.10E+00   31.8     0.00000154     -5732.5754503272 -2.40E-06
   116 OT SD       0.10E+00   31.8     0.00000154     -5732.5754527235 -2.40E-06
   117 OT SD       0.10E+00   31.9     0.00000154     -5732.5754551245 -2.40E-06
   118 OT SD       0.10E+00   31.8     0.00000155     -5732.5754575342 -2.41E-06
   119 OT SD       0.10E+00   31.8     0.00000155     -5732.5754599545 -2.42E-06
   120 OT SD       0.10E+00   31.8     0.00000156     -5732.5754623886 -2.43E-06
   121 OT SD       0.10E+00   31.8     0.00000156     -5732.5754648394 -2.45E-06
   122 OT DIIS     0.10E+00   31.7     0.00000157     -5732.5754673106 -2.47E-06
   123 OT DIIS     0.10E+00   31.8     0.00000152     -5732.5754688909 -1.58E-06
   124 OT DIIS     0.10E+00   31.8     0.00000151     -5732.5754786883 -9.80E-06
   125 OT DIIS     0.10E+00   31.8     0.00000151     -5732.5754945424 -1.59E-05
   126 OT DIIS     0.10E+00   31.8     0.00000151     -5732.5755004355 -5.89E-06
   127 OT DIIS     0.10E+00   31.9     0.00000151     -5732.5755013378 -9.02E-07
   128 OT DIIS     0.10E+00   31.8     0.00000151     -5732.5755063704 -5.03E-06
   129 OT DIIS     0.10E+00   31.8     0.00000151     -5732.5755146180 -8.25E-06
   130 OT DIIS     0.10E+00   31.8     0.00000150     -5732.5755234456 -8.83E-06
   131 OT DIIS     0.10E+00   31.8     0.00000150     -5732.5755352065 -1.18E-05

  *** SCF run converged in   131 steps ***


  Electronic density on regular grids:      -2111.9999999966        0.0000000034
  Core density on regular grids:             2111.9999999992       -0.0000000008
  Total charge density on r-space grids:        0.0000000025
  Total charge density g-space grids:           0.0000000025

  Overlap energy of the core charge distribution:               0.00001018406058
  Self energy of the core charge distribution:             -14063.09528692122331
  Core Hamiltonian energy:                                   3724.28006068543164
  Hartree energy:                                            5738.00268899639377
  Exchange-correlation energy:                              -1131.24674251627562
  Dispersion energy:                                           -0.51626563487240

  Total energy:                                             -5732.57553520648526

  outer SCF iter =    1 RMS gradient =   0.15E-05 energy =      -5732.5755352065
  outer SCF loop converged in   1 iterations or  131 steps


  Integrated spin density:                                         -0.0000000000
  Integrated absolute spin density:                                 0.0262055558
  Ideal and single determinant S**2 :                    0.000000       0.000053

 ENERGY| Total FORCE_EVAL ( QS ) energy [hartree]          -5732.575542137230514

 OPT| **************************************************************************
 OPT| Step number                                                              1
 OPT| Optimization method                                                   BFGS
 OPT| Total energy [hartree]                                    -5732.5755421372
 OPT| Effective energy change [hartree]                            -0.0899705403
 OPT| Predicted energy change [hartree]                            -0.0675662838
 OPT| Scaling factor                                                0.0000000000
 OPT| Step size                                                     0.1208442707
 OPT| Trust radius                                                  0.4724315332
 OPT| Decrease in energy                                                     YES
 OPT| Used time [s]                                                     4322.737
 OPT|
 OPT| Maximum step size                                             0.1208442707
 OPT| Convergence limit for maximum step size                       0.0030000000
 OPT| Maximum step size is converged                                          NO
 OPT|
 OPT| RMS step size                                                 0.0241209822
 OPT| Convergence limit for RMS step size                           0.0015000000
 OPT| RMS step size is converged                                              NO
 OPT|
 OPT| Maximum gradient                                              0.0283944013
 OPT| Convergence limit for maximum gradient                        0.0004500000
 OPT| Maximum gradient is converged                                           NO
 OPT|
 OPT| RMS gradient                                                  0.0057412272
 OPT| Convergence limit for RMS gradient                            0.0003000000
 OPT| RMS gradient is converged                                               NO
 OPT| **************************************************************************
 OPT| Estimated peak process memory after this step [MiB]                  27189

 --------------------------
 OPTIMIZATION STEP:      2
 --------------------------

 Extrapolation method: ASPC

 Spin 1

 Number of electrons:                                                       1056
 Number of occupied orbitals:                                               1056
 Number of molecular orbitals:                                              1056

 Spin 2

 Number of electrons:                                                       1056
 Number of occupied orbitals:                                               1056
 Number of molecular orbitals:                                              1056

 Number of orbital functions:                                               4776
 Number of independent orbital functions:                                   4776


 SCF WAVEFUNCTION OPTIMIZATION

  ----------------------------------- OT ---------------------------------------
  Minimizer      : DIIS                : direct inversion
                                         in the iterative subspace
                                         using   7 DIIS vectors
                                         safer DIIS on
  Preconditioner : FULL_SINGLE_INVERSE : inversion of 
                                         H + eS - 2*(Sc)(c^T*H*c+const)(Sc)^T
  Precond_solver : INVERSE_UPDATE
  stepsize       :    0.10000000                  energy_gap     :    0.10000000
  eps_taylor     :   0.10000E-15                  max_taylor     :             4
  ----------------------------------- OT ---------------------------------------

  Step     Update method      Time    Convergence         Total energy    Change
  ------------------------------------------------------------------------------


     Lanczos converged:  T threshold:   0.100E-02
     Est. extremal eigenvalues:    0.885E+01   0.822E+01
     Est. condition number :    0.108E+01
     Hotelling iter   1 1.00000000   0.719E-02       1.703   255902.927



     Lanczos converged:  T threshold:   0.100E-02
     Est. extremal eigenvalues:    0.885E+01   0.823E+01
     Est. condition number :    0.108E+01
     Hotelling iter   1 1.00000000   0.714E-02       1.641   265561.962

     1 OT DIIS     0.10E+00   27.4     0.00014069     -5732.4738973781 -5.73E+03
     2 OT DIIS     0.10E+00   31.1     0.00012641     -5732.4928347154 -1.89E-02
     3 OT DIIS     0.10E+00   31.2     0.00006487     -5732.5693201352 -7.65E-02
     4 OT DIIS     0.10E+00   31.3     0.00003583     -5732.5987769899 -2.95E-02
     5 OT DIIS     0.10E+00   31.2     0.00003029     -5732.6031214765 -4.34E-03
     6 OT DIIS     0.10E+00   31.4     0.00001633     -5732.6102652446 -7.14E-03
     7 OT DIIS     0.10E+00   31.3     0.00001147     -5732.6124592083 -2.19E-03
     8 OT DIIS     0.10E+00   31.4     0.00001029     -5732.6130803044 -6.21E-04
     9 OT DIIS     0.10E+00   31.4     0.00000878     -5732.6141105733 -1.03E-03
    10 OT DIIS     0.10E+00   31.4     0.00000689     -5732.6154051131 -1.29E-03
    11 OT DIIS     0.10E+00   31.4     0.00000648     -5732.6156500418 -2.45E-04
    12 OT DIIS     0.10E+00   31.4     0.00000500     -5732.6164308527 -7.81E-04
    13 OT DIIS     0.10E+00   31.6     0.00000414     -5732.6167688615 -3.38E-04
    14 OT DIIS     0.10E+00   31.5     0.00000392     -5732.6168414239 -7.26E-05
    15 OT DIIS     0.10E+00   31.5     0.00000313     -5732.6170651055 -2.24E-04
    16 OT DIIS     0.10E+00   31.5     0.00000295     -5732.6171094802 -4.44E-05
    17 OT DIIS     0.10E+00   31.4     0.00000281     -5732.6171428478 -3.34E-05
    18 OT DIIS     0.10E+00   31.3     0.00000251     -5732.6172103419 -6.75E-05
    19 OT DIIS     0.10E+00   31.2     0.00000242     -5732.6172281349 -1.78E-05
    20 OT DIIS     0.10E+00   31.2     0.00000231     -5732.6172538595 -2.57E-05
    21 OT DIIS     0.10E+00   31.2     0.00000213     -5732.6173117009 -5.78E-05
    22 OT DIIS     0.10E+00   31.2     0.00000208     -5732.6173283644 -1.67E-05
    23 OT DIIS     0.10E+00   31.3     0.00000200     -5732.6173606402 -3.23E-05
    24 OT DIIS     0.10E+00   31.4     0.00000196     -5732.6173796783 -1.90E-05
    25 OT DIIS     0.10E+00   31.2     0.00000193     -5732.6173952230 -1.55E-05
    26 OT DIIS     0.10E+00   31.2     0.00000185     -5732.6174486942 -5.35E-05
    27 OT DIIS     0.10E+00   31.3     0.00000183     -5732.6174623613 -1.37E-05
    28 OT DIIS     0.10E+00   31.4     0.00000180     -5732.6174888961 -2.65E-05
    29 OT DIIS     0.10E+00   31.6     0.00000176     -5732.6175304303 -4.15E-05
    30 OT DIIS     0.10E+00   31.5     0.00000176     -5732.6175370185 -6.59E-06
    31 OT DIIS     0.10E+00   31.5     0.00000176     -5732.6175484836 -1.15E-05
    32 OT DIIS     0.10E+00   31.5     0.00000176     -5732.6175487413 -2.58E-07
    33 OT SD       0.10E+00   31.5     0.00000176     -5732.6175491012 -3.60E-07
    34 OT SD       0.10E+00   31.5     0.00000176     -5732.6175522150 -3.11E-06
    35 OT SD       0.10E+00   31.5     0.00000176     -5732.6175553320 -3.12E-06
    36 OT SD       0.10E+00   31.5     0.00000176     -5732.6175584534 -3.12E-06
    37 OT SD       0.10E+00   31.5     0.00000176     -5732.6175615803 -3.13E-06
    38 OT SD       0.10E+00   31.4     0.00000176     -5732.6175647138 -3.13E-06
    39 OT SD       0.10E+00   31.5     0.00000177     -5732.6175678548 -3.14E-06
    40 OT SD       0.10E+00   31.5     0.00000177     -5732.6175710041 -3.15E-06
    41 OT SD       0.10E+00   31.6     0.00000177     -5732.6175741627 -3.16E-06
    42 OT SD       0.10E+00   31.4     0.00000177     -5732.6175773313 -3.17E-06
    43 OT SD       0.10E+00   31.6     0.00000178     -5732.6175805108 -3.18E-06
    44 OT SD       0.10E+00   31.5     0.00000178     -5732.6175837019 -3.19E-06
    45 OT SD       0.10E+00   31.7     0.00000178     -5732.6175869054 -3.20E-06
    46 OT SD       0.10E+00   31.5     0.00000179     -5732.6175901222 -3.22E-06
    47 OT SD       0.10E+00   31.6     0.00000179     -5732.6175933528 -3.23E-06
    48 OT SD       0.10E+00   31.4     0.00000180     -5732.6175965982 -3.25E-06
    49 OT SD       0.10E+00   31.6     0.00000180     -5732.6175998590 -3.26E-06
    50 OT SD       0.10E+00   31.5     0.00000180     -5732.6176031360 -3.28E-06
    51 OT SD       0.10E+00   31.6     0.00000181     -5732.6176064300 -3.29E-06
    52 OT SD       0.10E+00   31.4     0.00000181     -5732.6176097415 -3.31E-06
    53 OT SD       0.10E+00   31.5     0.00000182     -5732.6176130716 -3.33E-06
    54 OT SD       0.10E+00   31.4     0.00000183     -5732.6176164208 -3.35E-06
    55 OT SD       0.10E+00   31.5     0.00000183     -5732.6176197899 -3.37E-06
    56 OT SD       0.10E+00   31.4     0.00000184     -5732.6176231797 -3.39E-06
    57 OT SD       0.10E+00   31.6     0.00000184     -5732.6176265909 -3.41E-06
    58 OT SD       0.10E+00   31.5     0.00000185     -5732.6176300244 -3.43E-06
    59 OT SD       0.10E+00   31.6     0.00000186     -5732.6176334808 -3.46E-06
    60 OT SD       0.10E+00   31.5     0.00000186     -5732.6176369610 -3.48E-06
    61 OT SD       0.10E+00   31.6     0.00000187     -5732.6176404657 -3.50E-06
    62 OT SD       0.10E+00   31.5     0.00000188     -5732.6176439957 -3.53E-06
    63 OT DIIS     0.10E+00   31.3     0.00000188     -5732.6176475519 -3.56E-06
    64 OT SD       0.10E+00   31.4     0.00000240     -5732.6177033442 -5.58E-05
    65 OT SD       0.10E+00   31.7     0.00000203     -5732.6177087235 -5.38E-06
    66 OT SD       0.10E+00   31.4     0.00000176     -5732.6177126330 -3.91E-06
    67 OT SD       0.10E+00   31.3     0.00000157     -5732.6177156310 -3.00E-06
    68 OT DIIS     0.10E+00   31.4     0.00000144     -5732.6177180557 -2.42E-06

  *** SCF run converged in    68 steps ***


  Electronic density on regular grids:      -2111.9999999868        0.0000000132
  Core density on regular grids:             2111.9999999992       -0.0000000008
  Total charge density on r-space grids:        0.0000000124
  Total charge density g-space grids:           0.0000000124

  Overlap energy of the core charge distribution:               0.00000809634411
  Self energy of the core charge distribution:             -14063.09528692122331
  Core Hamiltonian energy:                                   3718.83947265468214
  Hartree energy:                                            5742.00070437241175
  Exchange-correlation energy:                              -1129.84811915050409
  Dispersion energy:                                           -0.51449710744155

  Total energy:                                             -5732.61771805573062

  outer SCF iter =    1 RMS gradient =   0.14E-05 energy =      -5732.6177180557
  outer SCF loop converged in   1 iterations or   68 steps


  Integrated spin density:                                         -0.0000000040
  Integrated absolute spin density:                                 0.0886329627
  Ideal and single determinant S**2 :                    0.000000       0.000763

 ENERGY| Total FORCE_EVAL ( QS ) energy [hartree]          -5732.617725575022632

 OPT| **************************************************************************
 OPT| Step number                                                              2
 OPT| Optimization method                                                   BFGS
 OPT| Total energy [hartree]                                    -5732.6177255750
 OPT| Effective energy change [hartree]                            -0.0421834378
 OPT| Predicted energy change [hartree]                            -0.0404760056
 OPT| Scaling factor                                                0.0000000000
 OPT| Step size                                                     0.1189700017
 OPT| Trust radius                                                  0.4724315332
 OPT| Decrease in energy                                                     YES
 OPT| Used time [s]                                                     2273.194
 OPT|
 OPT| Maximum step size                                             0.1189700017
 OPT| Convergence limit for maximum step size                       0.0030000000
 OPT| Maximum step size is converged                                          NO
 OPT|
 OPT| RMS step size                                                 0.0247711415
 OPT| Convergence limit for RMS step size                           0.0015000000
 OPT| RMS step size is converged                                              NO
 OPT|
 OPT| Maximum gradient                                              0.0117027957
 OPT| Convergence limit for maximum gradient                        0.0004500000
 OPT| Maximum gradient is converged                                           NO
 OPT|
 OPT| RMS gradient                                                  0.0020298794
 OPT| Convergence limit for RMS gradient                            0.0003000000
 OPT| RMS gradient is converged                                               NO
 OPT| **************************************************************************
 OPT| Estimated peak process memory after this step [MiB]                  27331

 --------------------------
 OPTIMIZATION STEP:      3
 --------------------------

 Extrapolation method: ASPC

 Spin 1

 Number of electrons:                                                       1056
 Number of occupied orbitals:                                               1056
 Number of molecular orbitals:                                              1056

 Spin 2

 Number of electrons:                                                       1056
 Number of occupied orbitals:                                               1056
 Number of molecular orbitals:                                              1056

 Number of orbital functions:                                               4776
 Number of independent orbital functions:                                   4776


 SCF WAVEFUNCTION OPTIMIZATION

  ----------------------------------- OT ---------------------------------------
  Minimizer      : DIIS                : direct inversion
                                         in the iterative subspace
                                         using   7 DIIS vectors
                                         safer DIIS on
  Preconditioner : FULL_SINGLE_INVERSE : inversion of 
                                         H + eS - 2*(Sc)(c^T*H*c+const)(Sc)^T
  Precond_solver : INVERSE_UPDATE
  stepsize       :    0.10000000                  energy_gap     :    0.10000000
  eps_taylor     :   0.10000E-15                  max_taylor     :             4
  ----------------------------------- OT ---------------------------------------

  Step     Update method      Time    Convergence         Total energy    Change
  ------------------------------------------------------------------------------


     Lanczos converged:  T threshold:   0.100E-02
     Est. extremal eigenvalues:    0.147E+01   0.156E-01
     Est. condition number :    0.946E+02
     Hotelling iter   1 1.00000000   0.961E+00       1.902   223233.705
     Hotelling iter   2 1.00000000   0.854E+00       1.285   339115.079
     Hotelling iter   3 1.00000000   0.556E+00       1.292   337303.777
     Hotelling iter   4 1.00000000   0.148E+00       1.312   332126.224



     Lanczos converged:  T threshold:   0.100E-02
     Est. extremal eigenvalues:    0.147E+01   0.156E-01
     Est. condition number :    0.942E+02
     Hotelling iter   1 1.00000000   0.960E+00       2.075   204605.078
     Hotelling iter   2 1.00000000   0.854E+00       1.309   332857.119
     Hotelling iter   3 1.00000000   0.555E+00       1.255   347312.458
     Hotelling iter   4 1.00000000   0.147E+00       1.294   336838.364

     1 OT DIIS     0.10E+00   35.6     0.00029135     -5732.4976862332 -5.73E+03
     2 OT DIIS     0.10E+00   31.1     0.00018480     -5732.5579755749 -6.03E-02
     3 OT DIIS     0.10E+00   31.1     0.00013488     -5732.5857505610 -2.78E-02
     4 OT DIIS     0.10E+00   31.1     0.00006744     -5732.6149661925 -2.92E-02
     5 OT DIIS     0.10E+00   31.2     0.00003740     -5732.6215888755 -6.62E-03
     6 OT DIIS     0.10E+00   31.3     0.00002485     -5732.6232787463 -1.69E-03
     7 OT DIIS     0.10E+00   31.3     0.00001871     -5732.6238020573 -5.23E-04
     8 OT DIIS     0.10E+00   31.4     0.00001246     -5732.6241724552 -3.70E-04
     9 OT DIIS     0.10E+00   31.4     0.00001170     -5732.6243808387 -2.08E-04
    10 OT DIIS     0.10E+00   31.4     0.00001093     -5732.6245147985 -1.34E-04
    11 OT SD       0.10E+00   31.4     0.00001094     -5732.6246410455 -1.26E-04
    12 OT SD       0.10E+00   31.4     0.00001121     -5732.6247628867 -1.22E-04
    13 OT SD       0.10E+00   31.5     0.00001159     -5732.6248911745 -1.28E-04
    14 OT SD       0.10E+00   31.3     0.00001209     -5732.6250282370 -1.37E-04
    15 OT SD       0.10E+00   31.4     0.00001273     -5732.6251762298 -1.48E-04
    16 OT SD       0.10E+00   31.3     0.00001360     -5732.6253371366 -1.61E-04
    17 OT SD       0.10E+00   31.3     0.00001491     -5732.6255123503 -1.75E-04
    18 OT SD       0.10E+00   31.5     0.00001712     -5732.6257013844 -1.89E-04
    19 OT SD       0.10E+00   31.4     0.00002116     -5732.6258982614 -1.97E-04
    20 OT SD       0.10E+00   31.4     0.00002861     -5732.6260817065 -1.83E-04
    21 OT SD       0.10E+00   31.5     0.00004196     -5732.6261885714 -1.07E-04
    22 OT SD       0.10E+00   31.5     0.00006503     -5732.6260418214  1.47E-04
    23 OT SD       0.10E+00   31.5     0.00010396     -5732.6251552217  8.87E-04
    24 OT DIIS     0.10E+00   31.2     0.00016874     -5732.6222038669  2.95E-03
    25 OT SD       0.10E+00   31.4     0.00001004     -5732.6244591965 -2.26E-03
    26 OT SD       0.10E+00   31.3     0.00000906     -5732.6245249860 -6.58E-05
    27 OT SD       0.10E+00   31.3     0.00000889     -5732.6245858610 -6.09E-05
    28 OT SD       0.10E+00   31.3     0.00000937     -5732.6246448075 -5.89E-05
    29 OT SD       0.10E+00   31.4     0.00001095     -5732.6247002047 -5.54E-05
    30 OT SD       0.10E+00   31.3     0.00001450     -5732.6247458977 -4.57E-05
    31 OT SD       0.10E+00   31.5     0.00002136     -5732.6247637729 -1.79E-05
    32 OT SD       0.10E+00   31.3     0.00003354     -5732.6247036570  6.01E-05
    33 OT DIIS     0.10E+00   31.3     0.00005429     -5732.6244272285  2.76E-04
    34 OT DIIS     0.10E+00   31.3     0.00000713     -5732.6245673896 -1.40E-04
    35 OT DIIS     0.10E+00   31.3     0.00000689     -5732.6247747413 -2.07E-04
    36 OT DIIS     0.10E+00   31.4     0.00000676     -5732.6250818782 -3.07E-04
    37 OT DIIS     0.10E+00   31.3     0.00000670     -5732.6252478969 -1.66E-04
    38 OT DIIS     0.10E+00   31.4     0.00000669     -5732.6253316168 -8.37E-05
    39 OT SD       0.10E+00   31.3     0.00000669     -5732.6253387634 -7.15E-06
    40 OT SD       0.10E+00   31.3     0.00000673     -5732.6253840198 -4.53E-05
    41 OT SD       0.10E+00   31.5     0.00000678     -5732.6254297625 -4.57E-05
    42 OT SD       0.10E+00   31.3     0.00000686     -5732.6254762304 -4.65E-05
    43 OT SD       0.10E+00   31.4     0.00000697     -5732.6255236282 -4.74E-05
    44 OT SD       0.10E+00   31.3     0.00000715     -5732.6255721260 -4.85E-05
    45 OT SD       0.10E+00   31.4     0.00000746     -5732.6256217779 -4.97E-05
    46 OT SD       0.10E+00   31.3     0.00000810     -5732.6256722976 -5.05E-05
    47 OT SD       0.10E+00   31.4     0.00000945     -5732.6257224129 -5.01E-05
    48 OT SD       0.10E+00   31.4     0.00001225     -5732.6257680859 -4.57E-05
    49 OT SD       0.10E+00   31.3     0.00001768     -5732.6257975758 -2.95E-05
    50 OT SD       0.10E+00   31.4     0.00002746     -5732.6257777668  1.98E-05
    51 OT DIIS     0.10E+00   31.3     0.00004434     -5732.6256162394  1.62E-04
    52 OT SD       0.10E+00   31.4     0.00000634     -5732.6255759991  4.02E-05
    53 OT SD       0.10E+00   31.3     0.00000621     -5732.6256142424 -3.82E-05
    54 OT SD       0.10E+00   31.3     0.00000619     -5732.6256521142 -3.79E-05
    55 OT SD       0.10E+00   31.3     0.00000620     -5732.6256902605 -3.81E-05
    56 OT SD       0.10E+00   31.4     0.00000624     -5732.6257288566 -3.86E-05
    57 OT SD       0.10E+00   31.4     0.00000630     -5732.6257680722 -3.92E-05
    58 OT SD       0.10E+00   31.7     0.00000638     -5732.6258080572 -4.00E-05
    59 OT SD       0.10E+00   31.6     0.00000649     -5732.6258489828 -4.09E-05
    60 OT SD       0.10E+00   31.5     0.00000666     -5732.6258909961 -4.20E-05
    61 OT SD       0.10E+00   31.5     0.00000694     -5732.6259341882 -4.32E-05
    62 OT SD       0.10E+00   31.3     0.00000747     -5732.6259784183 -4.42E-05
    63 OT SD       0.10E+00   31.5     0.00000857     -5732.6260228916 -4.45E-05
    64 OT SD       0.10E+00   31.1     0.00001081     -5732.6260649574 -4.21E-05
    65 OT SD       0.10E+00   31.1     0.00001515     -5732.6260968707 -3.19E-05
    66 OT SD       0.10E+00   31.7     0.00002297     -5732.6260969209 -5.02E-08
    67 OT DIIS     0.10E+00   31.9     0.00003648     -5732.6260051848  9.17E-05
    68 OT SD       0.10E+00   31.7     0.00000585     -5732.6259830468  2.21E-05
    69 OT SD       0.10E+00   31.5     0.00000582     -5732.6260168666 -3.38E-05
    70 OT SD       0.10E+00   31.7     0.00000583     -5732.6260507120 -3.38E-05
    71 OT SD       0.10E+00   31.7     0.00000586     -5732.6260848846 -3.42E-05
    72 OT SD       0.10E+00   31.6     0.00000590     -5732.6261194789 -3.46E-05
    73 OT SD       0.10E+00   31.6     0.00000595     -5732.6261545987 -3.51E-05
    74 OT SD       0.10E+00   31.6     0.00000603     -5732.6261903356 -3.57E-05
    75 OT SD       0.10E+00   31.6     0.00000613     -5732.6262267866 -3.65E-05
    76 OT SD       0.10E+00   31.7     0.00000630     -5732.6262640104 -3.72E-05
    77 OT SD       0.10E+00   31.8     0.00000660     -5732.6263019716 -3.80E-05
    78 OT SD       0.10E+00   31.6     0.00000721     -5732.6263403410 -3.84E-05
    79 OT SD       0.10E+00   31.7     0.00000848     -5732.6263780050 -3.77E-05
    80 OT SD       0.10E+00   31.6     0.00001101     -5732.6264117372 -3.37E-05
    81 OT SD       0.10E+00   31.6     0.00001572     -5732.6264327004 -2.10E-05
    82 OT SD       0.10E+00   31.6     0.00002400     -5732.6264171364  1.56E-05
    83 OT DIIS     0.10E+00   31.7     0.00003794     -5732.6263015747  1.16E-04
    84 OT SD       0.10E+00   31.6     0.00000561     -5732.6261893798  1.12E-04
    85 OT SD       0.10E+00   31.6     0.00000557     -5732.6262204626 -3.11E-05
    86 OT SD       0.10E+00   31.6     0.00000558     -5732.6262515613 -3.11E-05
    87 OT SD       0.10E+00   31.6     0.00000561     -5732.6262829383 -3.14E-05
    88 OT SD       0.10E+00   31.7     0.00000565     -5732.6263146858 -3.17E-05
    89 OT SD       0.10E+00   31.9     0.00000571     -5732.6263468950 -3.22E-05
    90 OT SD       0.10E+00   31.8     0.00000579     -5732.6263796443 -3.27E-05
    91 OT SD       0.10E+00   31.7     0.00000593     -5732.6264129914 -3.33E-05
    92 OT SD       0.10E+00   31.7     0.00000620     -5732.6264468970 -3.39E-05
    93 OT DIIS     0.10E+00   31.8     0.00000677     -5732.6264810448 -3.41E-05
    94 OT DIIS     0.10E+00   31.6     0.00000542     -5732.6265249143 -4.39E-05
    95 OT SD       0.10E+00   31.7     0.00000536     -5732.6265573437 -3.24E-05
    96 OT SD       0.10E+00   31.7     0.00000532     -5732.6265856822 -2.83E-05
    97 OT SD       0.10E+00   31.7     0.00000533     -5732.6266140263 -2.83E-05
    98 OT SD       0.10E+00   31.7     0.00000537     -5732.6266426355 -2.86E-05
    99 OT SD       0.10E+00   31.7     0.00000542     -5732.6266715764 -2.89E-05
   100 OT SD       0.10E+00   31.7     0.00000551     -5732.6267008884 -2.93E-05
   101 OT SD       0.10E+00   31.6     0.00000567     -5732.6267305549 -2.97E-05
   102 OT SD       0.10E+00   31.7     0.00000602     -5732.6267604076 -2.99E-05
   103 OT SD       0.10E+00   31.6     0.00000680     -5732.6267898484 -2.94E-05
   104 OT SD       0.10E+00   31.7     0.00000850     -5732.6268170947 -2.72E-05
   105 OT SD       0.10E+00   31.6     0.00001188     -5732.6268371057 -2.00E-05
   106 OT SD       0.10E+00   31.8     0.00001811     -5732.6268359045  1.20E-06
   107 OT SD       0.10E+00   31.6     0.00002891     -5732.6267749956  6.09E-05
   108 OT DIIS     0.10E+00   31.8     0.00004715     -5732.6265485422  2.26E-04
   109 OT SD       0.10E+00   31.7     0.00000514     -5732.6266027416 -5.42E-05
   110 OT SD       0.10E+00   31.7     0.00000511     -5732.6266290538 -2.63E-05
   111 OT SD       0.10E+00   31.6     0.00000512     -5732.6266553247 -2.63E-05
   112 OT SD       0.10E+00   31.6     0.00000513     -5732.6266817300 -2.64E-05
   113 OT SD       0.10E+00   31.6     0.00000515     -5732.6267083268 -2.66E-05
   114 OT SD       0.10E+00   31.6     0.00000518     -5732.6267351682 -2.68E-05
   115 OT SD       0.10E+00   31.7     0.00000522     -5732.6267623103 -2.71E-05
   116 OT SD       0.10E+00   31.7     0.00000526     -5732.6267898155 -2.75E-05
   117 OT SD       0.10E+00   31.6     0.00000532     -5732.6268177490 -2.79E-05
   118 OT DIIS     0.10E+00   31.7     0.00000541     -5732.6268461719 -2.84E-05
   119 OT DIIS     0.10E+00   31.6     0.00000507     -5732.6269324051 -8.62E-05
   120 OT SD       0.10E+00   31.6     0.00000502     -5732.6269514176 -1.90E-05
   121 OT SD       0.10E+00   31.7     0.00000495     -5732.6269761134 -2.47E-05
   122 OT SD       0.10E+00   31.6     0.00000496     -5732.6270006731 -2.46E-05
   123 OT SD       0.10E+00   31.7     0.00000498     -5732.6270254067 -2.47E-05
   124 OT SD       0.10E+00   31.7     0.00000502     -5732.6270503763 -2.50E-05
   125 OT SD       0.10E+00   31.8     0.00000508     -5732.6270756192 -2.52E-05
   126 OT SD       0.10E+00   31.6     0.00000518     -5732.6271011433 -2.55E-05
   127 OT SD       0.10E+00   31.7     0.00000539     -5732.6271268778 -2.57E-05
   128 OT SD       0.10E+00   31.7     0.00000587     -5732.6271525311 -2.57E-05
   129 OT SD       0.10E+00   31.7     0.00000693     -5732.6271771970 -2.47E-05
   130 OT SD       0.10E+00   31.7     0.00000918     -5732.6271982686 -2.11E-05
   131 OT SD       0.10E+00   31.8     0.00001349     -5732.6272084457 -1.02E-05
   132 OT SD       0.10E+00   31.7     0.00002119     -5732.6271874679  2.10E-05
   133 OT DIIS     0.10E+00   31.6     0.00003438     -5732.6270792418  1.08E-04
   134 OT SD       0.10E+00   31.7     0.00000480     -5732.6269908685  8.84E-05
   135 OT SD       0.10E+00   31.7     0.00000479     -5732.6270139544 -2.31E-05
   136 OT SD       0.10E+00   31.7     0.00000479     -5732.6270370362 -2.31E-05
   137 OT SD       0.10E+00   31.7     0.00000481     -5732.6270602331 -2.32E-05
   138 OT SD       0.10E+00   31.7     0.00000483     -5732.6270835871 -2.34E-05
   139 OT SD       0.10E+00   31.7     0.00000485     -5732.6271071383 -2.36E-05
   140 OT SD       0.10E+00   31.7     0.00000489     -5732.6271309298 -2.38E-05
   141 OT SD       0.10E+00   31.8     0.00000493     -5732.6271550076 -2.41E-05
   142 OT DIIS     0.10E+00   31.7     0.00000499     -5732.6271794169 -2.44E-05
   143 OT DIIS     0.10E+00   31.7     0.00000471     -5732.6272085723 -2.92E-05
   144 OT DIIS     0.10E+00   31.7     0.00000466     -5732.6272399803 -3.14E-05
   145 OT DIIS     0.10E+00   31.6     0.00000464     -5732.6272410440 -1.06E-06
   146 OT SD       0.10E+00   31.8     0.00000464     -5732.6272606410 -1.96E-05
   147 OT SD       0.10E+00   31.6     0.00000466     -5732.6272824178 -2.18E-05
   148 OT SD       0.10E+00   31.7     0.00000468     -5732.6273043319 -2.19E-05
   149 OT SD       0.10E+00   31.6     0.00000470     -5732.6273264144 -2.21E-05
   150 OT SD       0.10E+00   31.7     0.00000473     -5732.6273486976 -2.23E-05
   151 OT SD       0.10E+00   31.6     0.00000476     -5732.6273712163 -2.25E-05
   152 OT SD       0.10E+00   31.8     0.00000480     -5732.6273940062 -2.28E-05
   153 OT SD       0.10E+00   31.7     0.00000487     -5732.6274170995 -2.31E-05
   154 OT SD       0.10E+00   31.7     0.00000497     -5732.6274405108 -2.34E-05
   155 OT SD       0.10E+00   31.7     0.00000516     -5732.6274642007 -2.37E-05
   156 OT SD       0.10E+00   31.7     0.00000556     -5732.6274879762 -2.38E-05
   157 OT SD       0.10E+00   31.8     0.00000642     -5732.6275112261 -2.32E-05
   158 OT SD       0.10E+00   31.9     0.00000818     -5732.6275322086 -2.10E-05
   159 OT SD       0.10E+00   31.7     0.00001157     -5732.6275461292 -1.39E-05
   160 OT SD       0.10E+00   31.7     0.00001764     -5732.6275399318  6.20E-06
   161 OT SD       0.10E+00   31.7     0.00002804     -5732.6274781186  6.18E-05
   162 OT DIIS     0.10E+00   31.6     0.00004547     -5732.6272640325  2.14E-04
   163 OT DIIS     0.10E+00   31.8     0.00000457     -5732.6272771022 -1.31E-05
   164 OT SD       0.10E+00   31.7     0.00000457     -5732.6272893108 -1.22E-05
   165 OT SD       0.10E+00   31.6     0.00000456     -5732.6273102018 -2.09E-05
   166 OT SD       0.10E+00   31.8     0.00000457     -5732.6273310891 -2.09E-05
   167 OT SD       0.10E+00   31.7     0.00000460     -5732.6273520556 -2.10E-05
   168 OT SD       0.10E+00   31.7     0.00000466     -5732.6273731068 -2.11E-05
   169 OT SD       0.10E+00   31.8     0.00000479     -5732.6273941996 -2.11E-05
   170 OT SD       0.10E+00   31.7     0.00000509     -5732.6274151704 -2.10E-05
   171 OT SD       0.10E+00   31.8     0.00000578     -5732.6274355331 -2.04E-05
   172 OT SD       0.10E+00   31.8     0.00000725     -5732.6274539423 -1.84E-05
   173 OT DIIS     0.10E+00   31.9     0.00001014     -5732.6274667636 -1.28E-05
   174 OT SD       0.10E+00   31.8     0.00000450     -5732.6275266336 -5.99E-05
   175 OT SD       0.10E+00   31.7     0.00000445     -5732.6275466069 -2.00E-05
   176 OT SD       0.10E+00   31.8     0.00000446     -5732.6275664388 -1.98E-05
   177 OT SD       0.10E+00   31.8     0.00000448     -5732.6275863636 -1.99E-05
   178 OT SD       0.10E+00   31.8     0.00000453     -5732.6276064021 -2.00E-05
   179 OT SD       0.10E+00   31.7     0.00000463     -5732.6276265325 -2.01E-05
   180 OT SD       0.10E+00   31.8     0.00000486     -5732.6276466410 -2.01E-05

  Leaving inner SCF loop after reaching   180 steps.


  Electronic density on regular grids:      -2111.9999999951        0.0000000049
  Core density on regular grids:             2111.9999999992       -0.0000000008
  Total charge density on r-space grids:        0.0000000041
  Total charge density g-space grids:           0.0000000041

  Overlap energy of the core charge distribution:               0.00000767379282
  Self energy of the core charge distribution:             -14063.09528692122331
  Core Hamiltonian energy:                                   3717.42163980233636
  Hartree energy:                                            5743.04323062098956
  Exchange-correlation energy:                              -1129.48373855639738
  Dispersion energy:                                           -0.51349926049177

  Total energy:                                             -5732.62764664099359

  outer SCF iter =    1 RMS gradient =   0.49E-05 energy =      -5732.6276466410

  ----------------------------------- OT ---------------------------------------
  Minimizer      : DIIS                : direct inversion
                                         in the iterative subspace
                                         using   7 DIIS vectors
                                         safer DIIS on
  Preconditioner : FULL_SINGLE_INVERSE : inversion of 
                                         H + eS - 2*(Sc)(c^T*H*c+const)(Sc)^T
  Precond_solver : INVERSE_UPDATE
  stepsize       :    0.10000000                  energy_gap     :    0.10000000
  eps_taylor     :   0.10000E-15                  max_taylor     :             4
  ----------------------------------- OT ---------------------------------------

  Step     Update method      Time    Convergence         Total energy    Change
  ------------------------------------------------------------------------------


     Lanczos converged:  T threshold:   0.100E-02
     Est. extremal eigenvalues:    0.225E+01   0.315E+00
     Est. condition number :    0.713E+01
     Hotelling iter   1 1.00000000   0.587E+00       1.552   280129.846
     Hotelling iter   2 1.00000000   0.173E+00       1.308   333097.628



     Lanczos converged:  T threshold:   0.100E-02
     Est. extremal eigenvalues:    0.212E+01   0.329E+00
     Est. condition number :    0.646E+01
     Hotelling iter   1 1.00000000   0.556E+00       1.695   256465.037
     Hotelling iter   2 1.00000000   0.148E+00       1.307   333240.860

     1 OT DIIS     0.10E+00   86.4     0.00000590     -5732.6276663665 -1.97E-05
     2 OT DIIS     0.10E+00   30.7     0.00000779     -5732.6276878102 -2.14E-05
     3 OT SD       0.10E+00   31.0     0.00000512     -5732.6277026113 -1.48E-05
     4 OT SD       0.10E+00   31.1     0.00000520     -5732.6277291062 -2.65E-05
     5 OT SD       0.10E+00   31.1     0.00000531     -5732.6277562446 -2.71E-05
     6 OT SD       0.10E+00   31.1     0.00000553     -5732.6277840523 -2.78E-05
     7 OT SD       0.10E+00   31.3     0.00000604     -5732.6278122764 -2.82E-05
     8 OT SD       0.10E+00   31.2     0.00000745     -5732.6278395203 -2.72E-05
     9 OT SD       0.10E+00   31.2     0.00001117     -5732.6278597781 -2.03E-05
    10 OT SD       0.10E+00   31.2     0.00001983     -5732.6278483774  1.14E-05
    11 OT SD       0.10E+00   31.3     0.00003831     -5732.6277044542  1.44E-04
    12 OT DIIS     0.10E+00   31.3     0.00007639     -5732.6270139945  6.90E-04
    13 OT DIIS     0.10E+00   31.3     0.00000480     -5732.6275144889 -5.00E-04
    14 OT DIIS     0.10E+00   31.3     0.00000480     -5732.6275528379 -3.83E-05
    15 OT SD       0.10E+00   31.2     0.00000481     -5732.6275745911 -2.18E-05
    16 OT SD       0.10E+00   31.5     0.00000485     -5732.6275978045 -2.32E-05
    17 OT SD       0.10E+00   31.3     0.00000497     -5732.6276209963 -2.32E-05
    18 OT SD       0.10E+00   31.2     0.00000541     -5732.6276438147 -2.28E-05
    19 OT SD       0.10E+00   31.3     0.00000690     -5732.6276645843 -2.08E-05
    20 OT SD       0.10E+00   31.3     0.00001113     -5732.6276760812 -1.15E-05
    21 OT SD       0.10E+00   31.2     0.00002110     -5732.6276475544  2.85E-05
    22 OT DIIS     0.10E+00   31.2     0.00004249     -5732.6274482361  1.99E-04
    23 OT DIIS     0.10E+00   31.2     0.00000472     -5732.6275723401 -1.24E-04
    24 OT DIIS     0.10E+00   31.2     0.00000470     -5732.6276249615 -5.26E-05
    25 OT DIIS     0.10E+00   31.3     0.00000471     -5732.6276455445 -2.06E-05
    26 OT SD       0.10E+00   31.3     0.00000471     -5732.6276562079 -1.07E-05
    27 OT SD       0.10E+00   31.3     0.00000472     -5732.6276785602 -2.24E-05
    28 OT SD       0.10E+00   31.3     0.00000473     -5732.6277010074 -2.24E-05
    29 OT SD       0.10E+00   31.3     0.00000475     -5732.6277235824 -2.26E-05
    30 OT SD       0.10E+00   31.3     0.00000477     -5732.6277463179 -2.27E-05
    31 OT DIIS     0.10E+00   31.3     0.00000480     -5732.6277692514 -2.29E-05
    32 OT SD       0.10E+00   31.7     0.00000463     -5732.6278508900 -8.16E-05
    33 OT DIIS     0.10E+00   31.2     0.00000460     -5732.6278718080 -2.09E-05
    34 OT DIIS     0.10E+00   31.1     0.00000456     -5732.6279673022 -9.55E-05
    35 OT SD       0.10E+00   31.3     0.00000454     -5732.6280990699 -1.32E-04
    36 OT SD       0.10E+00   31.3     0.00000455     -5732.6281197865 -2.07E-05
    37 OT SD       0.10E+00   31.3     0.00000459     -5732.6281406908 -2.09E-05
    38 OT DIIS     0.10E+00   31.3     0.00000465     -5732.6281619359 -2.12E-05
    39 OT DIIS     0.10E+00   31.2     0.00000445     -5732.6282368726 -7.49E-05
    40 OT DIIS     0.10E+00   31.3     0.00000432     -5732.6284596643 -2.23E-04
    41 OT DIIS     0.10E+00   31.3     0.00000447     -5732.6286797681 -2.20E-04
    42 OT DIIS     0.10E+00   31.3     0.00000444     -5732.6288491767 -1.69E-04
    43 OT DIIS     0.10E+00   31.6     0.00000437     -5732.6288852226 -3.60E-05
    44 OT DIIS     0.10E+00   31.8     0.00000441     -5732.6290695506 -1.84E-04
    45 OT DIIS     0.10E+00   31.9     0.00000416     -5732.6291221447 -5.26E-05
    46 OT DIIS     0.10E+00   31.7     0.00000385     -5732.6291573971 -3.53E-05
    47 OT DIIS     0.10E+00   31.7     0.00000386     -5732.6291715465 -1.41E-05
    48 OT SD       0.10E+00   32.0     0.00000388     -5732.6291863021 -1.48E-05
    49 OT SD       0.10E+00   31.9     0.00000392     -5732.6292012327 -1.49E-05
    50 OT SD       0.10E+00   31.8     0.00000407     -5732.6292162390 -1.50E-05
    51 OT SD       0.10E+00   31.7     0.00000456     -5732.6292310796 -1.48E-05
    52 OT SD       0.10E+00   31.8     0.00000613     -5732.6292442761 -1.32E-05
    53 OT SD       0.10E+00   31.7     0.00001039     -5732.6292491785 -4.90E-06
    54 OT SD       0.10E+00   31.7     0.00002023     -5732.6292168072  3.24E-05
    55 OT DIIS     0.10E+00   31.7     0.00004138     -5732.6290213292  1.95E-04
    56 OT DIIS     0.10E+00   31.9     0.00000348     -5732.6290883295 -6.70E-05
    57 OT DIIS     0.10E+00   31.8     0.00000347     -5732.6290983039 -9.97E-06
    58 OT DIIS     0.10E+00   31.8     0.00000349     -5732.6291015597 -3.26E-06
    59 OT DIIS     0.10E+00   31.9     0.00000349     -5732.6291048529 -3.29E-06
    60 OT SD       0.10E+00   31.8     0.00000349     -5732.6291083485 -3.50E-06
    61 OT SD       0.10E+00   31.8     0.00000353     -5732.6291206463 -1.23E-05
    62 OT SD       0.10E+00   31.7     0.00000360     -5732.6291331798 -1.25E-05
    63 OT SD       0.10E+00   31.8     0.00000376     -5732.6291459494 -1.28E-05
    64 OT SD       0.10E+00   31.9     0.00000425     -5732.6291587254 -1.28E-05
    65 OT SD       0.10E+00   31.9     0.00000575     -5732.6291702215 -1.15E-05
    66 OT SD       0.10E+00   31.7     0.00000982     -5732.6291745172 -4.30E-06
    67 OT SD       0.10E+00   31.7     0.00001926     -5732.6291452695  2.92E-05
    68 OT DIIS     0.10E+00   31.9     0.00003964     -5732.6289662659  1.79E-04
    69 OT SD       0.10E+00   31.9     0.00000332     -5732.6290917769 -1.26E-04
    70 OT SD       0.10E+00   31.8     0.00000333     -5732.6291029037 -1.11E-05
    71 OT SD       0.10E+00   31.8     0.00000335     -5732.6291140617 -1.12E-05
    72 OT SD       0.10E+00   31.7     0.00000342     -5732.6291252425 -1.12E-05
    73 OT SD       0.10E+00   31.9     0.00000363     -5732.6291363241 -1.11E-05
    74 OT SD       0.10E+00   31.7     0.00000438     -5732.6291467619 -1.04E-05
    75 OT SD       0.10E+00   31.9     0.00000664     -5732.6291542038 -7.44E-06
    76 OT SD       0.10E+00   32.0     0.00001217     -5732.6291486974  5.51E-06
    77 OT DIIS     0.10E+00   31.7     0.00002424     -5732.6290880398  6.07E-05
    78 OT SD       0.10E+00   31.8     0.00000326     -5732.6290618688  2.62E-05
    79 OT SD       0.10E+00   31.7     0.00000326     -5732.6290725529 -1.07E-05
    80 OT SD       0.10E+00   32.0     0.00000327     -5732.6290832473 -1.07E-05
    81 OT SD       0.10E+00   31.9     0.00000328     -5732.6290939966 -1.07E-05
    82 OT SD       0.10E+00   31.7     0.00000332     -5732.6291048065 -1.08E-05
    83 OT SD       0.10E+00   31.7     0.00000343     -5732.6291156454 -1.08E-05
    84 OT SD       0.10E+00   31.9     0.00000379     -5732.6291263096 -1.07E-05
    85 OT SD       0.10E+00   31.9     0.00000497     -5732.6291358653 -9.56E-06
    86 OT SD       0.10E+00   31.7     0.00000824     -5732.6291402336 -4.37E-06
    87 OT DIIS     0.10E+00   31.7     0.00001588     -5732.6291217766  1.85E-05
    88 OT SD       0.10E+00   31.7     0.00000321     -5732.6291116142  1.02E-05
    89 OT SD       0.10E+00   31.9     0.00000321     -5732.6291219769 -1.04E-05
    90 OT SD       0.10E+00   31.7     0.00000322     -5732.6291323510 -1.04E-05
    91 OT SD       0.10E+00   31.9     0.00000323     -5732.6291427512 -1.04E-05
    92 OT SD       0.10E+00   31.8     0.00000327     -5732.6291531613 -1.04E-05
    93 OT SD       0.10E+00   31.7     0.00000343     -5732.6291634991 -1.03E-05
    94 OT SD       0.10E+00   31.9     0.00000399     -5732.6291733819 -9.88E-06
    95 OT SD       0.10E+00   31.9     0.00000575     -5732.6291811815 -7.80E-06
    96 OT SD       0.10E+00   32.0     0.00001027     -5732.6291799554  1.23E-06
    97 OT DIIS     0.10E+00   31.8     0.00002031     -5732.6291402078  3.97E-05
    98 OT SD       0.10E+00   31.7     0.00000318     -5732.6291256414  1.46E-05
    99 OT SD       0.10E+00   31.9     0.00000317     -5732.6291357578 -1.01E-05
   100 OT SD       0.10E+00   31.9     0.00000318     -5732.6291458763 -1.01E-05
   101 OT SD       0.10E+00   31.7     0.00000320     -5732.6291560405 -1.02E-05
   102 OT SD       0.10E+00   31.7     0.00000324     -5732.6291662489 -1.02E-05
   103 OT SD       0.10E+00   31.8     0.00000336     -5732.6291764636 -1.02E-05
   104 OT SD       0.10E+00   31.8     0.00000374     -5732.6291864680 -1.00E-05
   105 OT SD       0.10E+00   31.8     0.00000493     -5732.6291953447 -8.88E-06
   106 OT SD       0.10E+00   31.7     0.00000812     -5732.6291992026 -3.86E-06
   107 OT DIIS     0.10E+00   31.9     0.00001545     -5732.6291816446  1.76E-05
   108 OT SD       0.10E+00   31.7     0.00000313     -5732.6291667126  1.49E-05
   109 OT SD       0.10E+00   31.8     0.00000313     -5732.6291765565 -9.84E-06
   110 OT SD       0.10E+00   31.9     0.00000314     -5732.6291864049 -9.85E-06
   111 OT SD       0.10E+00   31.8     0.00000318     -5732.6291962558 -9.85E-06
   112 OT SD       0.10E+00   32.0     0.00000331     -5732.6292060359 -9.78E-06
   113 OT SD       0.10E+00   31.9     0.00000380     -5732.6292154262 -9.39E-06
   114 OT SD       0.10E+00   31.7     0.00000538     -5732.6292230397 -7.61E-06
   115 OT SD       0.10E+00   32.0     0.00000952     -5732.6292229640  7.57E-08
   116 OT DIIS     0.10E+00   31.8     0.00001880     -5732.6291898996  3.31E-05
   117 OT SD       0.10E+00   31.7     0.00000310     -5732.6291825019  7.40E-06
   118 OT DIIS     0.10E+00   31.8     0.00000309     -5732.6291921192 -9.62E-06
   119 OT DIIS     0.10E+00   31.7     0.00000309     -5732.6291940254 -1.91E-06
   120 OT SD       0.10E+00   31.8     0.00000309     -5732.6292013612 -7.34E-06
   121 OT SD       0.10E+00   31.8     0.00000310     -5732.6292109988 -9.64E-06
   122 OT SD       0.10E+00   31.9     0.00000312     -5732.6292206808 -9.68E-06
   123 OT SD       0.10E+00   31.8     0.00000318     -5732.6292303964 -9.72E-06
   124 OT SD       0.10E+00   31.8     0.00000337     -5732.6292400548 -9.66E-06
   125 OT SD       0.10E+00   31.8     0.00000404     -5732.6292492162 -9.16E-06
   126 OT SD       0.10E+00   31.9     0.00000608     -5732.6292559305 -6.71E-06
   127 OT SD       0.10E+00   31.8     0.00001120     -5732.6292517246  4.21E-06
   128 OT DIIS     0.10E+00   32.0     0.00002250     -5732.6291998538  5.19E-05
   129 OT SD       0.10E+00   31.9     0.00000305     -5732.6292193017 -1.94E-05
   130 OT SD       0.10E+00   31.8     0.00000305     -5732.6292286859 -9.38E-06
   131 OT SD       0.10E+00   31.8     0.00000306     -5732.6292380782 -9.39E-06
   132 OT SD       0.10E+00   31.9     0.00000306     -5732.6292474915 -9.41E-06
   133 OT SD       0.10E+00   31.8     0.00000308     -5732.6292569257 -9.43E-06
   134 OT SD       0.10E+00   31.9     0.00000311     -5732.6292663712 -9.45E-06
   135 OT SD       0.10E+00   31.7     0.00000324     -5732.6292757592 -9.39E-06
   136 OT SD       0.10E+00   31.8     0.00000371     -5732.6292847903 -9.03E-06
   137 OT SD       0.10E+00   31.7     0.00000525     -5732.6292921534 -7.36E-06
   138 OT SD       0.10E+00   31.8     0.00000927     -5732.6292922476 -9.41E-08
   139 OT DIIS     0.10E+00   31.9     0.00001832     -5732.6292610260  3.12E-05
   140 OT SD       0.10E+00   31.8     0.00000303     -5732.6292287635  3.23E-05
   141 OT SD       0.10E+00   31.7     0.00000302     -5732.6292379786 -9.22E-06
   142 OT SD       0.10E+00   31.8     0.00000303     -5732.6292471955 -9.22E-06
   143 OT SD       0.10E+00   31.8     0.00000304     -5732.6292564433 -9.25E-06
   144 OT SD       0.10E+00   31.9     0.00000306     -5732.6292657276 -9.28E-06
   145 OT SD       0.10E+00   32.1     0.00000310     -5732.6292750425 -9.31E-06
   146 OT SD       0.10E+00   31.8     0.00000324     -5732.6292843329 -9.29E-06
   147 OT SD       0.10E+00   31.7     0.00000368     -5732.6292933489 -9.02E-06
   148 OT SD       0.10E+00   31.8     0.00000500     -5732.6293010584 -7.71E-06
   149 OT SD       0.10E+00   31.8     0.00000839     -5732.6293032500 -2.19E-06
   150 OT DIIS     0.10E+00   31.9     0.00001593     -5732.6292826011  2.06E-05
   151 OT SD       0.10E+00   31.8     0.00000299     -5732.6292637529  1.88E-05
   152 OT SD       0.10E+00   31.8     0.00000299     -5732.6292727883 -9.04E-06
   153 OT SD       0.10E+00   31.8     0.00000300     -5732.6292818313 -9.04E-06
   154 OT SD       0.10E+00   31.8     0.00000300     -5732.6292908948 -9.06E-06
   155 OT SD       0.10E+00   31.8     0.00000301     -5732.6292999823 -9.09E-06
   156 OT SD       0.10E+00   31.9     0.00000302     -5732.6293090980 -9.12E-06
   157 OT SD       0.10E+00   31.7     0.00000304     -5732.6293182391 -9.14E-06
   158 OT SD       0.10E+00   32.1     0.00000310     -5732.6293273869 -9.15E-06
   159 OT SD       0.10E+00   31.8     0.00000328     -5732.6293364568 -9.07E-06
   160 OT SD       0.10E+00   31.9     0.00000379     -5732.6293451504 -8.69E-06
   161 OT SD       0.10E+00   31.9     0.00000515     -5732.6293524014 -7.25E-06
   162 OT SD       0.10E+00   31.7     0.00000831     -5732.6293544469 -2.05E-06
   163 OT SD       0.10E+00   31.7     0.00001482     -5732.6293377745  1.67E-05
   164 OT DIIS     0.10E+00   31.8     0.00002763     -5732.6292531965  8.46E-05
   165 OT DIIS     0.10E+00   31.8     0.00000297     -5732.6292637626 -1.06E-05
   166 OT SD       0.10E+00   31.8     0.00000297     -5732.6292671567 -3.39E-06
   167 OT DIIS     0.10E+00   31.7     0.00000297     -5732.6292760629 -8.91E-06
   168 OT SD       0.10E+00   31.8     0.00000297     -5732.6292795543 -3.49E-06
   169 OT SD       0.10E+00   31.9     0.00000298     -5732.6292884823 -8.93E-06
   170 OT SD       0.10E+00   31.8     0.00000299     -5732.6292974403 -8.96E-06
   171 OT SD       0.10E+00   31.8     0.00000300     -5732.6293064346 -8.99E-06
   172 OT SD       0.10E+00   32.0     0.00000302     -5732.6293154711 -9.04E-06
   173 OT SD       0.10E+00   31.9     0.00000307     -5732.6293245356 -9.06E-06
   174 OT SD       0.10E+00   31.9     0.00000326     -5732.6293335429 -9.01E-06
   175 OT SD       0.10E+00   31.8     0.00000390     -5732.6293420810 -8.54E-06
   176 OT SD       0.10E+00   32.1     0.00000584     -5732.6293483819 -6.30E-06
   177 OT SD       0.10E+00   32.0     0.00001064     -5732.6293448887  3.49E-06
   178 OT DIIS     0.10E+00   32.0     0.00002117     -5732.6292994830  4.54E-05
   179 OT SD       0.10E+00   31.8     0.00000295     -5732.6292847346  1.47E-05
   180 OT SD       0.10E+00   31.8     0.00000295     -5732.6292935073 -8.77E-06

  Leaving inner SCF loop after reaching   180 steps.


  Electronic density on regular grids:      -2111.9999999951        0.0000000049
  Core density on regular grids:             2111.9999999992       -0.0000000008
  Total charge density on r-space grids:        0.0000000041
  Total charge density g-space grids:           0.0000000041

  Overlap energy of the core charge distribution:               0.00000767379282
  Self energy of the core charge distribution:             -14063.09528692122331
  Core Hamiltonian energy:                                   3717.41375266325213
  Hartree energy:                                            5743.04874900556479
  Exchange-correlation energy:                              -1129.48301666823636
  Dispersion energy:                                           -0.51349926049177

  Total energy:                                             -5732.62929350734248

  outer SCF iter =    2 RMS gradient =   0.30E-05 energy =      -5732.6292935073

  ----------------------------------- OT ---------------------------------------
  Minimizer      : DIIS                : direct inversion
                                         in the iterative subspace
                                         using   7 DIIS vectors
                                         safer DIIS on
  Preconditioner : FULL_SINGLE_INVERSE : inversion of 
                                         H + eS - 2*(Sc)(c^T*H*c+const)(Sc)^T
  Precond_solver : INVERSE_UPDATE
  stepsize       :    0.10000000                  energy_gap     :    0.10000000
  eps_taylor     :   0.10000E-15                  max_taylor     :             4
  ----------------------------------- OT ---------------------------------------

  Step     Update method      Time    Convergence         Total energy    Change
  ------------------------------------------------------------------------------


     Lanczos converged:  T threshold:   0.100E-02
     Est. extremal eigenvalues:    0.178E+01   0.435E+00
     Est. condition number :    0.410E+01
     Hotelling iter   1 1.00000000   0.394E+00       1.577   273215.830



     Lanczos converged:  T threshold:   0.100E-02
     Est. extremal eigenvalues:    0.186E+01   0.455E+00
     Est. condition number :    0.409E+01
     Hotelling iter   1 1.00000000   0.393E+00       1.713   251466.059

     1 OT DIIS     0.10E+00   83.6     0.00000270     -5732.6293022855 -8.78E-06
     2 OT SD       0.10E+00   30.7     0.00000271     -5732.6293096576 -7.37E-06
     3 OT SD       0.10E+00   31.1     0.00000271     -5732.6293170541 -7.40E-06
     4 OT SD       0.10E+00   31.1     0.00000272     -5732.6293244802 -7.43E-06
     5 OT SD       0.10E+00   31.1     0.00000273     -5732.6293319394 -7.46E-06
     6 OT SD       0.10E+00   31.2     0.00000274     -5732.6293394340 -7.49E-06
     7 OT SD       0.10E+00   31.2     0.00000278     -5732.6293469544 -7.52E-06
     8 OT SD       0.10E+00   31.4     0.00000290     -5732.6293544514 -7.50E-06
     9 OT SD       0.10E+00   31.3     0.00000329     -5732.6293617073 -7.26E-06
    10 OT SD       0.10E+00   31.3     0.00000451     -5732.6293678449 -6.14E-06
    11 OT SD       0.10E+00   31.4     0.00000761     -5732.6293693402 -1.50E-06
    12 OT SD       0.10E+00   31.3     0.00001441     -5732.6293520941  1.72E-05
    13 OT DIIS     0.10E+00   31.4     0.00002839     -5732.6292595370  9.26E-05
    14 OT SD       0.10E+00   31.4     0.00000267     -5732.6292403073  1.92E-05
    15 OT SD       0.10E+00   31.2     0.00000266     -5732.6292474741 -7.17E-06
    16 OT SD       0.10E+00   31.5     0.00000267     -5732.6292546313 -7.16E-06
    17 OT SD       0.10E+00   31.4     0.00000267     -5732.6292617911 -7.16E-06
    18 OT SD       0.10E+00   31.2     0.00000268     -5732.6292689506 -7.16E-06
    19 OT SD       0.10E+00   31.3     0.00000273     -5732.6292760920 -7.14E-06
    20 OT SD       0.10E+00   31.3     0.00000291     -5732.6292831266 -7.03E-06
    21 OT SD       0.10E+00   31.0     0.00000353     -5732.6292896914 -6.56E-06
    22 OT DIIS     0.10E+00   31.1     0.00000531     -5732.6292943052 -4.61E-06
    23 OT DIIS     0.10E+00   31.0     0.00000264     -5732.6293064265 -1.21E-05
    24 OT DIIS     0.10E+00   31.2     0.00000264     -5732.6293072464 -8.20E-07
    25 OT SD       0.10E+00   31.3     0.00000264     -5732.6293272389 -2.00E-05
    26 OT SD       0.10E+00   31.2     0.00000264     -5732.6293342639 -7.02E-06
    27 OT SD       0.10E+00   31.4     0.00000265     -5732.6293413036 -7.04E-06
    28 OT SD       0.10E+00   31.4     0.00000267     -5732.6293483555 -7.05E-06
    29 OT SD       0.10E+00   31.4     0.00000271     -5732.6293554034 -7.05E-06
    30 OT SD       0.10E+00   31.4     0.00000288     -5732.6293623700 -6.97E-06
    31 OT SD       0.10E+00   31.3     0.00000341     -5732.6293689534 -6.58E-06
    32 OT SD       0.10E+00   31.5     0.00000495     -5732.6293739679 -5.01E-06
    33 OT SD       0.10E+00   31.5     0.00000861     -5732.6293727954  1.17E-06
    34 OT SD       0.10E+00   31.1     0.00001636     -5732.6293473278  2.55E-05
    35 OT DIIS     0.10E+00   31.3     0.00003206     -5732.6292262414  1.21E-04
    36 OT DIIS     0.10E+00   31.2     0.00000262     -5732.6292951922 -6.90E-05
    37 OT DIIS     0.10E+00   31.2     0.00000262     -5732.6292955127 -3.20E-07
    38 OT SD       0.10E+00   31.3     0.00000264     -5732.6293164181 -2.09E-05
    39 OT SD       0.10E+00   31.2     0.00000263     -5732.6293233831 -6.97E-06
    40 OT SD       0.10E+00   31.1     0.00000264     -5732.6293303221 -6.94E-06
    41 OT SD       0.10E+00   31.3     0.00000270     -5732.6293372475 -6.93E-06
    42 OT SD       0.10E+00   31.2     0.00000288     -5732.6293440750 -6.83E-06
    43 OT SD       0.10E+00   31.3     0.00000351     -5732.6293504328 -6.36E-06
    44 OT SD       0.10E+00   31.5     0.00000533     -5732.6293548135 -4.38E-06
    45 OT SD       0.10E+00   31.4     0.00000966     -5732.6293510906  3.72E-06
    46 OT DIIS     0.10E+00   31.3     0.00001886     -5732.6293143758  3.67E-05
    47 OT DIIS     0.10E+00   31.4     0.00000260     -5732.6293189445 -4.57E-06
    48 OT DIIS     0.10E+00   31.4     0.00000260     -5732.6293256681 -6.72E-06
    49 OT DIIS     0.10E+00   31.2     0.00000260     -5732.6293265032 -8.35E-07
    50 OT SD       0.10E+00   31.2     0.00000260     -5732.6293300202 -3.52E-06
    51 OT SD       0.10E+00   31.3     0.00000261     -5732.6293368568 -6.84E-06
    52 OT SD       0.10E+00   31.4     0.00000261     -5732.6293437024 -6.85E-06
    53 OT SD       0.10E+00   31.2     0.00000261     -5732.6293505581 -6.86E-06
    54 OT SD       0.10E+00   31.2     0.00000262     -5732.6293574228 -6.86E-06
    55 OT SD       0.10E+00   31.2     0.00000266     -5732.6293642829 -6.86E-06
    56 OT SD       0.10E+00   31.3     0.00000280     -5732.6293710755 -6.79E-06
    57 OT SD       0.10E+00   31.3     0.00000326     -5732.6293775408 -6.47E-06
    58 OT SD       0.10E+00   31.3     0.00000467     -5732.6293826275 -5.09E-06
    59 OT SD       0.10E+00   31.5     0.00000817     -5732.6293821035  5.24E-07
    60 OT DIIS     0.10E+00   31.4     0.00001571     -5732.6293589165  2.32E-05
    61 OT SD       0.10E+00   31.4     0.00000259     -5732.6293283452  3.06E-05
    62 OT DIIS     0.10E+00   31.4     0.00000259     -5732.6293351041 -6.76E-06
    63 OT SD       0.10E+00   31.3     0.00000259     -5732.6293366035 -1.50E-06
    64 OT SD       0.10E+00   31.5     0.00000259     -5732.6293433696 -6.77E-06
    65 OT SD       0.10E+00   31.3     0.00000260     -5732.6293501485 -6.78E-06
    66 OT SD       0.10E+00   31.2     0.00000260     -5732.6293569427 -6.79E-06
    67 OT SD       0.10E+00   31.2     0.00000262     -5732.6293637505 -6.81E-06
    68 OT SD       0.10E+00   31.5     0.00000268     -5732.6293705531 -6.80E-06
    69 OT SD       0.10E+00   31.2     0.00000287     -5732.6293772613 -6.71E-06
    70 OT SD       0.10E+00   31.2     0.00000351     -5732.6293835032 -6.24E-06
    71 OT SD       0.10E+00   31.2     0.00000533     -5732.6293877716 -4.27E-06
    72 OT SD       0.10E+00   31.2     0.00000964     -5732.6293839852  3.79E-06
    73 OT DIIS     0.10E+00   31.3     0.00001879     -5732.6293475490  3.64E-05
    74 OT SD       0.10E+00   31.4     0.00000258     -5732.6293456615  1.89E-06
    75 OT DIIS     0.10E+00   31.4     0.00000258     -5732.6293523449 -6.68E-06
    76 OT SD       0.10E+00   31.4     0.00000258     -5732.6293534513 -1.11E-06
    77 OT SD       0.10E+00   31.4     0.00000258     -5732.6293601408 -6.69E-06
    78 OT SD       0.10E+00   31.5     0.00000258     -5732.6293668390 -6.70E-06
    79 OT SD       0.10E+00   31.2     0.00000259     -5732.6293735470 -6.71E-06
    80 OT SD       0.10E+00   31.5     0.00000260     -5732.6293802623 -6.72E-06
    81 OT SD       0.10E+00   31.2     0.00000265     -5732.6293869665 -6.70E-06
    82 OT SD       0.10E+00   31.1     0.00000281     -5732.6293935793 -6.61E-06
    83 OT SD       0.10E+00   31.2     0.00000339     -5732.6293997694 -6.19E-06
    84 OT SD       0.10E+00   31.3     0.00000507     -5732.6294041999 -4.43E-06
    85 OT SD       0.10E+00   31.2     0.00000909     -5732.6294014901  2.71E-06
    86 OT DIIS     0.10E+00   31.2     0.00001766     -5732.6293699513  3.15E-05
    87 OT SD       0.10E+00   31.3     0.00000256     -5732.6293495960  2.04E-05
    88 OT DIIS     0.10E+00   31.2     0.00000256     -5732.6293562073 -6.61E-06
    89 OT SD       0.10E+00   31.3     0.00000256     -5732.6293657118 -9.50E-06
    90 OT SD       0.10E+00   31.3     0.00000257     -5732.6293723342 -6.62E-06
    91 OT SD       0.10E+00   31.5     0.00000257     -5732.6293789702 -6.64E-06
    92 OT SD       0.10E+00   31.3     0.00000259     -5732.6293856193 -6.65E-06
    93 OT SD       0.10E+00   31.4     0.00000263     -5732.6293922685 -6.65E-06
    94 OT SD       0.10E+00   31.3     0.00000277     -5732.6293988536 -6.59E-06
    95 OT SD       0.10E+00   31.3     0.00000327     -5732.6294051052 -6.25E-06
    96 OT SD       0.10E+00   31.5     0.00000473     -5732.6294099310 -4.83E-06
    97 OT SD       0.10E+00   31.3     0.00000832     -5732.6294089318  9.99E-07
    98 OT DIIS     0.10E+00   31.1     0.00001603     -5732.6293843630  2.46E-05
    99 OT SD       0.10E+00   31.4     0.00000255     -5732.6293666221  1.77E-05
   100 OT DIIS     0.10E+00   31.3     0.00000255     -5732.6293731595 -6.54E-06
   101 OT SD       0.10E+00   31.2     0.00000255     -5732.6293750028 -1.84E-06
   102 OT SD       0.10E+00   31.3     0.00000255     -5732.6293815459 -6.54E-06
   103 OT SD       0.10E+00   31.2     0.00000255     -5732.6293880970 -6.55E-06
   104 OT SD       0.10E+00   31.3     0.00000256     -5732.6293946567 -6.56E-06
   105 OT SD       0.10E+00   31.4     0.00000258     -5732.6294012197 -6.56E-06
   106 OT SD       0.10E+00   31.2     0.00000264     -5732.6294077581 -6.54E-06
   107 OT SD       0.10E+00   31.5     0.00000288     -5732.6294141514 -6.39E-06
   108 OT SD       0.10E+00   31.4     0.00000369     -5732.6294199044 -5.75E-06
   109 OT SD       0.10E+00   31.4     0.00000591     -5732.6294230048 -3.10E-06
   110 OT SD       0.10E+00   31.3     0.00001100     -5732.6294152883  7.72E-06
   111 OT DIIS     0.10E+00   31.4     0.00002169     -5732.6293635802  5.17E-05
   112 OT SD       0.10E+00   31.5     0.00000253     -5732.6293708147 -7.23E-06
   113 OT DIIS     0.10E+00   31.3     0.00000253     -5732.6293772861 -6.47E-06
   114 OT SD       0.10E+00   31.2     0.00000253     -5732.6293856508 -8.36E-06
   115 OT SD       0.10E+00   31.4     0.00000254     -5732.6293921318 -6.48E-06
   116 OT SD       0.10E+00   31.4     0.00000254     -5732.6293986251 -6.49E-06
   117 OT SD       0.10E+00   31.2     0.00000255     -5732.6294051312 -6.51E-06
   118 OT SD       0.10E+00   31.3     0.00000258     -5732.6294116425 -6.51E-06
   119 OT SD       0.10E+00   31.3     0.00000268     -5732.6294181187 -6.48E-06
   120 OT SD       0.10E+00   31.2     0.00000302     -5732.6294243871 -6.27E-06
   121 OT SD       0.10E+00   31.4     0.00000408     -5732.6294297507 -5.36E-06
   122 OT SD       0.10E+00   31.4     0.00000682     -5732.6294314150 -1.66E-06
   123 OT SD       0.10E+00   31.3     0.00001286     -5732.6294181715  1.32E-05
   124 OT DIIS     0.10E+00   31.5     0.00002535     -5732.6293448913  7.33E-05
   125 OT SD       0.10E+00   31.4     0.00000252     -5732.6293808272 -3.59E-05
   126 OT DIIS     0.10E+00   31.4     0.00000252     -5732.6293872338 -6.41E-06
   127 OT SD       0.10E+00   31.2     0.00000252     -5732.6293922716 -5.04E-06
   128 OT SD       0.10E+00   31.4     0.00000252     -5732.6293986839 -6.41E-06
   129 OT SD       0.10E+00   31.4     0.00000253     -5732.6294051034 -6.42E-06
   130 OT SD       0.10E+00   31.2     0.00000253     -5732.6294115307 -6.43E-06
   131 OT SD       0.10E+00   31.3     0.00000255     -5732.6294179617 -6.43E-06
   132 OT SD       0.10E+00   31.3     0.00000260     -5732.6294243733 -6.41E-06
   133 OT SD       0.10E+00   31.2     0.00000281     -5732.6294306646 -6.29E-06
   134 OT SD       0.10E+00   31.4     0.00000351     -5732.6294364209 -5.76E-06
   135 OT SD       0.10E+00   31.2     0.00000550     -5732.6294399558 -3.53E-06
   136 OT SD       0.10E+00   31.2     0.00001012     -5732.6294344246  5.53E-06
   137 OT DIIS     0.10E+00   31.3     0.00001989     -5732.6293920053  4.24E-05
   138 OT SD       0.10E+00   31.4     0.00000251     -5732.6293898409  2.16E-06
   139 OT DIIS     0.10E+00   31.5     0.00000251     -5732.6293961891 -6.35E-06
   140 OT SD       0.10E+00   31.4     0.00000251     -5732.6294015168 -5.33E-06
   141 OT SD       0.10E+00   31.3     0.00000251     -5732.6294078723 -6.36E-06
   142 OT SD       0.10E+00   31.4     0.00000252     -5732.6294142383 -6.37E-06
   143 OT SD       0.10E+00   31.2     0.00000253     -5732.6294206149 -6.38E-06
   144 OT SD       0.10E+00   31.5     0.00000255     -5732.6294269948 -6.38E-06
   145 OT SD       0.10E+00   31.3     0.00000265     -5732.6294333391 -6.34E-06
   146 OT SD       0.10E+00   31.3     0.00000298     -5732.6294394825 -6.14E-06
   147 OT SD       0.10E+00   31.3     0.00000401     -5732.6294447570 -5.27E-06
   148 OT SD       0.10E+00   31.4     0.00000668     -5732.6294464787 -1.72E-06
   149 OT SD       0.10E+00   31.2     0.00001261     -5732.6294338618  1.26E-05
   150 OT DIIS     0.10E+00   31.4     0.00002488     -5732.6293633975  7.05E-05
   151 OT SD       0.10E+00   31.3     0.00000250     -5732.6293995580 -3.62E-05
   152 OT DIIS     0.10E+00   31.2     0.00000250     -5732.6294058465 -6.29E-06
   153 OT SD       0.10E+00   31.3     0.00000250     -5732.6294102877 -4.44E-06
   154 OT SD       0.10E+00   31.4     0.00000250     -5732.6294165817 -6.29E-06
   155 OT SD       0.10E+00   31.4     0.00000250     -5732.6294228829 -6.30E-06
   156 OT SD       0.10E+00   31.5     0.00000251     -5732.6294291923 -6.31E-06
   157 OT SD       0.10E+00   31.4     0.00000252     -5732.6294355071 -6.31E-06
   158 OT SD       0.10E+00   31.4     0.00000256     -5732.6294418105 -6.30E-06
   159 OT SD       0.10E+00   31.3     0.00000273     -5732.6294480265 -6.22E-06
   160 OT SD       0.10E+00   31.4     0.00000329     -5732.6294538414 -5.81E-06
   161 OT SD       0.10E+00   31.4     0.00000493     -5732.6294579791 -4.14E-06
   162 OT SD       0.10E+00   31.3     0.00000889     -5732.6294552635  2.72E-06
   163 OT DIIS     0.10E+00   31.3     0.00001734     -5732.6294246707  3.06E-05
   164 OT SD       0.10E+00   31.4     0.00000249     -5732.6294065712  1.81E-05
   165 OT DIIS     0.10E+00   31.2     0.00000249     -5732.6294128037 -6.23E-06
   166 OT SD       0.10E+00   31.3     0.00000249     -5732.6294193021 -6.50E-06
   167 OT SD       0.10E+00   31.3     0.00000249     -5732.6294255421 -6.24E-06
   168 OT SD       0.10E+00   31.3     0.00000249     -5732.6294317917 -6.25E-06
   169 OT SD       0.10E+00   31.4     0.00000251     -5732.6294380498 -6.26E-06
   170 OT SD       0.10E+00   31.4     0.00000254     -5732.6294443048 -6.26E-06
   171 OT SD       0.10E+00   31.5     0.00000267     -5732.6294505017 -6.20E-06
   172 OT SD       0.10E+00   31.5     0.00000311     -5732.6294564109 -5.91E-06
   173 OT SD       0.10E+00   31.4     0.00000442     -5732.6294611076 -4.70E-06
   174 OT SD       0.10E+00   31.5     0.00000769     -5732.6294608745  2.33E-07
   175 OT DIIS     0.10E+00   31.4     0.00001475     -5732.6294407397  2.01E-05
   176 OT SD       0.10E+00   31.4     0.00000248     -5732.6294203977  2.03E-05
   177 OT DIIS     0.10E+00   31.4     0.00000248     -5732.6294265717 -6.17E-06
   178 OT SD       0.10E+00   31.4     0.00000248     -5732.6294289629 -2.39E-06
   179 OT SD       0.10E+00   31.3     0.00000248     -5732.6294351423 -6.18E-06
   180 OT SD       0.10E+00   31.5     0.00000248     -5732.6294413291 -6.19E-06

  Leaving inner SCF loop after reaching   180 steps.


  Electronic density on regular grids:      -2111.9999999951        0.0000000049
  Core density on regular grids:             2111.9999999992       -0.0000000008
  Total charge density on r-space grids:        0.0000000041
  Total charge density g-space grids:           0.0000000041

  Overlap energy of the core charge distribution:               0.00000767379282
  Self energy of the core charge distribution:             -14063.09528692122331
  Core Hamiltonian energy:                                   3717.41309407213430
  Hartree energy:                                            5743.04904113250177
  Exchange-correlation energy:                              -1129.48279802580691
  Dispersion energy:                                           -0.51349926049177

  Total energy:                                             -5732.62944132909433

  outer SCF iter =    3 RMS gradient =   0.25E-05 energy =      -5732.6294413291

  ----------------------------------- OT ---------------------------------------
  Minimizer      : DIIS                : direct inversion
                                         in the iterative subspace
                                         using   7 DIIS vectors
                                         safer DIIS on
  Preconditioner : FULL_SINGLE_INVERSE : inversion of 
                                         H + eS - 2*(Sc)(c^T*H*c+const)(Sc)^T
  Precond_solver : INVERSE_UPDATE
  stepsize       :    0.10000000                  energy_gap     :    0.10000000
  eps_taylor     :   0.10000E-15                  max_taylor     :             4
  ----------------------------------- OT ---------------------------------------

  Step     Update method      Time    Convergence         Total energy    Change
  ------------------------------------------------------------------------------


     Lanczos converged:  T threshold:   0.100E-02
     Est. extremal eigenvalues:    0.104E+01   0.568E+00
     Est. condition number :    0.184E+01
     Hotelling iter   1 1.00000000   0.109E+00       1.554   276559.525



     Lanczos converged:  T threshold:   0.100E-02
     Est. extremal eigenvalues:    0.105E+01   0.570E+00
     Est. condition number :    0.184E+01
     Hotelling iter   1 1.00000000   0.109E+00       1.704   252237.290

     1 OT DIIS     0.10E+00   83.2     0.00000281     -5732.6294475236 -6.19E-06
     2 OT DIIS     0.10E+00   30.7     0.00000282     -5732.6294554247 -7.90E-06
     3 OT SD       0.10E+00   31.2     0.00000280     -5732.6294579919 -2.57E-06
     4 OT SD       0.10E+00   31.1     0.00000281     -5732.6294659226 -7.93E-06
     5 OT SD       0.10E+00   31.2     0.00000281     -5732.6294738725 -7.95E-06
     6 OT SD       0.10E+00   31.1     0.00000282     -5732.6294818477 -7.98E-06
     7 OT SD       0.10E+00   31.3     0.00000283     -5732.6294898547 -8.01E-06
     8 OT SD       0.10E+00   31.5     0.00000285     -5732.6294978972 -8.04E-06
     9 OT SD       0.10E+00   31.5     0.00000289     -5732.6295059647 -8.07E-06
    10 OT SD       0.10E+00   31.5     0.00000306     -5732.6295139838 -8.02E-06
    11 OT SD       0.10E+00   31.4     0.00000362     -5732.6295216201 -7.64E-06
    12 OT SD       0.10E+00   31.5     0.00000532     -5732.6295274628 -5.84E-06
    13 OT SD       0.10E+00   31.4     0.00000948     -5732.6295256956  1.77E-06
    14 OT DIIS     0.10E+00   31.3     0.00001846     -5732.6294924508  3.32E-05
    15 OT SD       0.10E+00   31.3     0.00000278     -5732.6294590431  3.34E-05
    16 OT DIIS     0.10E+00   31.4     0.00000279     -5732.6294668425 -7.80E-06
    17 OT DIIS     0.10E+00   31.3     0.00000280     -5732.6294932061 -2.64E-05
    18 OT SD       0.10E+00   31.2     0.00000280     -5732.6295115529 -1.83E-05
    19 OT SD       0.10E+00   31.3     0.00000279     -5732.6295193742 -7.82E-06
    20 OT SD       0.10E+00   31.4     0.00000281     -5732.6295271813 -7.81E-06
    21 OT SD       0.10E+00   31.3     0.00000287     -5732.6295349790 -7.80E-06
    22 OT SD       0.10E+00   31.2     0.00000307     -5732.6295426773 -7.70E-06
    23 OT SD       0.10E+00   31.3     0.00000371     -5732.6295498772 -7.20E-06
    24 OT SD       0.10E+00   31.4     0.00000554     -5732.6295550198 -5.14E-06
    25 OT SD       0.10E+00   31.5     0.00000983     -5732.6295519274  3.09E-06
    26 OT DIIS     0.10E+00   31.4     0.00001888     -5732.6295162227  3.57E-05
    27 OT DIIS     0.10E+00   31.4     0.00000275     -5732.6294753417  4.09E-05
    28 OT DIIS     0.10E+00   31.5     0.00000275     -5732.6294806369 -5.30E-06
    29 OT SD       0.10E+00   31.4     0.00000277     -5732.6295039077 -2.33E-05
    30 OT SD       0.10E+00   31.3     0.00000277     -5732.6295116049 -7.70E-06
    31 OT SD       0.10E+00   31.4     0.00000278     -5732.6295193022 -7.70E-06
    32 OT SD       0.10E+00   31.5     0.00000281     -5732.6295270100 -7.71E-06
    33 OT SD       0.10E+00   31.5     0.00000293     -5732.6295346774 -7.67E-06
    34 OT SD       0.10E+00   31.3     0.00000334     -5732.6295420744 -7.40E-06
    35 OT SD       0.10E+00   31.3     0.00000467     -5732.6295481965 -6.12E-06
    36 OT SD       0.10E+00   31.4     0.00000814     -5732.6295488186 -6.22E-07
    37 OT DIIS     0.10E+00   31.2     0.00001589     -5732.6295260846  2.27E-05
    38 OT DIIS     0.10E+00   31.4     0.00000274     -5732.6294885140  3.76E-05
    39 OT DIIS     0.10E+00   31.4     0.00000274     -5732.6295032859 -1.48E-05
    40 OT SD       0.10E+00   31.4     0.00000274     -5732.6295162535 -1.30E-05
    41 OT SD       0.10E+00   31.5     0.00000274     -5732.6295238340 -7.58E-06
    42 OT SD       0.10E+00   31.4     0.00000275     -5732.6295314306 -7.60E-06
    43 OT SD       0.10E+00   31.5     0.00000276     -5732.6295390461 -7.62E-06
    44 OT SD       0.10E+00   31.5     0.00000277     -5732.6295466810 -7.63E-06
    45 OT SD       0.10E+00   31.3     0.00000282     -5732.6295543180 -7.64E-06
    46 OT SD       0.10E+00   31.5     0.00000299     -5732.6295618776 -7.56E-06
    47 OT SD       0.10E+00   31.3     0.00000356     -5732.6295690127 -7.14E-06
    48 OT SD       0.10E+00   31.5     0.00000528     -5732.6295742941 -5.28E-06
    49 OT SD       0.10E+00   31.4     0.00000949     -5732.6295718193  2.47E-06
    50 OT DIIS     0.10E+00   31.3     0.00001860     -5732.6295372178  3.46E-05
    51 OT DIIS     0.10E+00   31.3     0.00000272     -5732.6294885683  4.86E-05
    52 OT SD       0.10E+00   31.4     0.00000272     -5732.6294889971 -4.29E-07
    53 OT SD       0.10E+00   31.3     0.00000272     -5732.6294964635 -7.47E-06
    54 OT SD       0.10E+00   31.2     0.00000272     -5732.6295039326 -7.47E-06
    55 OT SD       0.10E+00   31.3     0.00000273     -5732.6295114057 -7.47E-06
    56 OT SD       0.10E+00   31.5     0.00000276     -5732.6295188761 -7.47E-06
    57 OT SD       0.10E+00   31.5     0.00000283     -5732.6295263092 -7.43E-06
    58 OT SD       0.10E+00   31.6     0.00000311     -5732.6295335604 -7.25E-06
    59 OT SD       0.10E+00   31.4     0.00000398     -5732.6295400672 -6.51E-06
    60 OT SD       0.10E+00   31.5     0.00000627     -5732.6295436483 -3.58E-06
    61 OT DIIS     0.10E+00   31.3     0.00001140     -5732.6295358716  7.78E-06
    62 OT SD       0.10E+00   31.3     0.00000271     -5732.6295247993  1.11E-05
    63 OT DIIS     0.10E+00   31.4     0.00000271     -5732.6295321796 -7.38E-06
    64 OT SD       0.10E+00   31.5     0.00000271     -5732.6295384405 -6.26E-06
    65 OT SD       0.10E+00   31.3     0.00000271     -5732.6295458345 -7.39E-06
    66 OT SD       0.10E+00   31.4     0.00000272     -5732.6295532485 -7.41E-06
    67 OT SD       0.10E+00   31.4     0.00000272     -5732.6295606879 -7.44E-06
    68 OT SD       0.10E+00   31.4     0.00000273     -5732.6295681560 -7.47E-06
    69 OT SD       0.10E+00   31.3     0.00000275     -5732.6295756553 -7.50E-06
    70 OT SD       0.10E+00   31.4     0.00000280     -5732.6295831704 -7.52E-06
    71 OT SD       0.10E+00   31.3     0.00000297     -5732.6295906267 -7.46E-06
    72 OT SD       0.10E+00   31.5     0.00000355     -5732.6295976820 -7.06E-06
    73 OT SD       0.10E+00   31.4     0.00000527     -5732.6296029216 -5.24E-06
    74 OT SD       0.10E+00   31.4     0.00000948     -5732.6296004664  2.46E-06
    75 OT SD       0.10E+00   31.5     0.00001859     -5732.6295659775  3.45E-05
    76 OT DIIS     0.10E+00   31.6     0.00003749     -5732.6293981637  1.68E-04
    77 OT SD       0.10E+00   31.3     0.00000269     -5732.6295047695 -1.07E-04
    78 OT SD       0.10E+00   31.4     0.00000269     -5732.6295120418 -7.27E-06
    79 OT SD       0.10E+00   31.3     0.00000269     -5732.6295193098 -7.27E-06
    80 OT SD       0.10E+00   31.5     0.00000270     -5732.6295265756 -7.27E-06
    81 OT SD       0.10E+00   31.3     0.00000274     -5732.6295338230 -7.25E-06
    82 OT SD       0.10E+00   31.3     0.00000288     -5732.6295409797 -7.16E-06
    83 OT SD       0.10E+00   31.4     0.00000341     -5732.6295477333 -6.75E-06
    84 OT SD       0.10E+00   31.4     0.00000503     -5732.6295527785 -5.05E-06
    85 OT DIIS     0.10E+00   31.2     0.00000908     -5732.6295506474  2.13E-06
    86 OT SD       0.10E+00   31.4     0.00000267     -5732.6295498049  8.43E-07
    87 OT DIIS     0.10E+00   31.3     0.00000267     -5732.6295569653 -7.16E-06
    88 OT DIIS     0.10E+00   31.4     0.00000267     -5732.6295648525 -7.89E-06
    89 OT SD       0.10E+00   31.4     0.00000267     -5732.6295689738 -4.12E-06
    90 OT SD       0.10E+00   31.5     0.00000267     -5732.6295761470 -7.17E-06
    91 OT SD       0.10E+00   31.4     0.00000269     -5732.6295833465 -7.20E-06
    92 OT SD       0.10E+00   31.5     0.00000273     -5732.6295905636 -7.22E-06
    93 OT SD       0.10E+00   31.4     0.00000288     -5732.6295977356 -7.17E-06
    94 OT SD       0.10E+00   31.4     0.00000339     -5732.6296045752 -6.84E-06
    95 OT SD       0.10E+00   31.3     0.00000497     -5732.6296098308 -5.26E-06
    96 OT SD       0.10E+00   31.5     0.00000898     -5732.6296081666  1.66E-06
    97 OT DIIS     0.10E+00   31.3     0.00001781     -5732.6295768563  3.13E-05
    98 OT SD       0.10E+00   31.3     0.00000264     -5732.6295399774  3.69E-05
    99 OT DIIS     0.10E+00   31.4     0.00000264     -5732.6295470061 -7.03E-06
   100 OT SD       0.10E+00   31.3     0.00000268     -5732.6295560829 -9.08E-06
   101 OT SD       0.10E+00   31.3     0.00000267     -5732.6295631592 -7.08E-06
   102 OT SD       0.10E+00   31.3     0.00000274     -5732.6295701469 -6.99E-06
   103 OT SD       0.10E+00   31.4     0.00000300     -5732.6295769568 -6.81E-06
   104 OT SD       0.10E+00   31.5     0.00000386     -5732.6295830486 -6.09E-06
   105 OT SD       0.10E+00   31.4     0.00000619     -5732.6295862123 -3.16E-06
   106 OT SD       0.10E+00   31.5     0.00001156     -5732.6295774206  8.79E-06
   107 OT DIIS     0.10E+00   31.4     0.00002289     -5732.6295195465  5.79E-05
   108 OT DIIS     0.10E+00   31.5     0.00000263     -5732.6295372122 -1.77E-05
   109 OT DIIS     0.10E+00   31.4     0.00000263     -5732.6295393948 -2.18E-06
   110 OT SD       0.10E+00   31.5     0.00000263     -5732.6295657621 -2.64E-05
   111 OT SD       0.10E+00   31.2     0.00000263     -5732.6295727172 -6.96E-06
   112 OT SD       0.10E+00   31.5     0.00000265     -5732.6295796746 -6.96E-06
   113 OT SD       0.10E+00   31.4     0.00000272     -5732.6295866084 -6.93E-06
   114 OT SD       0.10E+00   31.3     0.00000298     -5732.6295933857 -6.78E-06
   115 OT DIIS     0.10E+00   31.4     0.00000388     -5732.6295994244 -6.04E-06
   116 OT SD       0.10E+00   31.4     0.00000262     -5732.6296298267 -3.04E-05
   117 OT DIIS     0.10E+00   31.3     0.00000270     -5732.6296361291 -6.30E-06
   118 OT SD       0.10E+00   31.4     0.00000255     -5732.6297572977 -1.21E-04
   119 OT DIIS     0.10E+00   31.4     0.00000254     -5732.6297632802 -5.98E-06
   120 OT DIIS     0.10E+00   31.5     0.00000244     -5732.6298184488 -5.52E-05
   121 OT DIIS     0.10E+00   31.4     0.00000242     -5732.6298419659 -2.35E-05
   122 OT DIIS     0.10E+00   31.4     0.00000242     -5732.6298441914 -2.23E-06
   123 OT DIIS     0.10E+00   31.5     0.00000241     -5732.6298493024 -5.11E-06
   124 OT SD       0.10E+00   31.6     0.00000238     -5732.6298816201 -3.23E-05
   125 OT DIIS     0.10E+00   31.4     0.00000239     -5732.6298872653 -5.65E-06
   126 OT DIIS     0.10E+00   31.3     0.00000236     -5732.6298971900 -9.92E-06
   127 OT SD       0.10E+00   31.2     0.00000236     -5732.6299111023 -1.39E-05
   128 OT SD       0.10E+00   31.4     0.00000237     -5732.6299167175 -5.62E-06
   129 OT SD       0.10E+00   31.5     0.00000240     -5732.6299223646 -5.65E-06
   130 OT SD       0.10E+00   31.3     0.00000246     -5732.6299280341 -5.67E-06
   131 OT SD       0.10E+00   31.4     0.00000264     -5732.6299336602 -5.63E-06
   132 OT SD       0.10E+00   31.3     0.00000321     -5732.6299389502 -5.29E-06
   133 OT SD       0.10E+00   31.3     0.00000479     -5732.6299427514 -3.80E-06
   134 OT SD       0.10E+00   31.3     0.00000850     -5732.6299404647  2.29E-06
   135 OT SD       0.10E+00   31.5     0.00001637     -5732.6299136788  2.68E-05
   136 OT DIIS     0.10E+00   31.4     0.00003251     -5732.6297878438  1.26E-04
   137 OT SD       0.10E+00   31.4     0.00000228     -5732.6298496341 -6.18E-05
   138 OT SD       0.10E+00   31.4     0.00000227     -5732.6298547641 -5.13E-06
   139 OT SD       0.10E+00   31.5     0.00000230     -5732.6298599202 -5.16E-06
   140 OT SD       0.10E+00   31.5     0.00000235     -5732.6298651511 -5.23E-06
   141 OT SD       0.10E+00   31.4     0.00000250     -5732.6298704335 -5.28E-06
   142 OT SD       0.10E+00   31.4     0.00000296     -5732.6298755883 -5.15E-06
   143 OT SD       0.10E+00   31.3     0.00000430     -5732.6298797592 -4.17E-06
   144 OT SD       0.10E+00   31.5     0.00000760     -5732.6298792949  4.64E-07
   145 OT DIIS     0.10E+00   31.5     0.00001484     -5732.6298587731  2.05E-05
   146 OT DIIS     0.10E+00   31.4     0.00000217     -5732.6298468935  1.19E-05
   147 OT SD       0.10E+00   31.4     0.00000217     -5732.6298469638 -7.03E-08
   148 OT SD       0.10E+00   31.3     0.00000218     -5732.6298517282 -4.76E-06
   149 OT SD       0.10E+00   31.3     0.00000218     -5732.6298565075 -4.78E-06
   150 OT SD       0.10E+00   31.2     0.00000219     -5732.6298613048 -4.80E-06
   151 OT SD       0.10E+00   31.4     0.00000222     -5732.6298661175 -4.81E-06
   152 OT SD       0.10E+00   31.3     0.00000228     -5732.6298709253 -4.81E-06
   153 OT SD       0.10E+00   31.5     0.00000251     -5732.6298756362 -4.71E-06
   154 OT SD       0.10E+00   31.4     0.00000322     -5732.6298798778 -4.24E-06
   155 OT SD       0.10E+00   31.4     0.00000513     -5732.6298821576 -2.28E-06
   156 OT SD       0.10E+00   31.5     0.00000949     -5732.6298764696  5.69E-06
   157 OT DIIS     0.10E+00   31.4     0.00001864     -5732.6298384597  3.80E-05
   158 OT SD       0.10E+00   31.3     0.00000214     -5732.6298139967  2.45E-05
   159 OT DIIS     0.10E+00   31.2     0.00000214     -5732.6298186021 -4.61E-06
   160 OT SD       0.10E+00   31.4     0.00000214     -5732.6298223485 -3.75E-06
   161 OT SD       0.10E+00   31.3     0.00000215     -5732.6298269762 -4.63E-06
   162 OT SD       0.10E+00   31.2     0.00000216     -5732.6298316309 -4.65E-06
   163 OT SD       0.10E+00   31.3     0.00000219     -5732.6298363147 -4.68E-06
   164 OT SD       0.10E+00   31.3     0.00000228     -5732.6298410071 -4.69E-06
   165 OT SD       0.10E+00   31.3     0.00000258     -5732.6298455903 -4.58E-06
   166 OT SD       0.10E+00   31.3     0.00000353     -5732.6298495337 -3.94E-06
   167 OT SD       0.10E+00   31.3     0.00000604     -5732.6298505751 -1.04E-06
   168 OT SD       0.10E+00   31.4     0.00001169     -5732.6298391459  1.14E-05
   169 OT DIIS     0.10E+00   31.3     0.00002363     -5732.6297748021  6.43E-05
   170 OT SD       0.10E+00   31.3     0.00000211     -5732.6298161344 -4.13E-05
   171 OT SD       0.10E+00   31.2     0.00000211     -5732.6298206281 -4.49E-06
   172 OT SD       0.10E+00   31.5     0.00000212     -5732.6298251265 -4.50E-06
   173 OT SD       0.10E+00   31.3     0.00000213     -5732.6298296307 -4.50E-06
   174 OT SD       0.10E+00   31.4     0.00000215     -5732.6298341344 -4.50E-06
   175 OT SD       0.10E+00   31.2     0.00000224     -5732.6298386067 -4.47E-06
   176 OT SD       0.10E+00   31.4     0.00000254     -5732.6298429196 -4.31E-06
   177 OT SD       0.10E+00   31.3     0.00000346     -5732.6298465601 -3.64E-06
   178 OT SD       0.10E+00   31.3     0.00000582     -5732.6298474776 -9.17E-07
   179 OT SD       0.10E+00   31.3     0.00001102     -5732.6298373965  1.01E-05
   180 OT DIIS     0.10E+00   31.3     0.00002183     -5732.6297826868  5.47E-05

  Leaving inner SCF loop after reaching   180 steps.


  Electronic density on regular grids:      -2111.9999999964        0.0000000036
  Core density on regular grids:             2111.9999999992       -0.0000000008
  Total charge density on r-space grids:        0.0000000028
  Total charge density g-space grids:           0.0000000028

  Overlap energy of the core charge distribution:               0.00000767379282
  Self energy of the core charge distribution:             -14063.09528692122331
  Core Hamiltonian energy:                                   3717.41144712311598
  Hartree energy:                                            5743.05002826289001
  Exchange-correlation energy:                              -1129.48247956490150
  Dispersion energy:                                           -0.51349926049177

  Total energy:                                             -5732.62978268681854

  outer SCF iter =    4 RMS gradient =   0.22E-04 energy =      -5732.6297826868

  ----------------------------------- OT ---------------------------------------
  Minimizer      : DIIS                : direct inversion
                                         in the iterative subspace
                                         using   7 DIIS vectors
                                         safer DIIS on
  Preconditioner : FULL_SINGLE_INVERSE : inversion of 
                                         H + eS - 2*(Sc)(c^T*H*c+const)(Sc)^T
  Precond_solver : INVERSE_UPDATE
  stepsize       :    0.10000000                  energy_gap     :    0.10000000
  eps_taylor     :   0.10000E-15                  max_taylor     :             4
  ----------------------------------- OT ---------------------------------------

  Step     Update method      Time    Convergence         Total energy    Change
  ------------------------------------------------------------------------------


     Lanczos converged:  T threshold:   0.100E-02
     Est. extremal eigenvalues:    0.126E+01   0.698E+00
     Est. condition number :    0.181E+01
     Hotelling iter   1 1.00000000   0.105E+00       1.606   267946.683



     Lanczos converged:  T threshold:   0.100E-02
     Est. extremal eigenvalues:    0.131E+01   0.686E+00
     Est. condition number :    0.191E+01
     Hotelling iter   1 1.00000000   0.120E+00       1.725   248788.735

     1 OT DIIS     0.10E+00   82.4     0.00000209     -5732.6298010125 -1.83E-05
     2 OT DIIS     0.10E+00   30.8     0.00000209     -5732.6298054238 -4.41E-06
     3 OT SD       0.10E+00   31.2     0.00000209     -5732.6298078272 -2.40E-06
     4 OT SD       0.10E+00   31.2     0.00000210     -5732.6298122534 -4.43E-06
     5 OT SD       0.10E+00   31.2     0.00000210     -5732.6298166986 -4.45E-06
     6 OT SD       0.10E+00   31.2     0.00000211     -5732.6298211685 -4.47E-06
     7 OT SD       0.10E+00   31.2     0.00000213     -5732.6298256678 -4.50E-06
     8 OT SD       0.10E+00   31.4     0.00000215     -5732.6298301984 -4.53E-06
     9 OT SD       0.10E+00   31.3     0.00000224     -5732.6298347399 -4.54E-06
    10 OT SD       0.10E+00   31.4     0.00000254     -5732.6298391738 -4.43E-06
    11 OT SD       0.10E+00   31.1     0.00000353     -5732.6298429364 -3.76E-06
    12 OT SD       0.10E+00   31.4     0.00000623     -5732.6298434983 -5.62E-07
    13 OT SD       0.10E+00   31.4     0.00001245     -5732.6298296083  1.39E-05
    14 OT DIIS     0.10E+00   31.2     0.00002586     -5732.6297513303  7.83E-05
    15 OT SD       0.10E+00   31.2     0.00000207     -5732.6297924842 -4.12E-05
    16 OT SD       0.10E+00   30.1     0.00000207     -5732.6297968209 -4.34E-06
    17 OT SD       0.10E+00   30.3     0.00000208     -5732.6298011568 -4.34E-06
    18 OT SD       0.10E+00   30.5     0.00000208     -5732.6298054942 -4.34E-06
    19 OT SD       0.10E+00   30.7     0.00000209     -5732.6298098307 -4.34E-06
    20 OT SD       0.10E+00   30.8     0.00000212     -5732.6298141560 -4.33E-06
    21 OT SD       0.10E+00   30.9     0.00000225     -5732.6298184227 -4.27E-06
    22 OT SD       0.10E+00   30.8     0.00000266     -5732.6298224451 -4.02E-06
    23 OT SD       0.10E+00   30.7     0.00000388     -5732.6298254810 -3.04E-06
    24 OT SD       0.10E+00   30.9     0.00000683     -5732.6298245576  9.23E-07
    25 OT DIIS     0.10E+00   30.8     0.00001320     -5732.6298076139  1.69E-05
    26 OT SD       0.10E+00   30.9     0.00000207     -5732.6297978416  9.77E-06
    27 OT SD       0.10E+00   30.7     0.00000206     -5732.6298021257 -4.28E-06
    28 OT SD       0.10E+00   30.8     0.00000207     -5732.6298064133 -4.29E-06
    29 OT SD       0.10E+00   30.9     0.00000207     -5732.6298107151 -4.30E-06
    30 OT SD       0.10E+00   30.9     0.00000208     -5732.6298150333 -4.32E-06
    31 OT SD       0.10E+00   30.9     0.00000211     -5732.6298193677 -4.33E-06
    32 OT SD       0.10E+00   30.8     0.00000219     -5732.6298236963 -4.33E-06
    33 OT SD       0.10E+00   31.0     0.00000245     -5732.6298279217 -4.23E-06
    34 OT SD       0.10E+00   30.8     0.00000327     -5732.6298316139 -3.69E-06
    35 OT SD       0.10E+00   30.8     0.00000546     -5732.6298329861 -1.37E-06
    36 OT SD       0.10E+00   30.9     0.00001042     -5732.6298245311  8.45E-06
    37 OT DIIS     0.10E+00   30.9     0.00002096     -5732.6297746131  4.99E-05
    38 OT DIIS     0.10E+00   30.7     0.00000205     -5732.6297933881 -1.88E-05
    39 OT SD       0.10E+00   30.6     0.00000205     -5732.6297961149 -2.73E-06
    40 OT SD       0.10E+00   30.8     0.00000205     -5732.6298003379 -4.22E-06
    41 OT SD       0.10E+00   30.8     0.00000205     -5732.6298045629 -4.23E-06
    42 OT SD       0.10E+00   30.8     0.00000205     -5732.6298087910 -4.23E-06
    43 OT SD       0.10E+00   30.9     0.00000205     -5732.6298130222 -4.23E-06
    44 OT SD       0.10E+00   30.9     0.00000207     -5732.6298172536 -4.23E-06
    45 OT SD       0.10E+00   31.0     0.00000212     -5732.6298214677 -4.21E-06
    46 OT SD       0.10E+00   30.9     0.00000230     -5732.6298255905 -4.12E-06
    47 OT SD       0.10E+00   30.9     0.00000294     -5732.6298293040 -3.71E-06
    48 OT SD       0.10E+00   30.8     0.00000476     -5732.6298312670 -1.96E-06
    49 OT SD       0.10E+00   30.9     0.00000906     -5732.6298257727  5.49E-06
    50 OT DIIS     0.10E+00   30.8     0.00001831     -5732.6297884488  3.73E-05
    51 OT SD       0.10E+00   30.7     0.00000204     -5732.6297960873 -7.64E-06
    52 OT DIIS     0.10E+00   30.7     0.00000204     -5732.6298002753 -4.19E-06
    53 OT SD       0.10E+00   30.7     0.00000204     -5732.6298025391 -2.26E-06
    54 OT SD       0.10E+00   30.8     0.00000204     -5732.6298067331 -4.19E-06
    55 OT SD       0.10E+00   30.8     0.00000205     -5732.6298109367 -4.20E-06
    56 OT SD       0.10E+00   30.9     0.00000205     -5732.6298151523 -4.22E-06
    57 OT SD       0.10E+00   30.9     0.00000207     -5732.6298193796 -4.23E-06
    58 OT SD       0.10E+00   30.8     0.00000211     -5732.6298236065 -4.23E-06
    59 OT SD       0.10E+00   30.8     0.00000230     -5732.6298277646 -4.16E-06
    60 OT SD       0.10E+00   30.9     0.00000294     -5732.6298315412 -3.78E-06
    61 OT SD       0.10E+00   31.0     0.00000481     -5732.6298335433 -2.00E-06
    62 OT SD       0.10E+00   30.9     0.00000930     -5732.6298276322  5.91E-06
    63 OT DIIS     0.10E+00   30.8     0.00001912     -5732.6297867192  4.09E-05
    64 OT SD       0.10E+00   30.8     0.00000203     -5732.6298008328 -1.41E-05
    65 OT DIIS     0.10E+00   30.9     0.00000203     -5732.6298049812 -4.15E-06
    66 OT SD       0.10E+00   30.9     0.00000203     -5732.6298113368 -6.36E-06
    67 OT SD       0.10E+00   30.7     0.00000203     -5732.6298154913 -4.15E-06
    68 OT SD       0.10E+00   30.9     0.00000203     -5732.6298196493 -4.16E-06
    69 OT SD       0.10E+00   30.8     0.00000204     -5732.6298238096 -4.16E-06
    70 OT SD       0.10E+00   30.9     0.00000207     -5732.6298279625 -4.15E-06
    71 OT SD       0.10E+00   30.8     0.00000219     -5732.6298320641 -4.10E-06
    72 OT SD       0.10E+00   30.9     0.00000260     -5732.6298359267 -3.86E-06
    73 OT SD       0.10E+00   30.9     0.00000388     -5732.6298387589 -2.83E-06
    74 OT SD       0.10E+00   30.9     0.00000707     -5732.6298372104  1.55E-06
    75 OT DIIS     0.10E+00   30.8     0.00001409     -5732.6298170204  2.02E-05
    76 OT SD       0.10E+00   30.9     0.00000202     -5732.6298003811  1.66E-05
    77 OT DIIS     0.10E+00   30.9     0.00000202     -5732.6298044976 -4.12E-06
    78 OT SD       0.10E+00   30.9     0.00000202     -5732.6298094732 -4.98E-06
    79 OT SD       0.10E+00   30.9     0.00000202     -5732.6298135971 -4.12E-06
    80 OT SD       0.10E+00   31.1     0.00000203     -5732.6298177299 -4.13E-06
    81 OT SD       0.10E+00   30.9     0.00000203     -5732.6298218737 -4.14E-06
    82 OT SD       0.10E+00   30.8     0.00000205     -5732.6298260282 -4.15E-06
    83 OT SD       0.10E+00   30.8     0.00000209     -5732.6298301823 -4.15E-06
    84 OT SD       0.10E+00   30.9     0.00000226     -5732.6298342738 -4.09E-06
    85 OT SD       0.10E+00   30.9     0.00000286     -5732.6298380202 -3.75E-06
    86 OT SD       0.10E+00   30.8     0.00000462     -5732.6298401602 -2.14E-06
    87 OT SD       0.10E+00   30.8     0.00000888     -5732.6298351183  5.04E-06
    88 OT DIIS     0.10E+00   30.9     0.00001826     -5732.6297981681  3.70E-05
    89 OT SD       0.10E+00   30.9     0.00000201     -5732.6298061775 -8.01E-06
    90 OT DIIS     0.10E+00   30.9     0.00000201     -5732.6298102586 -4.08E-06
    91 OT SD       0.10E+00   30.8     0.00000202     -5732.6298183466 -8.09E-06
    92 OT SD       0.10E+00   31.0     0.00000202     -5732.6298224359 -4.09E-06
    93 OT SD       0.10E+00   30.9     0.00000202     -5732.6298265272 -4.09E-06
    94 OT SD       0.10E+00   30.9     0.00000203     -5732.6298306198 -4.09E-06
    95 OT SD       0.10E+00   30.9     0.00000207     -5732.6298347005 -4.08E-06
    96 OT SD       0.10E+00   30.9     0.00000222     -5732.6298387122 -4.01E-06
    97 OT SD       0.10E+00   30.9     0.00000274     -5732.6298424072 -3.69E-06
    98 OT SD       0.10E+00   30.8     0.00000429     -5732.6298447459 -2.34E-06
    99 OT SD       0.10E+00   30.9     0.00000803     -5732.6298413137  3.43E-06
   100 OT DIIS     0.10E+00   30.8     0.00001611     -5732.6298133377  2.80E-05
   101 OT SD       0.10E+00   30.8     0.00000201     -5732.6298047794  8.56E-06
   102 OT DIIS     0.10E+00   30.9     0.00000200     -5732.6298088304 -4.05E-06
   103 OT SD       0.10E+00   30.9     0.00000201     -5732.6298172642 -8.43E-06
   104 OT SD       0.10E+00   30.9     0.00000201     -5732.6298213254 -4.06E-06
   105 OT SD       0.10E+00   30.9     0.00000201     -5732.6298253950 -4.07E-06
   106 OT SD       0.10E+00   30.9     0.00000202     -5732.6298294759 -4.08E-06
   107 OT SD       0.10E+00   30.8     0.00000203     -5732.6298335698 -4.09E-06
   108 OT SD       0.10E+00   31.0     0.00000205     -5732.6298376759 -4.11E-06
   109 OT SD       0.10E+00   31.0     0.00000211     -5732.6298417781 -4.10E-06
   110 OT SD       0.10E+00   30.9     0.00000230     -5732.6298458072 -4.03E-06
   111 OT SD       0.10E+00   30.9     0.00000292     -5732.6298494727 -3.67E-06
   112 OT SD       0.10E+00   30.9     0.00000460     -5732.6298516140 -2.14E-06
   113 OT SD       0.10E+00   30.9     0.00000844     -5732.6298475320  4.08E-06
   114 OT DIIS     0.10E+00   30.8     0.00001655     -5732.6298180551  2.95E-05
   115 OT SD       0.10E+00   30.9     0.00000200     -5732.6298083351  9.72E-06
   116 OT SD       0.10E+00   30.9     0.00000200     -5732.6298123525 -4.02E-06
   117 OT SD       0.10E+00   31.0     0.00000200     -5732.6298163699 -4.02E-06
   118 OT SD       0.10E+00   30.8     0.00000200     -5732.6298203885 -4.02E-06
   119 OT SD       0.10E+00   30.9     0.00000201     -5732.6298244068 -4.02E-06
   120 OT SD       0.10E+00   30.9     0.00000203     -5732.6298284160 -4.01E-06
   121 OT SD       0.10E+00   30.9     0.00000214     -5732.6298323734 -3.96E-06
   122 OT SD       0.10E+00   30.9     0.00000256     -5732.6298360896 -3.72E-06
   123 OT SD       0.10E+00   30.8     0.00000390     -5732.6298387264 -2.64E-06
   124 OT SD       0.10E+00   30.9     0.00000730     -5732.6298365828  2.14E-06
   125 OT DIIS     0.10E+00   30.9     0.00001489     -5732.6298132756  2.33E-05
   126 OT SD       0.10E+00   30.9     0.00000199     -5732.6298213297 -8.05E-06
   127 OT DIIS     0.10E+00   30.9     0.00000199     -5732.6298253136 -3.98E-06
   128 OT SD       0.10E+00   30.9     0.00000199     -5732.6298254944 -1.81E-07
   129 OT SD       0.10E+00   30.9     0.00000199     -5732.6298294828 -3.99E-06
   130 OT SD       0.10E+00   30.9     0.00000200     -5732.6298334818 -4.00E-06
   131 OT SD       0.10E+00   30.8     0.00000200     -5732.6298374931 -4.01E-06
   132 OT SD       0.10E+00   31.0     0.00000202     -5732.6298415156 -4.02E-06
   133 OT SD       0.10E+00   30.9     0.00000208     -5732.6298455330 -4.02E-06
   134 OT SD       0.10E+00   30.8     0.00000230     -5732.6298494671 -3.93E-06
   135 OT SD       0.10E+00   30.8     0.00000300     -5732.6298529773 -3.51E-06
   136 OT SD       0.10E+00   30.9     0.00000492     -5732.6298546250 -1.65E-06
   137 OT SD       0.10E+00   30.9     0.00000937     -5732.6298483339  6.29E-06
   138 OT DIIS     0.10E+00   30.9     0.00001889     -5732.6298083159  4.00E-05
   139 OT SD       0.10E+00   30.8     0.00000198     -5732.6298179183 -9.60E-06
   140 OT SD       0.10E+00   31.0     0.00000198     -5732.6298218594 -3.94E-06
   141 OT SD       0.10E+00   31.0     0.00000198     -5732.6298258009 -3.94E-06
   142 OT SD       0.10E+00   30.8     0.00000198     -5732.6298297441 -3.94E-06
   143 OT SD       0.10E+00   30.9     0.00000199     -5732.6298336881 -3.94E-06
   144 OT SD       0.10E+00   30.9     0.00000201     -5732.6298376263 -3.94E-06
   145 OT SD       0.10E+00   30.9     0.00000209     -5732.6298415270 -3.90E-06
   146 OT SD       0.10E+00   30.8     0.00000242     -5732.6298452488 -3.72E-06
   147 OT SD       0.10E+00   30.8     0.00000351     -5732.6298481665 -2.92E-06
   148 OT SD       0.10E+00   30.9     0.00000638     -5732.6298475237  6.43E-07
   149 OT DIIS     0.10E+00   30.8     0.00001289     -5732.6298311340  1.64E-05
   150 OT SD       0.10E+00   30.8     0.00000197     -5732.6298275134  3.62E-06
   151 OT DIIS     0.10E+00   30.8     0.00000197     -5732.6298314217 -3.91E-06
   152 OT SD       0.10E+00   30.9     0.00000197     -5732.6298318222 -4.00E-07
   153 OT SD       0.10E+00   30.9     0.00000197     -5732.6298357350 -3.91E-06
   154 OT SD       0.10E+00   30.9     0.00000198     -5732.6298396586 -3.92E-06
   155 OT SD       0.10E+00   30.8     0.00000198     -5732.6298435954 -3.94E-06
   156 OT SD       0.10E+00   31.0     0.00000200     -5732.6298475459 -3.95E-06
   157 OT SD       0.10E+00   30.9     0.00000204     -5732.6298515008 -3.95E-06
   158 OT SD       0.10E+00   30.9     0.00000219     -5732.6298554079 -3.91E-06
   159 OT SD       0.10E+00   30.9     0.00000272     -5732.6298590298 -3.62E-06
   160 OT SD       0.10E+00   30.9     0.00000427     -5732.6298613443 -2.31E-06
   161 OT SD       0.10E+00   30.9     0.00000800     -5732.6298579793  3.36E-06
   162 OT DIIS     0.10E+00   30.8     0.00001608     -5732.6298302145  2.78E-05
   163 OT SD       0.10E+00   30.8     0.00000196     -5732.6298260854  4.13E-06
   164 OT DIIS     0.10E+00   30.9     0.00000196     -5732.6298299505 -3.87E-06
   165 OT SD       0.10E+00   30.8     0.00000197     -5732.6298345752 -4.62E-06
   166 OT SD       0.10E+00   30.8     0.00000197     -5732.6298384521 -3.88E-06
   167 OT SD       0.10E+00   30.9     0.00000198     -5732.6298423114 -3.86E-06
   168 OT SD       0.10E+00   30.9     0.00000205     -5732.6298461411 -3.83E-06
   169 OT SD       0.10E+00   30.9     0.00000227     -5732.6298498552 -3.71E-06
   170 OT SD       0.10E+00   30.9     0.00000301     -5732.6298530926 -3.24E-06
   171 OT SD       0.10E+00   30.8     0.00000497     -5732.6298543732 -1.28E-06
   172 OT SD       0.10E+00   30.9     0.00000948     -5732.6298474846  6.89E-06
   173 OT DIIS     0.10E+00   30.9     0.00001911     -5732.6298060562  4.14E-05
   174 OT DIIS     0.10E+00   30.9     0.00000195     -5732.6298231908 -1.71E-05
   175 OT DIIS     0.10E+00   30.9     0.00000195     -5732.6298287122 -5.52E-06
   176 OT DIIS     0.10E+00   30.9     0.00000195     -5732.6298311067 -2.39E-06
   177 OT SD       0.10E+00   30.9     0.00000195     -5732.6298316128 -5.06E-07
   178 OT SD       0.10E+00   30.9     0.00000195     -5732.6298354489 -3.84E-06
   179 OT SD       0.10E+00   30.9     0.00000195     -5732.6298392915 -3.84E-06
   180 OT SD       0.10E+00   30.9     0.00000196     -5732.6298431427 -3.85E-06

  Leaving inner SCF loop after reaching   180 steps.


  Electronic density on regular grids:      -2111.9999999951        0.0000000049
  Core density on regular grids:             2111.9999999992       -0.0000000008
  Total charge density on r-space grids:        0.0000000041
  Total charge density g-space grids:           0.0000000041

  Overlap energy of the core charge distribution:               0.00000767379282
  Self energy of the core charge distribution:             -14063.09528692122331
  Core Hamiltonian energy:                                   3717.41128658770685
  Hartree energy:                                            5743.05007895877316
  Exchange-correlation energy:                              -1129.48243018125777
  Dispersion energy:                                           -0.51349926049177

  Total energy:                                             -5732.62984314270034

  outer SCF iter =    5 RMS gradient =   0.20E-05 energy =      -5732.6298431427

  ----------------------------------- OT ---------------------------------------
  Minimizer      : DIIS                : direct inversion
                                         in the iterative subspace
                                         using   7 DIIS vectors
                                         safer DIIS on
  Preconditioner : FULL_SINGLE_INVERSE : inversion of 
                                         H + eS - 2*(Sc)(c^T*H*c+const)(Sc)^T
  Precond_solver : INVERSE_UPDATE
  stepsize       :    0.10000000                  energy_gap     :    0.10000000
  eps_taylor     :   0.10000E-15                  max_taylor     :             4
  ----------------------------------- OT ---------------------------------------

  Step     Update method      Time    Convergence         Total energy    Change
  ------------------------------------------------------------------------------


     Lanczos converged:  T threshold:   0.100E-02
     Est. extremal eigenvalues:    0.102E+01   0.862E+00
     Est. condition number :    0.118E+01
     Hotelling iter   1 1.00000000   0.169E-01       1.550   263425.636



     Lanczos converged:  T threshold:   0.100E-02
     Est. extremal eigenvalues:    0.103E+01   0.848E+00
     Est. condition number :    0.121E+01
     Hotelling iter   1 1.00000000   0.196E-01       1.573   262964.940

     1 OT DIIS     0.10E+00   81.3     0.00000201     -5732.6298470031 -3.86E-06
     2 OT DIIS     0.10E+00   30.7     0.00000204     -5732.6298510457 -4.04E-06
     3 OT SD       0.10E+00   31.0     0.00000201     -5732.6298522673 -1.22E-06
     4 OT SD       0.10E+00   31.1     0.00000202     -5732.6298563506 -4.08E-06
     5 OT SD       0.10E+00   31.1     0.00000203     -5732.6298604593 -4.11E-06
     6 OT SD       0.10E+00   31.2     0.00000205     -5732.6298645951 -4.14E-06
     7 OT SD       0.10E+00   31.1     0.00000213     -5732.6298687443 -4.15E-06
     8 OT SD       0.10E+00   31.5     0.00000238     -5732.6298728156 -4.07E-06
     9 OT SD       0.10E+00   31.5     0.00000321     -5732.6298763814 -3.57E-06
    10 OT SD       0.10E+00   31.3     0.00000552     -5732.6298775241 -1.14E-06
    11 OT SD       0.10E+00   31.4     0.00001086     -5732.6298677904  9.73E-06
    12 OT DIIS     0.10E+00   31.3     0.00002242     -5732.6298098810  5.79E-05
    13 OT SD       0.10E+00   31.4     0.00000199     -5732.6298368517 -2.70E-05
    14 OT SD       0.10E+00   31.2     0.00000199     -5732.6298408331 -3.98E-06
    15 OT SD       0.10E+00   31.2     0.00000199     -5732.6298448147 -3.98E-06
    16 OT SD       0.10E+00   30.1     0.00000199     -5732.6298487976 -3.98E-06
    17 OT SD       0.10E+00   30.2     0.00000200     -5732.6298527807 -3.98E-06
    18 OT SD       0.10E+00   30.5     0.00000201     -5732.6298567587 -3.98E-06
    19 OT SD       0.10E+00   30.8     0.00000209     -5732.6298607037 -3.95E-06
    20 OT SD       0.10E+00   30.8     0.00000236     -5732.6298645016 -3.80E-06
    21 OT SD       0.10E+00   30.8     0.00000326     -5732.6298676695 -3.17E-06
    22 OT SD       0.10E+00   30.7     0.00000564     -5732.6298681862 -5.17E-07
    23 OT DIIS     0.10E+00   31.0     0.00001100     -5732.6298575035  1.07E-05
    24 OT SD       0.10E+00   30.8     0.00000199     -5732.6298492569  8.25E-06
    25 OT DIIS     0.10E+00   30.8     0.00000198     -5732.6298531951 -3.94E-06
    26 OT DIIS     0.10E+00   30.7     0.00000198     -5732.6298540353 -8.40E-07
    27 OT SD       0.10E+00   30.8     0.00000198     -5732.6298570075 -2.97E-06
    28 OT DIIS     0.10E+00   31.0     0.00000199     -5732.6298609411 -3.93E-06
    29 OT DIIS     0.10E+00   30.8     0.00000197     -5732.6298610396 -9.85E-08
    30 OT DIIS     0.10E+00   30.9     0.00000193     -5732.6299025746 -4.15E-05
    31 OT SD       0.10E+00   30.8     0.00000191     -5732.6299514468 -4.89E-05
    32 OT DIIS     0.10E+00   30.8     0.00000196     -5732.6299548806 -3.43E-06
    33 OT DIIS     0.10E+00   30.9     0.00000186     -5732.6299620776 -7.20E-06
    34 OT SD       0.10E+00   30.8     0.00000185     -5732.6299794052 -1.73E-05
    35 OT SD       0.10E+00   30.8     0.00000187     -5732.6299827977 -3.39E-06
    36 OT DIIS     0.10E+00   30.8     0.00000196     -5732.6299862048 -3.41E-06
    37 OT SD       0.10E+00   30.8     0.00000187     -5732.6300022151 -1.60E-05
    38 OT SD       0.10E+00   30.8     0.00000187     -5732.6300055186 -3.30E-06
    39 OT DIIS     0.10E+00   30.7     0.00000202     -5732.6300086922 -3.17E-06
    40 OT DIIS     0.10E+00   30.9     0.00000178     -5732.6300245232 -1.58E-05
    41 OT DIIS     0.10E+00   30.9     0.00000170     -5732.6300276623 -3.14E-06
    42 OT DIIS     0.10E+00   30.8     0.00000165     -5732.6300401545 -1.25E-05
    43 OT DIIS     0.10E+00   30.9     0.00000165     -5732.6300491964 -9.04E-06
    44 OT DIIS     0.10E+00   30.9     0.00000162     -5732.6300564642 -7.27E-06
    45 OT DIIS     0.10E+00   30.9     0.00000162     -5732.6300630216 -6.56E-06
    46 OT DIIS     0.10E+00   30.8     0.00000162     -5732.6300658298 -2.81E-06
    47 OT SD       0.10E+00   30.8     0.00000162     -5732.6300662474 -4.18E-07
    48 OT SD       0.10E+00   30.8     0.00000164     -5732.6300688749 -2.63E-06
    49 OT SD       0.10E+00   30.9     0.00000168     -5732.6300715244 -2.65E-06
    50 OT SD       0.10E+00   30.8     0.00000182     -5732.6300741676 -2.64E-06
    51 OT SD       0.10E+00   30.8     0.00000227     -5732.6300766509 -2.48E-06
    52 OT SD       0.10E+00   30.8     0.00000353     -5732.6300783095 -1.66E-06
    53 OT SD       0.10E+00   30.9     0.00000649     -5732.6300763500  1.96E-06
    54 OT DIIS     0.10E+00   30.8     0.00001282     -5732.6300591526  1.72E-05
    55 OT SD       0.10E+00   30.9     0.00000157     -5732.6300633452 -4.19E-06
    56 OT SD       0.10E+00   30.9     0.00000157     -5732.6300658288 -2.48E-06
    57 OT SD       0.10E+00   30.9     0.00000158     -5732.6300683203 -2.49E-06
    58 OT SD       0.10E+00   30.8     0.00000159     -5732.6300708210 -2.50E-06
    59 OT SD       0.10E+00   30.8     0.00000162     -5732.6300733231 -2.50E-06
    60 OT SD       0.10E+00   30.9     0.00000175     -5732.6300757910 -2.47E-06
    61 OT SD       0.10E+00   30.8     0.00000221     -5732.6300780487 -2.26E-06
    62 OT SD       0.10E+00   30.8     0.00000361     -5732.6300793140 -1.27E-06
    63 OT SD       0.10E+00   30.8     0.00000703     -5732.6300760401  3.27E-06
    64 OT DIIS     0.10E+00   30.8     0.00001460     -5732.6300522450  2.38E-05
    65 OT SD       0.10E+00   30.9     0.00000155     -5732.6300451974  7.05E-06
    66 OT SD       0.10E+00   30.8     0.00000155     -5732.6300476015 -2.40E-06
    67 OT SD       0.10E+00   30.8     0.00000155     -5732.6300500134 -2.41E-06
    68 OT SD       0.10E+00   30.8     0.00000156     -5732.6300524402 -2.43E-06
    69 OT SD       0.10E+00   30.8     0.00000158     -5732.6300548833 -2.44E-06
    70 OT SD       0.10E+00   30.8     0.00000164     -5732.6300573354 -2.45E-06
    71 OT SD       0.10E+00   30.7     0.00000184     -5732.6300597386 -2.40E-06
    72 OT SD       0.10E+00   30.9     0.00000252     -5732.6300618251 -2.09E-06
    73 OT SD       0.10E+00   30.9     0.00000436     -5732.6300623861 -5.61E-07
    74 OT SD       0.10E+00   30.9     0.00000861     -5732.6300561029  6.28E-06
    75 OT DIIS     0.10E+00   30.9     0.00001777     -5732.6300195325  3.66E-05
    76 OT SD       0.10E+00   30.9     0.00000152     -5732.6300436183 -2.41E-05
    77 OT DIIS     0.10E+00   30.9     0.00000153     -5732.6300459564 -2.34E-06
    78 OT SD       0.10E+00   30.9     0.00000153     -5732.6300480076 -2.05E-06
    79 OT SD       0.10E+00   31.0     0.00000153     -5732.6300503536 -2.35E-06
    80 OT SD       0.10E+00   30.8     0.00000153     -5732.6300527072 -2.35E-06
    81 OT SD       0.10E+00   30.8     0.00000154     -5732.6300550687 -2.36E-06
    82 OT SD       0.10E+00   30.8     0.00000156     -5732.6300574359 -2.37E-06
    83 OT SD       0.10E+00   31.1     0.00000163     -5732.6300597899 -2.35E-06
    84 OT SD       0.10E+00   30.8     0.00000189     -5732.6300620436 -2.25E-06
    85 OT SD       0.10E+00   30.9     0.00000278     -5732.6300637945 -1.75E-06
    86 OT SD       0.10E+00   30.8     0.00000513     -5732.6300632269  5.68E-07
    87 OT SD       0.10E+00   30.7     0.00001051     -5732.6300521280  1.11E-05
    88 OT DIIS     0.10E+00   30.9     0.00002214     -5732.6299933712  5.88E-05
    89 OT SD       0.10E+00   30.9     0.00000151     -5732.6300258514 -3.25E-05
    90 OT SD       0.10E+00   30.9     0.00000150     -5732.6300281293 -2.28E-06
    91 OT SD       0.10E+00   30.9     0.00000151     -5732.6300304062 -2.28E-06
    92 OT SD       0.10E+00   31.0     0.00000152     -5732.6300326867 -2.28E-06
    93 OT SD       0.10E+00   30.9     0.00000154     -5732.6300349663 -2.28E-06
    94 OT SD       0.10E+00   30.8     0.00000164     -5732.6300372215 -2.26E-06
    95 OT SD       0.10E+00   30.9     0.00000199     -5732.6300393354 -2.11E-06
    96 OT SD       0.10E+00   30.8     0.00000305     -5732.6300408062 -1.47E-06
    97 OT SD       0.10E+00   30.9     0.00000566     -5732.6300394489  1.36E-06
    98 OT DIIS     0.10E+00   30.8     0.00001141     -5732.6300258036  1.36E-05
    99 OT DIIS     0.10E+00   30.8     0.00000149     -5732.6300314990 -5.70E-06

  *** SCF run converged in    99 steps ***


  Electronic density on regular grids:      -2111.9999999956        0.0000000044
  Core density on regular grids:             2111.9999999992       -0.0000000008
  Total charge density on r-space grids:        0.0000000036
  Total charge density g-space grids:           0.0000000036

  Overlap energy of the core charge distribution:               0.00000767379282
  Self energy of the core charge distribution:             -14063.09528692122331
  Core Hamiltonian energy:                                   3717.41022834005162
  Hartree energy:                                            5743.05083032912898
  Exchange-correlation energy:                              -1129.48231166026562
  Dispersion energy:                                           -0.51349926049177

  Total energy:                                             -5732.63003149900760

  outer SCF iter =    6 RMS gradient =   0.15E-05 energy =      -5732.6300314990
  outer SCF loop converged in   6 iterations or  999 steps


  Integrated spin density:                                          0.0000000001
  Integrated absolute spin density:                                 0.2446475051
  Ideal and single determinant S**2 :                    0.000000       0.040957

 ENERGY| Total FORCE_EVAL ( QS ) energy [hartree]          -5732.630031636103922

 OPT| **************************************************************************
 OPT| Step number                                                              3
 OPT| Optimization method                                                   BFGS
 OPT| Total energy [hartree]                                    -5732.6300316361
 OPT| Effective energy change [hartree]                            -0.0123060611
 OPT| Predicted energy change [hartree]                            -0.0079096034
 OPT| Scaling factor                                                0.0000000000
 OPT| Step size                                                     0.0501444367
 OPT| Trust radius                                                  0.4724315332
 OPT| Decrease in energy                                                     YES
 OPT| Used time [s]                                                    31986.239
 OPT|
 OPT| Maximum step size                                             0.0501444367
 OPT| Convergence limit for maximum step size                       0.0030000000
 OPT| Maximum step size is converged                                          NO
 OPT|
 OPT| RMS step size                                                 0.0128563945
 OPT| Convergence limit for RMS step size                           0.0015000000
 OPT| RMS step size is converged                                              NO
 OPT|
 OPT| Maximum gradient                                              0.0124490835
 OPT| Convergence limit for maximum gradient                        0.0004500000
 OPT| Maximum gradient is converged                                           NO
 OPT|
 OPT| RMS gradient                                                  0.0017365186
 OPT| Convergence limit for RMS gradient                            0.0003000000
 OPT| RMS gradient is converged                                               NO
 OPT| **************************************************************************
 OPT| Estimated peak process memory after this step [MiB]                  27777

 --------------------------
 OPTIMIZATION STEP:      4
 --------------------------

 Extrapolation method: ASPC

 Spin 1

 Number of electrons:                                                       1056
 Number of occupied orbitals:                                               1056
 Number of molecular orbitals:                                              1056

 Spin 2

 Number of electrons:                                                       1056
 Number of occupied orbitals:                                               1056
 Number of molecular orbitals:                                              1056

 Number of orbital functions:                                               4776
 Number of independent orbital functions:                                   4776


 SCF WAVEFUNCTION OPTIMIZATION

  ----------------------------------- OT ---------------------------------------
  Minimizer      : DIIS                : direct inversion
                                         in the iterative subspace
                                         using   7 DIIS vectors
                                         safer DIIS on
  Preconditioner : FULL_SINGLE_INVERSE : inversion of 
                                         H + eS - 2*(Sc)(c^T*H*c+const)(Sc)^T
  Precond_solver : INVERSE_UPDATE
  stepsize       :    0.10000000                  energy_gap     :    0.10000000
  eps_taylor     :   0.10000E-15                  max_taylor     :             4
  ----------------------------------- OT ---------------------------------------

  Step     Update method      Time    Convergence         Total energy    Change
  ------------------------------------------------------------------------------


     Lanczos converged:  T threshold:   0.100E-02
     Est. extremal eigenvalues:    0.661E+01   0.233E+00
     Est. condition number :    0.283E+02
     Hotelling iter   1 1.00000000   0.875E+00       1.763   244049.201
     Hotelling iter   2 1.00000000   0.604E+00       1.336   325575.303
     Hotelling iter   3 1.00000000   0.187E+00       1.255   347013.507



     Lanczos converged:  T threshold:   0.100E-02
     Est. extremal eigenvalues:    0.679E+01   0.253E+00
     Est. condition number :    0.269E+02
     Hotelling iter   1 1.00000000   0.868E+00       1.717   250803.749
     Hotelling iter   2 1.00000000   0.589E+00       1.317   330216.263
     Hotelling iter   3 1.00000000   0.174E+00       1.285   338890.161

     1 OT DIIS     0.10E+00   32.9     0.00035352     -5732.4999167268 -5.73E+03
     2 OT DIIS     0.10E+00   31.2     0.00016678     -5732.5795285265 -7.96E-02
     3 OT DIIS     0.10E+00   31.2     0.00011716     -5732.6029468899 -2.34E-02
     4 OT DIIS     0.10E+00   31.4     0.00007787     -5732.6198537612 -1.69E-02
     5 OT DIIS     0.10E+00   31.4     0.00004440     -5732.6308972880 -1.10E-02
     6 OT DIIS     0.10E+00   31.5     0.00003354     -5732.6343850153 -3.49E-03
     7 OT DIIS     0.10E+00   31.6     0.00002494     -5732.6355021060 -1.12E-03
     8 OT DIIS     0.10E+00   31.9     0.00001812     -5732.6364197754 -9.18E-04
     9 OT DIIS     0.10E+00   31.7     0.00001704     -5732.6370305696 -6.11E-04
    10 OT DIIS     0.10E+00   30.7     0.00001650     -5732.6373389707 -3.08E-04
    11 OT SD       0.10E+00   31.3     0.00001660     -5732.6376238678 -2.85E-04
    12 OT SD       0.10E+00   31.2     0.00001712     -5732.6379049099 -2.81E-04
    13 OT SD       0.10E+00   31.4     0.00001785     -5732.6382050956 -3.00E-04
    14 OT SD       0.10E+00   31.2     0.00001879     -5732.6385317367 -3.27E-04
    15 OT SD       0.10E+00   31.4     0.00001996     -5732.6388920335 -3.60E-04
    16 OT SD       0.10E+00   31.6     0.00002143     -5732.6392931225 -4.01E-04
    17 OT SD       0.10E+00   31.7     0.00002341     -5732.6397415424 -4.48E-04
    18 OT SD       0.10E+00   31.6     0.00002629     -5732.6402415841 -5.00E-04
    19 OT SD       0.10E+00   31.7     0.00003086     -5732.6407910589 -5.49E-04
    20 OT SD       0.10E+00   31.7     0.00003855     -5732.6413709244 -5.80E-04
    21 OT SD       0.10E+00   31.5     0.00005160     -5732.6419202618 -5.49E-04
    22 OT SD       0.10E+00   31.6     0.00007327     -5732.6422765540 -3.56E-04
    23 OT SD       0.10E+00   31.6     0.00010824     -5732.6420342513  2.42E-04
    24 OT SD       0.10E+00   31.7     0.00016338     -5732.6402150597  1.82E-03
    25 OT DIIS     0.10E+00   31.5     0.00024872     -5732.6345127021  5.70E-03
    26 OT SD       0.10E+00   31.7     0.00001252     -5732.6369868415 -2.47E-03
    27 OT SD       0.10E+00   31.7     0.00001117     -5732.6371171041 -1.30E-04
    28 OT SD       0.10E+00   31.7     0.00001153     -5732.6372365144 -1.19E-04
    29 OT SD       0.10E+00   31.7     0.00001244     -5732.6373602310 -1.24E-04
    30 OT SD       0.10E+00   31.7     0.00001414     -5732.6374896573 -1.29E-04
    31 OT SD       0.10E+00   31.8     0.00001729     -5732.6376217221 -1.32E-04
    32 OT SD       0.10E+00   31.6     0.00002303     -5732.6377443020 -1.23E-04
    33 OT SD       0.10E+00   31.6     0.00003305     -5732.6378223206 -7.80E-05
    34 OT SD       0.10E+00   31.7     0.00004985     -5732.6377621753  6.01E-05
    35 OT SD       0.10E+00   31.7     0.00007730     -5732.6373219390  4.40E-04
    36 OT DIIS     0.10E+00   31.5     0.00012140     -5732.6358852663  1.44E-03
    37 OT DIIS     0.10E+00   31.4     0.00000749     -5732.6369631909 -1.08E-03
    38 OT DIIS     0.10E+00   31.6     0.00000720     -5732.6370599552 -9.68E-05
    39 OT DIIS     0.10E+00   31.4     0.00000715     -5732.6370620954 -2.14E-06
    40 OT DIIS     0.10E+00   31.6     0.00000711     -5732.6370737921 -1.17E-05
    41 OT SD       0.10E+00   31.5     0.00000714     -5732.6371170522 -4.33E-05
    42 OT SD       0.10E+00   31.5     0.00000725     -5732.6371687594 -5.17E-05
    43 OT SD       0.10E+00   31.8     0.00000740     -5732.6372222689 -5.35E-05
    44 OT SD       0.10E+00   31.8     0.00000756     -5732.6372779796 -5.57E-05
    45 OT SD       0.10E+00   31.8     0.00000775     -5732.6373362789 -5.83E-05
    46 OT SD       0.10E+00   31.6     0.00000797     -5732.6373975660 -6.13E-05
    47 OT SD       0.10E+00   31.7     0.00000823     -5732.6374622550 -6.47E-05
    48 OT SD       0.10E+00   31.6     0.00000853     -5732.6375307637 -6.85E-05
    49 OT SD       0.10E+00   31.9     0.00000891     -5732.6376034746 -7.27E-05
    50 OT SD       0.10E+00   31.5     0.00000946     -5732.6376806274 -7.72E-05
    51 OT SD       0.10E+00   31.8     0.00001035     -5732.6377620424 -8.14E-05
    52 OT SD       0.10E+00   31.7     0.00001194     -5732.6378464235 -8.44E-05
    53 OT SD       0.10E+00   31.6     0.00001486     -5732.6379296095 -8.32E-05
    54 OT SD       0.10E+00   31.6     0.00002012     -5732.6380002104 -7.06E-05
    55 OT SD       0.10E+00   31.6     0.00002915     -5732.6380287168 -2.85E-05
    56 OT SD       0.10E+00   31.6     0.00004410     -5732.6379403449  8.84E-05
    57 OT SD       0.10E+00   31.7     0.00006822     -5732.6375473717  3.93E-04
    58 OT DIIS     0.10E+00   31.5     0.00010667     -5732.6363810110  1.17E-03
    59 OT DIIS     0.10E+00   31.6     0.00000578     -5732.6367727196 -3.92E-04
    60 OT DIIS     0.10E+00   31.6     0.00000568     -5732.6368215258 -4.88E-05
    61 OT SD       0.10E+00   31.6     0.00000591     -5732.6368221734 -6.48E-07
    62 OT SD       0.10E+00   31.4     0.00000587     -5732.6368541234 -3.20E-05
    63 OT SD       0.10E+00   31.5     0.00000623     -5732.6368847413 -3.06E-05
    64 OT SD       0.10E+00   31.4     0.00000706     -5732.6369143486 -2.96E-05
    65 OT SD       0.10E+00   31.5     0.00000875     -5732.6369414096 -2.71E-05
    66 OT SD       0.10E+00   31.6     0.00001191     -5732.6369616801 -2.03E-05
    67 OT SD       0.10E+00   31.8     0.00001738     -5732.6369643350 -2.65E-06
    68 OT DIIS     0.10E+00   31.5     0.00002641     -5732.6369221691  4.22E-05
    69 OT DIIS     0.10E+00   31.5     0.00000503     -5732.6368829840  3.92E-05
    70 OT DIIS     0.10E+00   31.6     0.00000492     -5732.6369506769 -6.77E-05
    71 OT DIIS     0.10E+00   31.6     0.00000492     -5732.6370001813 -4.95E-05
    72 OT SD       0.10E+00   31.7     0.00000493     -5732.6370153608 -1.52E-05
    73 OT SD       0.10E+00   31.7     0.00000496     -5732.6370399103 -2.45E-05
    74 OT SD       0.10E+00   31.7     0.00000499     -5732.6370647541 -2.48E-05
    75 OT SD       0.10E+00   31.8     0.00000504     -5732.6370899677 -2.52E-05
    76 OT SD       0.10E+00   31.9     0.00000509     -5732.6371156187 -2.57E-05
    77 OT SD       0.10E+00   31.8     0.00000516     -5732.6371417720 -2.62E-05
    78 OT SD       0.10E+00   31.7     0.00000525     -5732.6371684848 -2.67E-05
    79 OT SD       0.10E+00   31.6     0.00000540     -5732.6371957885 -2.73E-05
    80 OT SD       0.10E+00   31.6     0.00000566     -5732.6372236360 -2.78E-05
    81 OT SD       0.10E+00   31.6     0.00000618     -5732.6372517670 -2.81E-05
    82 OT SD       0.10E+00   31.6     0.00000725     -5732.6372793568 -2.76E-05
    83 OT SD       0.10E+00   31.6     0.00000936     -5732.6373041143 -2.48E-05
    84 OT SD       0.10E+00   31.6     0.00001325     -5732.6373199556 -1.58E-05
    85 OT SD       0.10E+00   31.7     0.00001999     -5732.6373110083  8.95E-06
    86 OT SD       0.10E+00   31.7     0.00003119     -5732.6372361444  7.49E-05
    87 OT DIIS     0.10E+00   31.4     0.00004946     -5732.6369890656  2.47E-04
    88 OT DIIS     0.10E+00   31.7     0.00000465     -5732.6368948686  9.42E-05
    89 OT SD       0.10E+00   31.4     0.00000464     -5732.6369038300 -8.96E-06
    90 OT SD       0.10E+00   31.8     0.00000464     -5732.6369255094 -2.17E-05
    91 OT SD       0.10E+00   31.7     0.00000465     -5732.6369472314 -2.17E-05
    92 OT SD       0.10E+00   31.8     0.00000466     -5732.6369690374 -2.18E-05
    93 OT SD       0.10E+00   31.8     0.00000469     -5732.6369909667 -2.19E-05
    94 OT SD       0.10E+00   31.7     0.00000473     -5732.6370130563 -2.21E-05
    95 OT DIIS     0.10E+00   31.6     0.00000480     -5732.6370353328 -2.23E-05
    96 OT DIIS     0.10E+00   31.6     0.00000441     -5732.6371119949 -7.67E-05
    97 OT DIIS     0.10E+00   31.7     0.00000437     -5732.6371767868 -6.48E-05
    98 OT DIIS     0.10E+00   31.7     0.00000437     -5732.6372056918 -2.89E-05
    99 OT SD       0.10E+00   31.8     0.00000437     -5732.6372123996 -6.71E-06
   100 OT SD       0.10E+00   31.7     0.00000440     -5732.6372317501 -1.94E-05
   101 OT SD       0.10E+00   31.7     0.00000443     -5732.6372513084 -1.96E-05
   102 OT SD       0.10E+00   31.7     0.00000446     -5732.6372711153 -1.98E-05
   103 OT SD       0.10E+00   31.7     0.00000450     -5732.6372912107 -2.01E-05
   104 OT SD       0.10E+00   31.7     0.00000456     -5732.6373116324 -2.04E-05
   105 OT SD       0.10E+00   31.7     0.00000464     -5732.6373324103 -2.08E-05
   106 OT SD       0.10E+00   31.7     0.00000478     -5732.6373535466 -2.11E-05
   107 OT SD       0.10E+00   31.8     0.00000505     -5732.6373749662 -2.14E-05
   108 OT SD       0.10E+00   31.8     0.00000559     -5732.6373963882 -2.14E-05
   109 OT SD       0.10E+00   31.8     0.00000669     -5732.6374169996 -2.06E-05
   110 OT SD       0.10E+00   31.7     0.00000882     -5732.6374346216 -1.76E-05
   111 OT SD       0.10E+00   31.7     0.00001266     -5732.6374435793 -8.96E-06
   112 OT SD       0.10E+00   31.7     0.00001919     -5732.6374292401  1.43E-05
   113 OT SD       0.10E+00   31.9     0.00002994     -5732.6373539855  7.53E-05
   114 OT DIIS     0.10E+00   31.6     0.00004738     -5732.6371210961  2.33E-04
   115 OT DIIS     0.10E+00   31.8     0.00000419     -5732.6370773212  4.38E-05
   116 OT SD       0.10E+00   31.6     0.00000418     -5732.6370801294 -2.81E-06
   117 OT SD       0.10E+00   31.7     0.00000418     -5732.6370976890 -1.76E-05
   118 OT DIIS     0.10E+00   31.7     0.00000420     -5732.6371152251 -1.75E-05
   119 OT DIIS     0.10E+00   31.6     0.00000417     -5732.6371176035 -2.38E-06
   120 OT SD       0.10E+00   31.8     0.00000417     -5732.6371372813 -1.97E-05
   121 OT SD       0.10E+00   31.6     0.00000418     -5732.6371548292 -1.75E-05
   122 OT SD       0.10E+00   31.7     0.00000419     -5732.6371724277 -1.76E-05
   123 OT SD       0.10E+00   31.7     0.00000421     -5732.6371900948 -1.77E-05
   124 OT DIIS     0.10E+00   31.8     0.00000425     -5732.6372078436 -1.77E-05
   125 OT DIIS     0.10E+00   31.7     0.00000408     -5732.6372210600 -1.32E-05
   126 OT DIIS     0.10E+00   31.7     0.00000401     -5732.6373383161 -1.17E-04
   127 OT DIIS     0.10E+00   31.7     0.00000401     -5732.6373657254 -2.74E-05
   128 OT SD       0.10E+00   31.7     0.00000401     -5732.6373658734 -1.48E-07
   129 OT SD       0.10E+00   31.7     0.00000402     -5732.6373821142 -1.62E-05
   130 OT SD       0.10E+00   31.6     0.00000404     -5732.6373984833 -1.64E-05
   131 OT SD       0.10E+00   31.8     0.00000407     -5732.6374150086 -1.65E-05
   132 OT SD       0.10E+00   31.7     0.00000410     -5732.6374317173 -1.67E-05
   133 OT SD       0.10E+00   31.7     0.00000414     -5732.6374486358 -1.69E-05
   134 OT SD       0.10E+00   31.8     0.00000420     -5732.6374657858 -1.71E-05
   135 OT SD       0.10E+00   31.6     0.00000430     -5732.6374831710 -1.74E-05
   136 OT SD       0.10E+00   31.7     0.00000449     -5732.6375007452 -1.76E-05
   137 OT SD       0.10E+00   31.7     0.00000490     -5732.6375183284 -1.76E-05
   138 OT SD       0.10E+00   31.7     0.00000573     -5732.6375353924 -1.71E-05
   139 OT SD       0.10E+00   31.9     0.00000738     -5732.6375505151 -1.51E-05
   140 OT SD       0.10E+00   31.8     0.00001042     -5732.6375599854 -9.47E-06
   141 OT SD       0.10E+00   31.8     0.00001564     -5732.6375542327  5.75E-06
   142 OT SD       0.10E+00   31.7     0.00002430     -5732.6375086717  4.56E-05
   143 OT DIIS     0.10E+00   31.7     0.00003836     -5732.6373601838  1.48E-04
   144 OT SD       0.10E+00   31.7     0.00000388     -5732.6372681119  9.21E-05
   145 OT SD       0.10E+00   31.7     0.00000388     -5732.6372833153 -1.52E-05
   146 OT SD       0.10E+00   31.7     0.00000388     -5732.6372984989 -1.52E-05
   147 OT SD       0.10E+00   31.7     0.00000389     -5732.6373136900 -1.52E-05
   148 OT SD       0.10E+00   31.7     0.00000390     -5732.6373288966 -1.52E-05
   149 OT SD       0.10E+00   31.7     0.00000393     -5732.6373441199 -1.52E-05
   150 OT SD       0.10E+00   31.6     0.00000399     -5732.6373593442 -1.52E-05
   151 OT SD       0.10E+00   31.6     0.00000412     -5732.6373745101 -1.52E-05
   152 OT SD       0.10E+00   31.8     0.00000444     -5732.6373894446 -1.49E-05
   153 OT SD       0.10E+00   31.7     0.00000515     -5732.6374036815 -1.42E-05
   154 OT SD       0.10E+00   31.7     0.00000663     -5732.6374159985 -1.23E-05
   155 OT SD       0.10E+00   31.9     0.00000939     -5732.6374232252 -7.23E-06
   156 OT DIIS     0.10E+00   32.0     0.00001422     -5732.6374171678  6.06E-06
   157 OT SD       0.10E+00   31.7     0.00000381     -5732.6374027795  1.44E-05
   158 OT DIIS     0.10E+00   31.8     0.00000381     -5732.6374173528 -1.46E-05
   159 OT DIIS     0.10E+00   31.7     0.00000380     -5732.6374183843 -1.03E-06
   160 OT SD       0.10E+00   31.7     0.00000380     -5732.6374203027 -1.92E-06
   161 OT SD       0.10E+00   31.6     0.00000381     -5732.6374349125 -1.46E-05
   162 OT SD       0.10E+00   31.7     0.00000383     -5732.6374495882 -1.47E-05
   163 OT SD       0.10E+00   31.8     0.00000384     -5732.6374643436 -1.48E-05
   164 OT SD       0.10E+00   31.7     0.00000387     -5732.6374791906 -1.48E-05
   165 OT SD       0.10E+00   31.7     0.00000391     -5732.6374941347 -1.49E-05
   166 OT SD       0.10E+00   31.7     0.00000399     -5732.6375091626 -1.50E-05
   167 OT SD       0.10E+00   31.7     0.00000417     -5732.6375242106 -1.50E-05
   168 OT SD       0.10E+00   31.7     0.00000455     -5732.6375390813 -1.49E-05
   169 OT SD       0.10E+00   31.8     0.00000539     -5732.6375532296 -1.41E-05
   170 OT SD       0.10E+00   31.7     0.00000707     -5732.6375652117 -1.20E-05
   171 OT SD       0.10E+00   31.8     0.00001015     -5732.6375712610 -6.05E-06
   172 OT SD       0.10E+00   31.8     0.00001547     -5732.6375616073  9.65E-06
   173 OT SD       0.10E+00   31.8     0.00002428     -5732.6375109494  5.07E-05
   174 OT DIIS     0.10E+00   31.7     0.00003865     -5732.6373537661  1.57E-04
   175 OT DIIS     0.10E+00   31.8     0.00000374     -5732.6373848865 -3.11E-05
   176 OT SD       0.10E+00   31.8     0.00000374     -5732.6373913220 -6.44E-06
   177 OT SD       0.10E+00   31.7     0.00000374     -5732.6374054112 -1.41E-05
   178 OT SD       0.10E+00   31.7     0.00000374     -5732.6374195131 -1.41E-05
   179 OT SD       0.10E+00   32.0     0.00000374     -5732.6374336366 -1.41E-05
   180 OT SD       0.10E+00   31.8     0.00000375     -5732.6374477900 -1.42E-05

  Leaving inner SCF loop after reaching   180 steps.


  Electronic density on regular grids:      -2111.9999999915        0.0000000085
  Core density on regular grids:             2111.9999999992       -0.0000000008
  Total charge density on r-space grids:        0.0000000076
  Total charge density g-space grids:           0.0000000076

  Overlap energy of the core charge distribution:               0.00000746064565
  Self energy of the core charge distribution:             -14063.09528692122331
  Core Hamiltonian energy:                                   3716.36776168373399
  Hartree energy:                                            5743.81635484519666
  Exchange-correlation energy:                              -1129.21427832812446
  Dispersion energy:                                           -0.51200653027705

  Total energy:                                             -5732.63744779004901

  outer SCF iter =    1 RMS gradient =   0.37E-05 energy =      -5732.6374477900

  ----------------------------------- OT ---------------------------------------
  Minimizer      : DIIS                : direct inversion
                                         in the iterative subspace
                                         using   7 DIIS vectors
                                         safer DIIS on
  Preconditioner : FULL_SINGLE_INVERSE : inversion of 
                                         H + eS - 2*(Sc)(c^T*H*c+const)(Sc)^T
  Precond_solver : INVERSE_UPDATE
  stepsize       :    0.10000000                  energy_gap     :    0.10000000
  eps_taylor     :   0.10000E-15                  max_taylor     :             4
  ----------------------------------- OT ---------------------------------------

  Step     Update method      Time    Convergence         Total energy    Change
  ------------------------------------------------------------------------------


     Lanczos converged:  T threshold:   0.100E-02
     Est. extremal eigenvalues:    0.157E+01   0.262E+00
     Est. condition number :    0.600E+01
     Hotelling iter   1 1.00000000   0.531E+00       1.723   249693.753
     Hotelling iter   2 1.00000000   0.131E+00       1.293   336674.979



     Lanczos converged:  T threshold:   0.100E-02
     Est. extremal eigenvalues:    0.169E+01   0.242E+00
     Est. condition number :    0.699E+01
     Hotelling iter   1 1.00000000   0.581E+00       1.704   252644.600
     Hotelling iter   2 1.00000000   0.168E+00       1.302   334538.541

     1 OT DIIS     0.10E+00   86.9     0.00000510     -5732.6374619822 -1.42E-05
     2 OT DIIS     0.10E+00   30.6     0.00000511     -5732.6374882412 -2.63E-05
     3 OT SD       0.10E+00   31.0     0.00000511     -5732.6374963125 -8.07E-06
     4 OT SD       0.10E+00   31.2     0.00000513     -5732.6375227091 -2.64E-05
     5 OT SD       0.10E+00   31.1     0.00000515     -5732.6375492908 -2.66E-05
     6 OT SD       0.10E+00   31.2     0.00000518     -5732.6375761238 -2.68E-05
     7 OT SD       0.10E+00   31.1     0.00000522     -5732.6376032780 -2.72E-05
     8 OT SD       0.10E+00   31.2     0.00000528     -5732.6376308256 -2.75E-05
     9 OT SD       0.10E+00   31.2     0.00000538     -5732.6376588115 -2.80E-05
    10 OT SD       0.10E+00   31.2     0.00000564     -5732.6376871441 -2.83E-05
    11 OT SD       0.10E+00   31.2     0.00000645     -5732.6377151142 -2.80E-05
    12 OT SD       0.10E+00   31.2     0.00000887     -5732.6377394472 -2.43E-05
    13 OT SD       0.10E+00   31.2     0.00001508     -5732.6377462788 -6.83E-06
    14 OT SD       0.10E+00   31.2     0.00002886     -5732.6376782841  6.80E-05
    15 OT DIIS     0.10E+00   31.3     0.00005754     -5732.6372997906  3.78E-04
    16 OT SD       0.10E+00   31.6     0.00000499     -5732.6375447727 -2.45E-04
    17 OT DIIS     0.10E+00   31.2     0.00000498     -5732.6375696804 -2.49E-05
    18 OT DIIS     0.10E+00   31.1     0.00000498     -5732.6375955320 -2.59E-05
    19 OT SD       0.10E+00   31.1     0.00000498     -5732.6376045209 -8.99E-06
    20 OT SD       0.10E+00   31.3     0.00000501     -5732.6376295669 -2.50E-05
    21 OT SD       0.10E+00   31.2     0.00000506     -5732.6376547905 -2.52E-05
    22 OT SD       0.10E+00   31.2     0.00000518     -5732.6376801658 -2.54E-05
    23 OT SD       0.10E+00   31.2     0.00000559     -5732.6377053826 -2.52E-05
    24 OT SD       0.10E+00   31.3     0.00000699     -5732.6377288874 -2.35E-05
    25 OT SD       0.10E+00   31.2     0.00001108     -5732.6377437357 -1.48E-05
    26 OT DIIS     0.10E+00   31.2     0.00002095     -5732.6377195870  2.41E-05
    27 OT SD       0.10E+00   31.2     0.00000488     -5732.6376803104  3.93E-05
    28 OT DIIS     0.10E+00   31.2     0.00000486     -5732.6377040900 -2.38E-05
    29 OT DIIS     0.10E+00   31.2     0.00000486     -5732.6377122002 -8.11E-06
    30 OT SD       0.10E+00   31.2     0.00000486     -5732.6377206366 -8.44E-06
    31 OT SD       0.10E+00   31.2     0.00000488     -5732.6377444725 -2.38E-05
    32 OT SD       0.10E+00   31.5     0.00000493     -5732.6377684235 -2.40E-05
    33 OT SD       0.10E+00   31.3     0.00000507     -5732.6377924153 -2.40E-05
    34 OT SD       0.10E+00   31.1     0.00000557     -5732.6378160050 -2.36E-05
    35 OT SD       0.10E+00   31.1     0.00000729     -5732.6378371483 -2.11E-05
    36 OT SD       0.10E+00   31.3     0.00001215     -5732.6378468078 -9.66E-06
    37 OT SD       0.10E+00   31.2     0.00002362     -5732.6378053895  4.14E-05
    38 OT DIIS     0.10E+00   31.1     0.00004847     -5732.6375392943  2.66E-04
    39 OT SD       0.10E+00   31.2     0.00000478     -5732.6377011440 -1.62E-04
    40 OT DIIS     0.10E+00   31.3     0.00000477     -5732.6377240735 -2.29E-05
    41 OT SD       0.10E+00   31.2     0.00000478     -5732.6377812849 -5.72E-05
    42 OT SD       0.10E+00   31.1     0.00000480     -5732.6378043024 -2.30E-05
    43 OT SD       0.10E+00   31.2     0.00000483     -5732.6378274366 -2.31E-05
    44 OT SD       0.10E+00   31.2     0.00000491     -5732.6378506734 -2.32E-05
    45 OT SD       0.10E+00   31.2     0.00000519     -5732.6378738180 -2.31E-05
    46 OT SD       0.10E+00   31.3     0.00000613     -5732.6378959444 -2.21E-05
    47 OT SD       0.10E+00   31.3     0.00000902     -5732.6379129681 -1.70E-05
    48 OT SD       0.10E+00   31.5     0.00001630     -5732.6379073140  5.65E-06
    49 OT DIIS     0.10E+00   31.2     0.00003245     -5732.6378032125  1.04E-04
    50 OT DIIS     0.10E+00   31.2     0.00000471     -5732.6377613116  4.19E-05
    51 OT DIIS     0.10E+00   31.0     0.00000470     -5732.6377620582 -7.47E-07
    52 OT SD       0.10E+00   31.3     0.00000472     -5732.6378468826 -8.48E-05
    53 OT SD       0.10E+00   31.1     0.00000473     -5732.6378692707 -2.24E-05
    54 OT SD       0.10E+00   31.1     0.00000479     -5732.6378917038 -2.24E-05
    55 OT SD       0.10E+00   31.2     0.00000498     -5732.6379140578 -2.24E-05
    56 OT SD       0.10E+00   31.2     0.00000568     -5732.6379356680 -2.16E-05
    57 OT SD       0.10E+00   31.3     0.00000796     -5732.6379535911 -1.79E-05
    58 OT SD       0.10E+00   31.2     0.00001404     -5732.6379549947 -1.40E-06
    59 OT DIIS     0.10E+00   31.2     0.00002785     -5732.6378839867  7.10E-05
    60 OT SD       0.10E+00   31.3     0.00000465     -5732.6377859517  9.80E-05
    61 OT DIIS     0.10E+00   31.2     0.00000464     -5732.6378076909 -2.17E-05
    62 OT SD       0.10E+00   31.1     0.00000467     -5732.6379023334 -9.46E-05
    63 OT SD       0.10E+00   31.3     0.00000467     -5732.6379242236 -2.19E-05
    64 OT SD       0.10E+00   31.4     0.00000470     -5732.6379462018 -2.20E-05
    65 OT SD       0.10E+00   31.3     0.00000475     -5732.6379683002 -2.21E-05
    66 OT SD       0.10E+00   31.2     0.00000489     -5732.6379904627 -2.22E-05
    67 OT SD       0.10E+00   31.1     0.00000528     -5732.6380123976 -2.19E-05
    68 OT SD       0.10E+00   31.2     0.00000652     -5732.6380328472 -2.04E-05
    69 OT SD       0.10E+00   31.4     0.00000993     -5732.6380466861 -1.38E-05
    70 OT SD       0.10E+00   31.2     0.00001797     -5732.6380328890  1.38E-05
    71 OT DIIS     0.10E+00   31.3     0.00003521     -5732.6379045801  1.28E-04
    72 OT DIIS     0.10E+00   31.2     0.00000459     -5732.6378194777  8.51E-05
    73 OT SD       0.10E+00   31.3     0.00000458     -5732.6378251807 -5.70E-06
    74 OT SD       0.10E+00   31.3     0.00000459     -5732.6378463664 -2.12E-05
    75 OT SD       0.10E+00   31.2     0.00000460     -5732.6378675649 -2.12E-05
    76 OT SD       0.10E+00   31.3     0.00000463     -5732.6378887641 -2.12E-05
    77 OT SD       0.10E+00   31.3     0.00000474     -5732.6379098806 -2.11E-05
    78 OT SD       0.10E+00   31.2     0.00000520     -5732.6379304929 -2.06E-05
    79 OT SD       0.10E+00   31.3     0.00000684     -5732.6379487157 -1.82E-05
    80 OT SD       0.10E+00   31.5     0.00001156     -5732.6379561215 -7.41E-06
    81 OT DIIS     0.10E+00   31.1     0.00002280     -5732.6379151560  4.10E-05
    82 OT DIIS     0.10E+00   31.1     0.00000456     -5732.6378837848  3.14E-05
    83 OT DIIS     0.10E+00   31.1     0.00000453     -5732.6378890766 -5.29E-06
    84 OT DIIS     0.10E+00   31.3     0.00000454     -5732.6379574058 -6.83E-05
    85 OT SD       0.10E+00   31.1     0.00000454     -5732.6379638565 -6.45E-06
    86 OT SD       0.10E+00   31.1     0.00000455     -5732.6379846130 -2.08E-05
    87 OT SD       0.10E+00   31.2     0.00000459     -5732.6380054839 -2.09E-05
    88 OT DIIS     0.10E+00   31.2     0.00000467     -5732.6380264542 -2.10E-05
    89 OT DIIS     0.10E+00   31.2     0.00000433     -5732.6380387481 -1.23E-05
    90 OT SD       0.10E+00   31.3     0.00000436     -5732.6382246235 -1.86E-04
    91 OT DIIS     0.10E+00   31.4     0.00000472     -5732.6382403132 -1.57E-05
    92 OT DIIS     0.10E+00   31.2     0.00000405     -5732.6383834448 -1.43E-04
    93 OT DIIS     0.10E+00   31.2     0.00000396     -5732.6384559604 -7.25E-05
    94 OT SD       0.10E+00   31.2     0.00000395     -5732.6384908728 -3.49E-05
    95 OT SD       0.10E+00   31.3     0.00000392     -5732.6385063654 -1.55E-05
    96 OT SD       0.10E+00   31.4     0.00000394     -5732.6385218555 -1.55E-05
    97 OT SD       0.10E+00   31.2     0.00000398     -5732.6385375059 -1.57E-05
    98 OT SD       0.10E+00   31.2     0.00000404     -5732.6385533386 -1.58E-05
    99 OT SD       0.10E+00   31.2     0.00000419     -5732.6385693217 -1.60E-05
   100 OT SD       0.10E+00   31.3     0.00000461     -5732.6385851888 -1.59E-05
   101 OT SD       0.10E+00   31.2     0.00000587     -5732.6385998162 -1.46E-05
   102 OT SD       0.10E+00   31.2     0.00000923     -5732.6386085654 -8.75E-06
   103 OT SD       0.10E+00   31.2     0.00001702     -5732.6385922659  1.63E-05
   104 OT DIIS     0.10E+00   31.2     0.00003376     -5732.6384700254  1.22E-04
   105 OT SD       0.10E+00   31.2     0.00000377     -5732.6384149569  5.51E-05
   106 OT SD       0.10E+00   31.2     0.00000375     -5732.6384290309 -1.41E-05
   107 OT SD       0.10E+00   31.2     0.00000377     -5732.6384430796 -1.40E-05
   108 OT SD       0.10E+00   31.2     0.00000379     -5732.6384571961 -1.41E-05
   109 OT SD       0.10E+00   31.2     0.00000385     -5732.6384713977 -1.42E-05
   110 OT SD       0.10E+00   31.2     0.00000399     -5732.6384856353 -1.42E-05
   111 OT SD       0.10E+00   31.4     0.00000443     -5732.6384996361 -1.40E-05
   112 OT SD       0.10E+00   31.5     0.00000583     -5732.6385121199 -1.25E-05
   113 OT SD       0.10E+00   31.4     0.00000959     -5732.6385176853 -5.57E-06
   114 OT SD       0.10E+00   31.2     0.00001821     -5732.6384935166  2.42E-05
   115 OT DIIS     0.10E+00   31.2     0.00003652     -5732.6383437874  1.50E-04
   116 OT SD       0.10E+00   31.2     0.00000368     -5732.6384399560 -9.62E-05
   117 OT SD       0.10E+00   31.2     0.00000368     -5732.6384535923 -1.36E-05
   118 OT SD       0.10E+00   31.1     0.00000368     -5732.6384672382 -1.36E-05
   119 OT SD       0.10E+00   31.2     0.00000369     -5732.6384809051 -1.37E-05
   120 OT SD       0.10E+00   31.2     0.00000372     -5732.6384945858 -1.37E-05
   121 OT SD       0.10E+00   31.2     0.00000381     -5732.6385082244 -1.36E-05
   122 OT SD       0.10E+00   31.2     0.00000417     -5732.6385215606 -1.33E-05
   123 OT SD       0.10E+00   31.3     0.00000544     -5732.6385334214 -1.19E-05
   124 OT SD       0.10E+00   31.2     0.00000912     -5732.6385386295 -5.21E-06
   125 OT SD       0.10E+00   31.3     0.00001790     -5732.6385141344  2.45E-05
   126 OT DIIS     0.10E+00   31.2     0.00003709     -5732.6383571578  1.57E-04
   127 OT SD       0.10E+00   31.3     0.00000366     -5732.6384068789 -4.97E-05
   128 OT DIIS     0.10E+00   31.5     0.00000365     -5732.6384202780 -1.34E-05
   129 OT SD       0.10E+00   31.2     0.00000365     -5732.6384375626 -1.73E-05
   130 OT SD       0.10E+00   31.2     0.00000366     -5732.6384509489 -1.34E-05
   131 OT SD       0.10E+00   31.2     0.00000369     -5732.6384643586 -1.34E-05
   132 OT SD       0.10E+00   31.2     0.00000379     -5732.6384777500 -1.34E-05
   133 OT SD       0.10E+00   31.3     0.00000414     -5732.6384908918 -1.31E-05
   134 OT SD       0.10E+00   31.2     0.00000529     -5732.6385027903 -1.19E-05
   135 OT SD       0.10E+00   31.3     0.00000849     -5732.6385092973 -6.51E-06
   136 OT SD       0.10E+00   31.2     0.00001593     -5732.6384931689  1.61E-05
   137 OT DIIS     0.10E+00   31.2     0.00003175     -5732.6383823867  1.11E-04
   138 OT DIIS     0.10E+00   31.3     0.00000361     -5732.6384476192 -6.52E-05
   139 OT DIIS     0.10E+00   31.2     0.00000361     -5732.6384549892 -7.37E-06
   140 OT SD       0.10E+00   31.3     0.00000361     -5732.6384765510 -2.16E-05
   141 OT SD       0.10E+00   31.3     0.00000362     -5732.6384897044 -1.32E-05
   142 OT SD       0.10E+00   31.2     0.00000362     -5732.6385028761 -1.32E-05
   143 OT SD       0.10E+00   31.3     0.00000365     -5732.6385160542 -1.32E-05
   144 OT SD       0.10E+00   31.5     0.00000374     -5732.6385291891 -1.31E-05
   145 OT SD       0.10E+00   31.3     0.00000409     -5732.6385420229 -1.28E-05
   146 OT SD       0.10E+00   31.3     0.00000534     -5732.6385534263 -1.14E-05
   147 OT SD       0.10E+00   31.2     0.00000895     -5732.6385584210 -4.99E-06
   148 OT SD       0.10E+00   31.3     0.00001751     -5732.6385350298  2.34E-05
   149 OT DIIS     0.10E+00   31.3     0.00003616     -5732.6383859174  1.49E-04
   150 OT DIIS     0.10E+00   31.1     0.00000359     -5732.6384291070 -4.32E-05
   151 OT DIIS     0.10E+00   31.3     0.00000358     -5732.6384357524 -6.65E-06
   152 OT SD       0.10E+00   31.1     0.00000360     -5732.6384725048 -3.68E-05
   153 OT SD       0.10E+00   31.3     0.00000361     -5732.6384854940 -1.30E-05
   154 OT SD       0.10E+00   31.3     0.00000363     -5732.6384985016 -1.30E-05
   155 OT SD       0.10E+00   31.4     0.00000371     -5732.6385115113 -1.30E-05
   156 OT SD       0.10E+00   31.3     0.00000395     -5732.6385243762 -1.29E-05
   157 OT SD       0.10E+00   31.4     0.00000473     -5732.6385364914 -1.21E-05
   158 OT SD       0.10E+00   31.4     0.00000701     -5732.6385453819 -8.89E-06
   159 OT SD       0.10E+00   31.4     0.00001252     -5732.6385409374  4.44E-06
   160 OT DIIS     0.10E+00   31.4     0.00002441     -5732.6384815017  5.94E-05
   161 OT DIIS     0.10E+00   31.2     0.00000356     -5732.6384630764  1.84E-05
   162 OT DIIS     0.10E+00   31.1     0.00000356     -5732.6384758847 -1.28E-05
   163 OT SD       0.10E+00   31.2     0.00000356     -5732.6384962856 -2.04E-05
   164 OT SD       0.10E+00   31.2     0.00000357     -5732.6385090791 -1.28E-05
   165 OT SD       0.10E+00   31.3     0.00000357     -5732.6385218934 -1.28E-05
   166 OT SD       0.10E+00   31.2     0.00000360     -5732.6385347185 -1.28E-05
   167 OT SD       0.10E+00   31.3     0.00000368     -5732.6385475065 -1.28E-05
   168 OT SD       0.10E+00   31.2     0.00000400     -5732.6385600298 -1.25E-05
   169 OT SD       0.10E+00   31.4     0.00000516     -5732.6385712692 -1.12E-05
   170 OT SD       0.10E+00   31.3     0.00000854     -5732.6385767362 -5.47E-06
   171 OT SD       0.10E+00   31.3     0.00001667     -5732.6385565079  2.02E-05
   172 OT DIIS     0.10E+00   31.3     0.00003445     -5732.6384221181  1.34E-04
   173 OT DIIS     0.10E+00   31.2     0.00000355     -5732.6384482488 -2.61E-05
   174 OT DIIS     0.10E+00   31.3     0.00000354     -5732.6384561676 -7.92E-06
   175 OT SD       0.10E+00   31.4     0.00000355     -5732.6384947228 -3.86E-05
   176 OT SD       0.10E+00   31.5     0.00000355     -5732.6385074009 -1.27E-05
   177 OT SD       0.10E+00   31.4     0.00000356     -5732.6385201001 -1.27E-05
   178 OT SD       0.10E+00   31.3     0.00000357     -5732.6385328442 -1.27E-05
   179 OT SD       0.10E+00   31.3     0.00000358     -5732.6385456432 -1.28E-05
   180 OT SD       0.10E+00   31.4     0.00000362     -5732.6385584967 -1.29E-05

  Leaving inner SCF loop after reaching   180 steps.


  Electronic density on regular grids:      -2112.0000000130       -0.0000000130
  Core density on regular grids:             2111.9999999992       -0.0000000008
  Total charge density on r-space grids:       -0.0000000138
  Total charge density g-space grids:          -0.0000000138

  Overlap energy of the core charge distribution:               0.00000746064565
  Self energy of the core charge distribution:             -14063.09528692122331
  Core Hamiltonian energy:                                   3716.36576752321889
  Hartree energy:                                            5743.81551052701707
  Exchange-correlation energy:                              -1129.21255055606616
  Dispersion energy:                                           -0.51200653027705

  Total energy:                                             -5732.63855849668562

  outer SCF iter =    2 RMS gradient =   0.36E-05 energy =      -5732.6385584967

  ----------------------------------- OT ---------------------------------------
  Minimizer      : DIIS                : direct inversion
                                         in the iterative subspace
                                         using   7 DIIS vectors
                                         safer DIIS on
  Preconditioner : FULL_SINGLE_INVERSE : inversion of 
                                         H + eS - 2*(Sc)(c^T*H*c+const)(Sc)^T
  Precond_solver : INVERSE_UPDATE
  stepsize       :    0.10000000                  energy_gap     :    0.10000000
  eps_taylor     :   0.10000E-15                  max_taylor     :             4
  ----------------------------------- OT ---------------------------------------

  Step     Update method      Time    Convergence         Total energy    Change
  ------------------------------------------------------------------------------


     Lanczos converged:  T threshold:   0.100E-02
     Est. extremal eigenvalues:    0.155E+01   0.587E+00
     Est. condition number :    0.264E+01
     Hotelling iter   1 1.00000000   0.228E+00       1.587   271063.135



     Lanczos converged:  T threshold:   0.100E-02
     Est. extremal eigenvalues:    0.147E+01   0.553E+00
     Est. condition number :    0.267E+01
     Hotelling iter   1 1.00000000   0.232E+00       1.710   251449.755

     1 OT DIIS     0.10E+00   82.1     0.00000361     -5732.6385713720 -1.29E-05
     2 OT DIIS     0.10E+00   30.7     0.00000388     -5732.6385834052 -1.20E-05
     3 OT SD       0.10E+00   31.1     0.00000353     -5732.6385881771 -4.77E-06
     4 OT SD       0.10E+00   31.1     0.00000355     -5732.6386007394 -1.26E-05
     5 OT SD       0.10E+00   31.1     0.00000359     -5732.6386134816 -1.27E-05
     6 OT SD       0.10E+00   31.1     0.00000366     -5732.6386264279 -1.29E-05
     7 OT SD       0.10E+00   31.1     0.00000381     -5732.6386395572 -1.31E-05
     8 OT SD       0.10E+00   31.1     0.00000425     -5732.6386526454 -1.31E-05
     9 OT SD       0.10E+00   31.2     0.00000559     -5732.6386645895 -1.19E-05
    10 OT SD       0.10E+00   31.2     0.00000915     -5732.6386705730 -5.98E-06
    11 OT SD       0.10E+00   31.3     0.00001736     -5732.6386499853  2.06E-05
    12 OT DIIS     0.10E+00   31.4     0.00003495     -5732.6385146915  1.35E-04
    13 OT SD       0.10E+00   31.3     0.00000340     -5732.6384405423  7.41E-05
    14 OT SD       0.10E+00   31.2     0.00000340     -5732.6384521710 -1.16E-05
    15 OT SD       0.10E+00   31.2     0.00000340     -5732.6384637790 -1.16E-05
    16 OT SD       0.10E+00   31.5     0.00000340     -5732.6384753853 -1.16E-05
    17 OT SD       0.10E+00   31.2     0.00000341     -5732.6384869928 -1.16E-05
    18 OT SD       0.10E+00   31.2     0.00000343     -5732.6384985938 -1.16E-05
    19 OT SD       0.10E+00   31.3     0.00000349     -5732.6385101520 -1.16E-05
    20 OT SD       0.10E+00   31.2     0.00000374     -5732.6385215058 -1.14E-05
    21 OT SD       0.10E+00   31.1     0.00000459     -5732.6385319924 -1.05E-05
    22 OT SD       0.10E+00   31.1     0.00000708     -5732.6385388508 -6.86E-06
    23 OT SD       0.10E+00   31.1     0.00001308     -5732.6385305387  8.31E-06
    24 OT DIIS     0.10E+00   31.1     0.00002606     -5732.6384583922  7.21E-05
    25 OT SD       0.10E+00   31.2     0.00000339     -5732.6384572631  1.13E-06
    26 OT DIIS     0.10E+00   31.2     0.00000337     -5732.6384687122 -1.14E-05
    27 OT SD       0.10E+00   31.2     0.00000336     -5732.6384953459 -2.66E-05
    28 OT SD       0.10E+00   31.4     0.00000338     -5732.6385067331 -1.14E-05
    29 OT SD       0.10E+00   31.3     0.00000342     -5732.6385181412 -1.14E-05
    30 OT SD       0.10E+00   31.2     0.00000356     -5732.6385295056 -1.14E-05
    31 OT SD       0.10E+00   31.1     0.00000402     -5732.6385405214 -1.10E-05
    32 OT SD       0.10E+00   31.6     0.00000548     -5732.6385499145 -9.39E-06
    33 OT SD       0.10E+00   31.2     0.00000924     -5732.6385524949 -2.58E-06
    34 OT DIIS     0.10E+00   31.2     0.00001757     -5732.6385271675  2.53E-05
    35 OT DIIS     0.10E+00   31.4     0.00000333     -5732.6384867758  4.04E-05
    36 OT DIIS     0.10E+00   31.3     0.00000333     -5732.6384943267 -7.55E-06
    37 OT SD       0.10E+00   31.2     0.00000333     -5732.6385326436 -3.83E-05
    38 OT SD       0.10E+00   31.2     0.00000333     -5732.6385438039 -1.12E-05
    39 OT SD       0.10E+00   31.2     0.00000334     -5732.6385549759 -1.12E-05
    40 OT SD       0.10E+00   31.1     0.00000336     -5732.6385661521 -1.12E-05
    41 OT SD       0.10E+00   31.3     0.00000343     -5732.6385772926 -1.11E-05
    42 OT SD       0.10E+00   31.3     0.00000371     -5732.6385882187 -1.09E-05
    43 OT SD       0.10E+00   31.4     0.00000466     -5732.6385981823 -9.96E-06
    44 OT SD       0.10E+00   31.5     0.00000741     -5732.6386040170 -5.83E-06
    45 OT SD       0.10E+00   31.3     0.00001397     -5732.6385922630  1.18E-05
    46 OT DIIS     0.10E+00   31.3     0.00002818     -5732.6385052627  8.70E-05
    47 OT SD       0.10E+00   31.3     0.00000331     -5732.6384762945  2.90E-05
    48 OT DIIS     0.10E+00   31.5     0.00000330     -5732.6384873063 -1.10E-05
    49 OT SD       0.10E+00   31.3     0.00000333     -5732.6385235629 -3.63E-05
    50 OT SD       0.10E+00   31.2     0.00000332     -5732.6385346530 -1.11E-05
    51 OT SD       0.10E+00   31.3     0.00000334     -5732.6385457081 -1.11E-05
    52 OT SD       0.10E+00   31.3     0.00000341     -5732.6385567542 -1.10E-05
    53 OT SD       0.10E+00   31.2     0.00000366     -5732.6385676442 -1.09E-05
    54 OT SD       0.10E+00   31.3     0.00000454     -5732.6385777180 -1.01E-05
    55 OT SD       0.10E+00   31.2     0.00000709     -5732.6385841683 -6.45E-06
    56 OT SD       0.10E+00   31.3     0.00001321     -5732.6385751234  9.04E-06
    57 OT DIIS     0.10E+00   31.3     0.00002645     -5732.6385001868  7.49E-05
    58 OT DIIS     0.10E+00   31.3     0.00000328     -5732.6385002495 -6.27E-08
    59 OT DIIS     0.10E+00   31.3     0.00000328     -5732.6385218752 -2.16E-05
    60 OT SD       0.10E+00   31.6     0.00000329     -5732.6385512689 -2.94E-05
    61 OT SD       0.10E+00   31.3     0.00000329     -5732.6385621432 -1.09E-05
    62 OT SD       0.10E+00   31.2     0.00000330     -5732.6385730247 -1.09E-05
    63 OT SD       0.10E+00   31.3     0.00000333     -5732.6385839034 -1.09E-05
    64 OT SD       0.10E+00   31.4     0.00000344     -5732.6385947163 -1.08E-05
    65 OT SD       0.10E+00   31.3     0.00000384     -5732.6386051892 -1.05E-05
    66 OT SD       0.10E+00   31.2     0.00000519     -5732.6386141629 -8.97E-06
    67 OT SD       0.10E+00   31.5     0.00000885     -5732.6386167176 -2.55E-06
    68 OT SD       0.10E+00   31.3     0.00001723     -5732.6385918486  2.49E-05
    69 OT DIIS     0.10E+00   31.3     0.00003512     -5732.6384492958  1.43E-04
    70 OT DIIS     0.10E+00   31.1     0.00000327     -5732.6384934037 -4.41E-05
    71 OT DIIS     0.10E+00   31.3     0.00000326     -5732.6384955468 -2.14E-06
    72 OT SD       0.10E+00   31.3     0.00000337     -5732.6385374859 -4.19E-05
    73 OT SD       0.10E+00   31.4     0.00000328     -5732.6385485006 -1.10E-05
    74 OT SD       0.10E+00   31.2     0.00000328     -5732.6385593035 -1.08E-05
    75 OT SD       0.10E+00   31.3     0.00000329     -5732.6385701185 -1.08E-05
    76 OT SD       0.10E+00   31.4     0.00000331     -5732.6385809656 -1.08E-05
    77 OT SD       0.10E+00   31.3     0.00000334     -5732.6385918432 -1.09E-05
    78 OT SD       0.10E+00   31.2     0.00000344     -5732.6386027112 -1.09E-05
    79 OT SD       0.10E+00   31.3     0.00000376     -5732.6386133784 -1.07E-05
    80 OT SD       0.10E+00   31.5     0.00000483     -5732.6386230062 -9.63E-06
    81 OT SD       0.10E+00   31.2     0.00000783     -5732.6386280061 -5.00E-06
    82 OT SD       0.10E+00   31.1     0.00001492     -5732.6386129375  1.51E-05
    83 OT DIIS     0.10E+00   31.3     0.00003026     -5732.6385110102  1.02E-04
    84 OT SD       0.10E+00   31.3     0.00000325     -5732.6385127199 -1.71E-06
    85 OT SD       0.10E+00   31.2     0.00000325     -5732.6385233409 -1.06E-05
    86 OT SD       0.10E+00   31.2     0.00000325     -5732.6385339611 -1.06E-05
    87 OT SD       0.10E+00   31.3     0.00000325     -5732.6385445855 -1.06E-05
    88 OT SD       0.10E+00   31.3     0.00000326     -5732.6385552134 -1.06E-05
    89 OT SD       0.10E+00   31.5     0.00000328     -5732.6385658336 -1.06E-05
    90 OT SD       0.10E+00   31.4     0.00000337     -5732.6385763947 -1.06E-05
    91 OT SD       0.10E+00   31.3     0.00000370     -5732.6385866739 -1.03E-05
    92 OT SD       0.10E+00   31.5     0.00000485     -5732.6385957365 -9.06E-06
    93 OT SD       0.10E+00   31.3     0.00000804     -5732.6385996438 -3.91E-06
    94 OT SD       0.10E+00   31.2     0.00001543     -5732.6385817478  1.79E-05
    95 OT DIIS     0.10E+00   31.3     0.00003121     -5732.6384713282  1.10E-04
    96 OT SD       0.10E+00   31.7     0.00000324     -5732.6385186110 -4.73E-05
    97 OT DIIS     0.10E+00   31.5     0.00000323     -5732.6385291239 -1.05E-05
    98 OT SD       0.10E+00   31.2     0.00000323     -5732.6385717809 -4.27E-05
    99 OT SD       0.10E+00   31.4     0.00000323     -5732.6385822782 -1.05E-05
   100 OT SD       0.10E+00   31.5     0.00000325     -5732.6385928168 -1.05E-05
   101 OT SD       0.10E+00   31.3     0.00000328     -5732.6386034048 -1.06E-05
   102 OT SD       0.10E+00   31.2     0.00000335     -5732.6386140187 -1.06E-05
   103 OT SD       0.10E+00   31.3     0.00000361     -5732.6386245196 -1.05E-05
   104 OT SD       0.10E+00   31.2     0.00000447     -5732.6386342970 -9.78E-06
   105 OT SD       0.10E+00   31.4     0.00000688     -5732.6386408048 -6.51E-06
   106 OT SD       0.10E+00   31.4     0.00001259     -5732.6386335379  7.27E-06
   107 OT DIIS     0.10E+00   31.4     0.00002481     -5732.6385690296  6.45E-05
   108 OT SD       0.10E+00   31.6     0.00000319     -5732.6385427351  2.63E-05
   109 OT DIIS     0.10E+00   31.3     0.00000319     -5732.6385530080 -1.03E-05
   110 OT SD       0.10E+00   31.5     0.00000327     -5732.6385751715 -2.22E-05
   111 OT SD       0.10E+00   31.3     0.00000325     -5732.6385855872 -1.04E-05
   112 OT SD       0.10E+00   31.7     0.00000337     -5732.6385957600 -1.02E-05
   113 OT SD       0.10E+00   31.4     0.00000384     -5732.6386055075 -9.75E-06
   114 OT SD       0.10E+00   31.2     0.00000537     -5732.6386135065 -8.00E-06
   115 OT SD       0.10E+00   31.3     0.00000936     -5732.6386141342 -6.28E-07
   116 OT SD       0.10E+00   31.6     0.00001836     -5732.6385834395  3.07E-05
   117 OT DIIS     0.10E+00   31.3     0.00003749     -5732.6384185341  1.65E-04
   118 OT SD       0.10E+00   31.4     0.00000318     -5732.6385273292 -1.09E-04
   119 OT DIIS     0.10E+00   31.2     0.00000318     -5732.6385375291 -1.02E-05
   120 OT SD       0.10E+00   31.3     0.00000319     -5732.6385402815 -2.75E-06
   121 OT SD       0.10E+00   31.5     0.00000318     -5732.6385504671 -1.02E-05
   122 OT SD       0.10E+00   31.4     0.00000319     -5732.6385606247 -1.02E-05
   123 OT SD       0.10E+00   31.4     0.00000322     -5732.6385707726 -1.01E-05
   124 OT SD       0.10E+00   31.5     0.00000332     -5732.6385808568 -1.01E-05
   125 OT SD       0.10E+00   31.3     0.00000369     -5732.6385906453 -9.79E-06
   126 OT SD       0.10E+00   31.2     0.00000488     -5732.6385991838 -8.54E-06
   127 OT SD       0.10E+00   31.3     0.00000807     -5732.6386025737 -3.39E-06
   128 OT DIIS     0.10E+00   31.8     0.00001531     -5732.6385847467  1.78E-05
   129 OT DIIS     0.10E+00   31.3     0.00000316     -5732.6385583950  2.64E-05
   130 OT DIIS     0.10E+00   31.3     0.00000316     -5732.6385837665 -2.54E-05
   131 OT DIIS     0.10E+00   31.4     0.00000316     -5732.6386038902 -2.01E-05
   132 OT SD       0.10E+00   31.5     0.00000316     -5732.6386074330 -3.54E-06
   133 OT SD       0.10E+00   31.4     0.00000316     -5732.6386174955 -1.01E-05
   134 OT SD       0.10E+00   31.3     0.00000316     -5732.6386275730 -1.01E-05
   135 OT SD       0.10E+00   31.3     0.00000317     -5732.6386376661 -1.01E-05
   136 OT SD       0.10E+00   31.3     0.00000319     -5732.6386477728 -1.01E-05
   137 OT SD       0.10E+00   31.4     0.00000323     -5732.6386578705 -1.01E-05
   138 OT SD       0.10E+00   31.4     0.00000340     -5732.6386678636 -9.99E-06
   139 OT SD       0.10E+00   31.6     0.00000400     -5732.6386773413 -9.48E-06
   140 OT SD       0.10E+00   31.8     0.00000585     -5732.6386845775 -7.24E-06
   141 OT SD       0.10E+00   31.3     0.00001055     -5732.6386822019  2.38E-06
   142 OT SD       0.10E+00   31.4     0.00002101     -5732.6386384445  4.38E-05
   143 OT DIIS     0.10E+00   31.2     0.00004328     -5732.6384149869  2.23E-04
   144 OT DIIS     0.10E+00   31.5     0.00000314     -5732.6385591050 -1.44E-04
   145 OT SD       0.10E+00   31.4     0.00000314     -5732.6385678119 -8.71E-06
   146 OT SD       0.10E+00   31.3     0.00000314     -5732.6385777579 -9.95E-06
   147 OT SD       0.10E+00   31.3     0.00000314     -5732.6385877088 -9.95E-06
   148 OT SD       0.10E+00   31.6     0.00000315     -5732.6385976673 -9.96E-06
   149 OT SD       0.10E+00   31.4     0.00000315     -5732.6386076341 -9.97E-06
   150 OT SD       0.10E+00   31.4     0.00000317     -5732.6386176066 -9.97E-06
   151 OT SD       0.10E+00   31.2     0.00000321     -5732.6386275638 -9.96E-06
   152 OT SD       0.10E+00   31.2     0.00000336     -5732.6386374215 -9.86E-06
   153 OT SD       0.10E+00   31.4     0.00000388     -5732.6386468378 -9.42E-06
   154 OT SD       0.10E+00   31.3     0.00000544     -5732.6386544645 -7.63E-06
   155 OT SD       0.10E+00   31.5     0.00000933     -5732.6386549122 -4.48E-07
   156 OT SD       0.10E+00   31.5     0.00001781     -5732.6386264776  2.84E-05
   157 OT DIIS     0.10E+00   31.4     0.00003535     -5732.6384808529  1.46E-04
   158 OT DIIS     0.10E+00   31.2     0.00000313     -5732.6385695373 -8.87E-05
   159 OT DIIS     0.10E+00   31.3     0.00000313     -5732.6385774316 -7.89E-06
   160 OT SD       0.10E+00   31.5     0.00000315     -5732.6386186899 -4.13E-05
   161 OT SD       0.10E+00   31.4     0.00000315     -5732.6386286202 -9.93E-06
   162 OT SD       0.10E+00   31.2     0.00000318     -5732.6386385206 -9.90E-06
   163 OT SD       0.10E+00   31.3     0.00000328     -5732.6386483690 -9.85E-06
   164 OT SD       0.10E+00   31.5     0.00000362     -5732.6386579567 -9.59E-06
   165 OT SD       0.10E+00   31.3     0.00000474     -5732.6386664167 -8.46E-06
   166 OT SD       0.10E+00   31.4     0.00000781     -5732.6386700987 -3.68E-06
   167 OT SD       0.10E+00   31.3     0.00001494     -5732.6386534779  1.66E-05
   168 OT DIIS     0.10E+00   31.2     0.00003029     -5732.6385497140  1.04E-04
   169 OT DIIS     0.10E+00   31.4     0.00000312     -5732.6385787079 -2.90E-05
   170 OT DIIS     0.10E+00   31.4     0.00000312     -5732.6385924988 -1.38E-05
   171 OT SD       0.10E+00   31.7     0.00000314     -5732.6386140081 -2.15E-05
   172 OT SD       0.10E+00   31.5     0.00000315     -5732.6386238158 -9.81E-06
   173 OT SD       0.10E+00   31.3     0.00000322     -5732.6386335746 -9.76E-06
   174 OT SD       0.10E+00   31.2     0.00000344     -5732.6386431629 -9.59E-06
   175 OT SD       0.10E+00   31.4     0.00000421     -5732.6386520449 -8.88E-06
   176 OT SD       0.10E+00   31.5     0.00000637     -5732.6386580823 -6.04E-06
   177 OT SD       0.10E+00   31.5     0.00001150     -5732.6386526443  5.44E-06
   178 OT DIIS     0.10E+00   31.4     0.00002244     -5732.6386005848  5.21E-05
   179 OT DIIS     0.10E+00   31.5     0.00000311     -5732.6385739630  2.66E-05
   180 OT DIIS     0.10E+00   31.3     0.00000311     -5732.6385765902 -2.63E-06

  Leaving inner SCF loop after reaching   180 steps.


  Electronic density on regular grids:      -2111.9999999915        0.0000000085
  Core density on regular grids:             2111.9999999992       -0.0000000008
  Total charge density on r-space grids:        0.0000000077
  Total charge density g-space grids:           0.0000000077

  Overlap energy of the core charge distribution:               0.00000746064565
  Self energy of the core charge distribution:             -14063.09528692122331
  Core Hamiltonian energy:                                   3716.36543167589844
  Hartree energy:                                            5743.81569840702196
  Exchange-correlation energy:                              -1129.21242068225888
  Dispersion energy:                                           -0.51200653027705

  Total energy:                                             -5732.63857659019413

  outer SCF iter =    3 RMS gradient =   0.31E-05 energy =      -5732.6385765902

  ----------------------------------- OT ---------------------------------------
  Minimizer      : DIIS                : direct inversion
                                         in the iterative subspace
                                         using   7 DIIS vectors
                                         safer DIIS on
  Preconditioner : FULL_SINGLE_INVERSE : inversion of 
                                         H + eS - 2*(Sc)(c^T*H*c+const)(Sc)^T
  Precond_solver : INVERSE_UPDATE
  stepsize       :    0.10000000                  energy_gap     :    0.10000000
  eps_taylor     :   0.10000E-15                  max_taylor     :             4
  ----------------------------------- OT ---------------------------------------

  Step     Update method      Time    Convergence         Total energy    Change
  ------------------------------------------------------------------------------


     Lanczos converged:  T threshold:   0.100E-02
     Est. extremal eigenvalues:    0.105E+01   0.735E+00
     Est. condition number :    0.143E+01
     Hotelling iter   1 1.00000000   0.479E-01       1.549   272871.974



     Lanczos converged:  T threshold:   0.100E-02
     Est. extremal eigenvalues:    0.104E+01   0.720E+00
     Est. condition number :    0.145E+01
     Hotelling iter   1 1.00000000   0.500E-01       1.701   248459.604

     1 OT DIIS     0.10E+00   82.4     0.00000334     -5732.6386475221 -7.09E-05
     2 OT DIIS     0.10E+00   30.8     0.00000331     -5732.6386585134 -1.10E-05
     3 OT DIIS     0.10E+00   31.2     0.00000330     -5732.6386652940 -6.78E-06
     4 OT SD       0.10E+00   31.1     0.00000329     -5732.6386697176 -4.42E-06
     5 OT SD       0.10E+00   31.1     0.00000330     -5732.6386806474 -1.09E-05
     6 OT SD       0.10E+00   31.2     0.00000330     -5732.6386916116 -1.10E-05
     7 OT SD       0.10E+00   31.3     0.00000331     -5732.6387026199 -1.10E-05
     8 OT SD       0.10E+00   31.5     0.00000332     -5732.6387136824 -1.11E-05
     9 OT SD       0.10E+00   31.4     0.00000335     -5732.6387248067 -1.11E-05
    10 OT SD       0.10E+00   31.4     0.00000341     -5732.6387359785 -1.12E-05
    11 OT SD       0.10E+00   31.4     0.00000364     -5732.6387470776 -1.11E-05
    12 OT SD       0.10E+00   31.5     0.00000447     -5732.6387574908 -1.04E-05
    13 OT SD       0.10E+00   31.4     0.00000704     -5732.6387643831 -6.89E-06
    14 OT SD       0.10E+00   31.2     0.00001349     -5732.6387549039  9.48E-06
    15 OT DIIS     0.10E+00   31.2     0.00002785     -5732.6386711532  8.38E-05
    16 OT SD       0.10E+00   31.6     0.00000327     -5732.6386467343  2.44E-05
    17 OT SD       0.10E+00   31.3     0.00000327     -5732.6386574986 -1.08E-05
    18 OT SD       0.10E+00   31.3     0.00000327     -5732.6386682625 -1.08E-05
    19 OT SD       0.10E+00   31.4     0.00000327     -5732.6386790310 -1.08E-05
    20 OT SD       0.10E+00   31.2     0.00000327     -5732.6386898068 -1.08E-05
    21 OT SD       0.10E+00   31.2     0.00000328     -5732.6387005907 -1.08E-05
    22 OT SD       0.10E+00   31.3     0.00000329     -5732.6387113818 -1.08E-05
    23 OT SD       0.10E+00   31.4     0.00000332     -5732.6387221648 -1.08E-05
    24 OT SD       0.10E+00   31.5     0.00000343     -5732.6387328764 -1.07E-05
    25 OT SD       0.10E+00   31.3     0.00000383     -5732.6387432427 -1.04E-05
    26 OT SD       0.10E+00   31.4     0.00000516     -5732.6387521373 -8.89E-06
    27 OT SD       0.10E+00   31.3     0.00000872     -5732.6387548430 -2.71E-06
    28 OT SD       0.10E+00   31.6     0.00001683     -5732.6387315340  2.33E-05
    29 OT DIIS     0.10E+00   31.4     0.00003405     -5732.6385981164  1.33E-04
    30 OT SD       0.10E+00   31.3     0.00000327     -5732.6386544981 -5.64E-05
    31 OT DIIS     0.10E+00   31.2     0.00000325     -5732.6386651438 -1.06E-05
    32 OT SD       0.10E+00   31.7     0.00000326     -5732.6387031917 -3.80E-05
    33 OT SD       0.10E+00   31.3     0.00000326     -5732.6387138391 -1.06E-05
    34 OT SD       0.10E+00   31.4     0.00000328     -5732.6387245193 -1.07E-05
    35 OT SD       0.10E+00   31.4     0.00000335     -5732.6387352349 -1.07E-05
    36 OT SD       0.10E+00   31.3     0.00000359     -5732.6387458612 -1.06E-05
    37 OT DIIS     0.10E+00   31.2     0.00000443     -5732.6387557967 -9.94E-06
    38 OT DIIS     0.10E+00   31.2     0.00000324     -5732.6388103626 -5.46E-05
    39 OT DIIS     0.10E+00   31.5     0.00000295     -5732.6388662255 -5.59E-05
    40 OT DIIS     0.10E+00   31.5     0.00000296     -5732.6389132407 -4.70E-05
    41 OT DIIS     0.10E+00   31.4     0.00000289     -5732.6389349515 -2.17E-05
    42 OT SD       0.10E+00   31.2     0.00000286     -5732.6389433002 -8.35E-06
    43 OT SD       0.10E+00   31.3     0.00000289     -5732.6389515801 -8.28E-06
    44 OT SD       0.10E+00   31.6     0.00000293     -5732.6389600251 -8.45E-06
    45 OT SD       0.10E+00   31.4     0.00000299     -5732.6389686838 -8.66E-06
    46 OT SD       0.10E+00   31.4     0.00000309     -5732.6389775789 -8.90E-06
    47 OT SD       0.10E+00   31.3     0.00000335     -5732.6389866441 -9.07E-06
    48 OT SD       0.10E+00   31.6     0.00000414     -5732.6389954150 -8.77E-06
    49 OT SD       0.10E+00   31.3     0.00000643     -5732.6390016783 -6.26E-06
    50 OT SD       0.10E+00   31.3     0.00001205     -5732.6389955253  6.15E-06
    51 OT DIIS     0.10E+00   31.4     0.00002447     -5732.6389331339  6.24E-05
    52 OT DIIS     0.10E+00   31.3     0.00000266     -5732.6389198577  1.33E-05
    53 OT DIIS     0.10E+00   31.1     0.00000265     -5732.6389212103 -1.35E-06
    54 OT DIIS     0.10E+00   31.1     0.00000266     -5732.6389277327 -6.52E-06
    55 OT SD       0.10E+00   31.2     0.00000266     -5732.6389282807 -5.48E-07
    56 OT SD       0.10E+00   31.5     0.00000267     -5732.6389354148 -7.13E-06
    57 OT SD       0.10E+00   31.4     0.00000271     -5732.6389425924 -7.18E-06
    58 OT SD       0.10E+00   31.5     0.00000279     -5732.6389497941 -7.20E-06
    59 OT SD       0.10E+00   31.4     0.00000310     -5732.6389568839 -7.09E-06
    60 OT SD       0.10E+00   31.4     0.00000408     -5732.6389632273 -6.34E-06
    61 OT SD       0.10E+00   31.4     0.00000678     -5732.6389660690 -2.84E-06
    62 OT SD       0.10E+00   31.3     0.00001301     -5732.6389536141  1.25E-05
    63 OT DIIS     0.10E+00   31.2     0.00002636     -5732.6388753571  7.83E-05
    64 OT DIIS     0.10E+00   31.5     0.00000261     -5732.6389305921 -5.52E-05
    65 OT DIIS     0.10E+00   31.4     0.00000261     -5732.6389348023 -4.21E-06
    66 OT SD       0.10E+00   31.3     0.00000262     -5732.6389411653 -6.36E-06
    67 OT SD       0.10E+00   31.5     0.00000262     -5732.6389480660 -6.90E-06
    68 OT SD       0.10E+00   31.3     0.00000262     -5732.6389549795 -6.91E-06
    69 OT SD       0.10E+00   31.3     0.00000263     -5732.6389619075 -6.93E-06
    70 OT SD       0.10E+00   31.3     0.00000265     -5732.6389688467 -6.94E-06
    71 OT SD       0.10E+00   31.4     0.00000270     -5732.6389757731 -6.93E-06
    72 OT SD       0.10E+00   31.4     0.00000293     -5732.6389825711 -6.80E-06
    73 OT SD       0.10E+00   31.5     0.00000374     -5732.6389887271 -6.16E-06
    74 OT SD       0.10E+00   31.4     0.00000611     -5732.6389919881 -3.26E-06
    75 OT SD       0.10E+00   31.4     0.00001181     -5732.6389824626  9.53E-06
    76 OT DIIS     0.10E+00   31.5     0.00002426     -5732.6389165801  6.59E-05
    77 OT DIIS     0.10E+00   31.4     0.00000260     -5732.6389164055  1.75E-07
    78 OT DIIS     0.10E+00   31.4     0.00000260     -5732.6389209182 -4.51E-06
    79 OT SD       0.10E+00   31.4     0.00000261     -5732.6389452403 -2.43E-05
    80 OT SD       0.10E+00   31.6     0.00000261     -5732.6389520808 -6.84E-06
    81 OT SD       0.10E+00   31.3     0.00000261     -5732.6389589319 -6.85E-06
    82 OT SD       0.10E+00   31.3     0.00000262     -5732.6389658068 -6.87E-06
    83 OT SD       0.10E+00   31.4     0.00000263     -5732.6389727099 -6.90E-06
    84 OT SD       0.10E+00   31.3     0.00000266     -5732.6389796400 -6.93E-06
    85 OT SD       0.10E+00   31.3     0.00000274     -5732.6389865691 -6.93E-06
    86 OT SD       0.10E+00   31.1     0.00000303     -5732.6389933608 -6.79E-06
    87 OT SD       0.10E+00   31.3     0.00000395     -5732.6389994329 -6.07E-06
    88 OT SD       0.10E+00   31.4     0.00000641     -5732.6390024049 -2.97E-06
    89 OT SD       0.10E+00   31.5     0.00001198     -5732.6389925992  9.81E-06
    90 OT DIIS     0.10E+00   31.4     0.00002364     -5732.6389306847  6.19E-05
    91 OT SD       0.10E+00   31.3     0.00000259     -5732.6389195886  1.11E-05
    92 OT SD       0.10E+00   31.4     0.00000259     -5732.6389263264 -6.74E-06
    93 OT SD       0.10E+00   31.3     0.00000259     -5732.6389330631 -6.74E-06
    94 OT SD       0.10E+00   31.3     0.00000259     -5732.6389398014 -6.74E-06
    95 OT SD       0.10E+00   31.4     0.00000259     -5732.6389465419 -6.74E-06
    96 OT SD       0.10E+00   31.6     0.00000260     -5732.6389532810 -6.74E-06
    97 OT SD       0.10E+00   31.4     0.00000264     -5732.6389600019 -6.72E-06
    98 OT SD       0.10E+00   31.2     0.00000279     -5732.6389666285 -6.63E-06
    99 OT SD       0.10E+00   31.3     0.00000335     -5732.6389728386 -6.21E-06
   100 OT SD       0.10E+00   31.3     0.00000505     -5732.6389772626 -4.42E-06
   101 OT SD       0.10E+00   31.4     0.00000928     -5732.6389740729  3.19E-06
   102 OT DIIS     0.10E+00   31.2     0.00001858     -5732.6389383220  3.58E-05
   103 OT SD       0.10E+00   31.3     0.00000259     -5732.6389336395  4.68E-06
   104 OT DIIS     0.10E+00   31.5     0.00000258     -5732.6389403276 -6.69E-06
   105 OT SD       0.10E+00   31.5     0.00000257     -5732.6389472929 -6.97E-06
   106 OT SD       0.10E+00   31.4     0.00000258     -5732.6389539635 -6.67E-06
   107 OT SD       0.10E+00   31.3     0.00000261     -5732.6389606376 -6.67E-06
   108 OT SD       0.10E+00   31.4     0.00000271     -5732.6389672736 -6.64E-06
   109 OT SD       0.10E+00   31.3     0.00000309     -5732.6389736713 -6.40E-06
   110 OT SD       0.10E+00   31.4     0.00000434     -5732.6389789485 -5.28E-06
   111 OT SD       0.10E+00   31.3     0.00000769     -5732.6389792275 -2.79E-07
   112 OT DIIS     0.10E+00   31.4     0.00001533     -5732.6389574705  2.18E-05
   113 OT DIIS     0.10E+00   31.3     0.00000256     -5732.6389371443  2.03E-05
   114 OT DIIS     0.10E+00   31.2     0.00000256     -5732.6389441996 -7.06E-06
   115 OT SD       0.10E+00   31.2     0.00000256     -5732.6389704938 -2.63E-05
   116 OT SD       0.10E+00   31.2     0.00000256     -5732.6389770974 -6.60E-06
   117 OT SD       0.10E+00   31.2     0.00000256     -5732.6389837063 -6.61E-06
   118 OT SD       0.10E+00   31.2     0.00000257     -5732.6389903213 -6.62E-06
   119 OT SD       0.10E+00   31.2     0.00000259     -5732.6389969341 -6.61E-06
   120 OT SD       0.10E+00   31.4     0.00000268     -5732.6390035045 -6.57E-06
   121 OT SD       0.10E+00   31.3     0.00000301     -5732.6390098532 -6.35E-06
   122 OT SD       0.10E+00   31.3     0.00000414     -5732.6390152011 -5.35E-06
   123 OT SD       0.10E+00   31.3     0.00000723     -5732.6390161564 -9.55E-07
   124 OT SD       0.10E+00   31.4     0.00001431     -5732.6389979417  1.82E-05
   125 OT DIIS     0.10E+00   31.3     0.00002951     -5732.6388959984  1.02E-04
   126 OT DIIS     0.10E+00   31.5     0.00000255     -5732.6389383757 -4.24E-05
   127 OT DIIS     0.10E+00   31.3     0.00000255     -5732.6389450035 -6.63E-06
   128 OT SD       0.10E+00   31.5     0.00000255     -5732.6389570650 -1.21E-05
   129 OT SD       0.10E+00   31.3     0.00000255     -5732.6389636221 -6.56E-06
   130 OT SD       0.10E+00   31.3     0.00000256     -5732.6389701916 -6.57E-06
   131 OT SD       0.10E+00   31.2     0.00000256     -5732.6389767773 -6.59E-06
   132 OT SD       0.10E+00   31.2     0.00000257     -5732.6389833817 -6.60E-06
   133 OT SD       0.10E+00   31.2     0.00000259     -5732.6389900032 -6.62E-06
   134 OT SD       0.10E+00   31.2     0.00000266     -5732.6389966162 -6.61E-06
   135 OT SD       0.10E+00   31.2     0.00000293     -5732.6390030865 -6.47E-06
   136 OT SD       0.10E+00   31.5     0.00000390     -5732.6390087855 -5.70E-06
   137 OT SD       0.10E+00   31.3     0.00000668     -5732.6390108624 -2.08E-06
   138 OT SD       0.10E+00   31.3     0.00001328     -5732.6389964681  1.44E-05
   139 OT DIIS     0.10E+00   31.3     0.00002773     -5732.6389077680  8.87E-05
   140 OT DIIS     0.10E+00   31.4     0.00000254     -5732.6389380640 -3.03E-05
   141 OT SD       0.10E+00   31.2     0.00000254     -5732.6389508469 -1.28E-05
   142 OT SD       0.10E+00   31.2     0.00000254     -5732.6389573431 -6.50E-06
   143 OT SD       0.10E+00   31.2     0.00000256     -5732.6389638341 -6.49E-06
   144 OT SD       0.10E+00   31.4     0.00000260     -5732.6389703006 -6.47E-06
   145 OT SD       0.10E+00   31.4     0.00000277     -5732.6389766618 -6.36E-06
   146 OT SD       0.10E+00   31.2     0.00000333     -5732.6389825984 -5.94E-06
   147 OT SD       0.10E+00   31.3     0.00000498     -5732.6389868292 -4.23E-06
   148 OT SD       0.10E+00   31.3     0.00000893     -5732.6389841625  2.67E-06
   149 OT DIIS     0.10E+00   31.2     0.00001744     -5732.6389532846  3.09E-05
   150 OT DIIS     0.10E+00   31.2     0.00000254     -5732.6389442122  9.07E-06
   151 OT DIIS     0.10E+00   31.2     0.00000253     -5732.6389463846 -2.17E-06
   152 OT DIIS     0.10E+00   31.3     0.00000253     -5732.6389590032 -1.26E-05
   153 OT SD       0.10E+00   31.4     0.00000253     -5732.6389637305 -4.73E-06
   154 OT SD       0.10E+00   31.4     0.00000253     -5732.6389701816 -6.45E-06
   155 OT SD       0.10E+00   31.4     0.00000254     -5732.6389766516 -6.47E-06
   156 OT SD       0.10E+00   31.4     0.00000255     -5732.6389831441 -6.49E-06
   157 OT SD       0.10E+00   31.5     0.00000257     -5732.6389896570 -6.51E-06
   158 OT SD       0.10E+00   31.4     0.00000266     -5732.6389961584 -6.50E-06
   159 OT SD       0.10E+00   31.2     0.00000300     -5732.6390024804 -6.32E-06
   160 OT SD       0.10E+00   31.4     0.00000415     -5732.6390078368 -5.36E-06
   161 OT SD       0.10E+00   31.3     0.00000735     -5732.6390086641 -8.27E-07
   162 OT SD       0.10E+00   31.2     0.00001479     -5732.6389889039  1.98E-05
   163 OT DIIS     0.10E+00   31.3     0.00003098     -5732.6388762245  1.13E-04
   164 OT DIIS     0.10E+00   31.6     0.00000251     -5732.6389509781 -7.48E-05
   165 OT DIIS     0.10E+00   31.6     0.00000251     -5732.6389630572 -1.21E-05
   166 OT SD       0.10E+00   31.5     0.00000252     -5732.6389671923 -4.14E-06
   167 OT SD       0.10E+00   31.4     0.00000252     -5732.6389735829 -6.39E-06
   168 OT SD       0.10E+00   31.8     0.00000253     -5732.6389799603 -6.38E-06
   169 OT SD       0.10E+00   31.7     0.00000255     -5732.6389863259 -6.37E-06
   170 OT SD       0.10E+00   31.6     0.00000264     -5732.6389926378 -6.31E-06
   171 OT SD       0.10E+00   31.6     0.00000300     -5732.6389987054 -6.07E-06
   172 OT SD       0.10E+00   31.7     0.00000416     -5732.6390037402 -5.03E-06
   173 OT SD       0.10E+00   31.7     0.00000722     -5732.6390044045 -6.64E-07
   174 OT SD       0.10E+00   31.5     0.00001411     -5732.6389865813  1.78E-05
   175 OT DIIS     0.10E+00   31.3     0.00002870     -5732.6388901779  9.64E-05
   176 OT SD       0.10E+00   31.5     0.00000252     -5732.6389492546 -5.91E-05
   177 OT SD       0.10E+00   31.5     0.00000252     -5732.6389555837 -6.33E-06
   178 OT SD       0.10E+00   31.3     0.00000254     -5732.6389618848 -6.30E-06
   179 OT SD       0.10E+00   31.3     0.00000265     -5732.6389681231 -6.24E-06
   180 OT SD       0.10E+00   31.3     0.00000305     -5732.6389740874 -5.96E-06

  Leaving inner SCF loop after reaching   180 steps.


  Electronic density on regular grids:      -2111.9999999924        0.0000000076
  Core density on regular grids:             2111.9999999992       -0.0000000008
  Total charge density on r-space grids:        0.0000000067
  Total charge density g-space grids:           0.0000000067

  Overlap energy of the core charge distribution:               0.00000746064565
  Self energy of the core charge distribution:             -14063.09528692122331
  Core Hamiltonian energy:                                   3716.36403878741248
  Hartree energy:                                            5743.81625131623423
  Exchange-correlation energy:                              -1129.21197820022417
  Dispersion energy:                                           -0.51200653027705

  Total energy:                                             -5732.63897408743196

  outer SCF iter =    4 RMS gradient =   0.30E-05 energy =      -5732.6389740874

  ----------------------------------- OT ---------------------------------------
  Minimizer      : DIIS                : direct inversion
                                         in the iterative subspace
                                         using   7 DIIS vectors
                                         safer DIIS on
  Preconditioner : FULL_SINGLE_INVERSE : inversion of 
                                         H + eS - 2*(Sc)(c^T*H*c+const)(Sc)^T
  Precond_solver : INVERSE_UPDATE
  stepsize       :    0.10000000                  energy_gap     :    0.10000000
  eps_taylor     :   0.10000E-15                  max_taylor     :             4
  ----------------------------------- OT ---------------------------------------

  Step     Update method      Time    Convergence         Total energy    Change
  ------------------------------------------------------------------------------


     Lanczos converged:  T threshold:   0.100E-02
     Est. extremal eigenvalues:    0.128E+01   0.744E+00
     Est. condition number :    0.173E+01
     Hotelling iter   1 1.00000000   0.919E-01       1.594   269897.335



     Lanczos converged:  T threshold:   0.100E-02
     Est. extremal eigenvalues:    0.129E+01   0.735E+00
     Est. condition number :    0.176E+01
     Hotelling iter   1 1.00000000   0.965E-01       1.725   249605.967

     1 OT DIIS     0.10E+00   82.4     0.00000435     -5732.6389788235 -4.74E-06
     2 OT DIIS     0.10E+00   30.8     0.00000779     -5732.6389781914  6.32E-07
     3 OT DIIS     0.10E+00   31.2     0.00000250     -5732.6389891376 -1.09E-05
     4 OT SD       0.10E+00   31.2     0.00000249     -5732.6389912546 -2.12E-06
     5 OT SD       0.10E+00   31.3     0.00000249     -5732.6389974864 -6.23E-06
     6 OT SD       0.10E+00   31.1     0.00000250     -5732.6390037428 -6.26E-06
     7 OT SD       0.10E+00   31.3     0.00000250     -5732.6390100287 -6.29E-06
     8 OT SD       0.10E+00   31.4     0.00000252     -5732.6390163498 -6.32E-06
     9 OT SD       0.10E+00   31.4     0.00000254     -5732.6390227077 -6.36E-06
    10 OT SD       0.10E+00   31.4     0.00000261     -5732.6390290894 -6.38E-06
    11 OT SD       0.10E+00   31.3     0.00000282     -5732.6390354082 -6.32E-06
    12 OT SD       0.10E+00   31.5     0.00000351     -5732.6390412764 -5.87E-06
    13 OT SD       0.10E+00   31.5     0.00000550     -5732.6390450233 -3.75E-06
    14 OT SD       0.10E+00   31.4     0.00001024     -5732.6390395569  5.47E-06
    15 OT SD       0.10E+00   31.4     0.00002050     -5732.6389946370  4.49E-05
    16 OT DIIS     0.10E+00   30.3     0.00004202     -5732.6387807309  2.14E-04
    17 OT SD       0.10E+00   30.4     0.00000246     -5732.6389460703 -1.65E-04
    18 OT SD       0.10E+00   30.7     0.00000246     -5732.6389521744 -6.10E-06
    19 OT SD       0.10E+00   30.9     0.00000247     -5732.6389582731 -6.10E-06
    20 OT SD       0.10E+00   30.9     0.00000248     -5732.6389643637 -6.09E-06
    21 OT SD       0.10E+00   30.8     0.00000255     -5732.6389704153 -6.05E-06
    22 OT SD       0.10E+00   30.7     0.00000281     -5732.6389762951 -5.88E-06
    23 OT SD       0.10E+00   30.7     0.00000372     -5732.6389814375 -5.14E-06
    24 OT SD       0.10E+00   30.8     0.00000624     -5732.6389834326 -2.00E-06
    25 OT SD       0.10E+00   30.8     0.00001209     -5732.6389719502  1.15E-05
    26 OT DIIS     0.10E+00   30.8     0.00002464     -5732.6389024833  6.95E-05
    27 OT SD       0.10E+00   30.8     0.00000246     -5732.6389423734 -3.99E-05
    28 OT DIIS     0.10E+00   31.0     0.00000245     -5732.6389484348 -6.06E-06
    29 OT SD       0.10E+00   31.0     0.00000245     -5732.6389552195 -6.78E-06
    30 OT SD       0.10E+00   30.9     0.00000246     -5732.6389612547 -6.04E-06
    31 OT SD       0.10E+00   30.7     0.00000248     -5732.6389672900 -6.04E-06
    32 OT SD       0.10E+00   30.8     0.00000254     -5732.6389733013 -6.01E-06
    33 OT SD       0.10E+00   30.8     0.00000278     -5732.6389791767 -5.88E-06
    34 OT SD       0.10E+00   30.8     0.00000358     -5732.6389844438 -5.27E-06
    35 OT SD       0.10E+00   30.9     0.00000580     -5732.6389871225 -2.68E-06
    36 OT SD       0.10E+00   31.0     0.00001100     -5732.6389788613  8.26E-06
    37 OT DIIS     0.10E+00   30.8     0.00002215     -5732.6389242131  5.46E-05
    38 OT DIIS     0.10E+00   30.8     0.00000244     -5732.6389525495 -2.83E-05
    39 OT DIIS     0.10E+00   30.8     0.00000244     -5732.6389590039 -6.45E-06
    40 OT SD       0.10E+00   30.8     0.00000244     -5732.6389823215 -2.33E-05
    41 OT SD       0.10E+00   30.9     0.00000244     -5732.6389883101 -5.99E-06
    42 OT SD       0.10E+00   30.8     0.00000245     -5732.6389942990 -5.99E-06
    43 OT SD       0.10E+00   30.9     0.00000248     -5732.6390002767 -5.98E-06
    44 OT SD       0.10E+00   31.0     0.00000260     -5732.6390061870 -5.91E-06
    45 OT SD       0.10E+00   31.0     0.00000305     -5732.6390117877 -5.60E-06
    46 OT SD       0.10E+00   31.0     0.00000449     -5732.6390160403 -4.25E-06
    47 OT SD       0.10E+00   30.8     0.00000816     -5732.6390144752  1.57E-06
    48 OT DIIS     0.10E+00   30.9     0.00001633     -5732.6389877583  2.67E-05
    49 OT DIIS     0.10E+00   30.9     0.00000243     -5732.6389487663  3.90E-05
    50 OT DIIS     0.10E+00   30.8     0.00000243     -5732.6389519851 -3.22E-06
    51 OT SD       0.10E+00   30.9     0.00000243     -5732.6389694888 -1.75E-05
    52 OT SD       0.10E+00   30.9     0.00000243     -5732.6389754412 -5.95E-06
    53 OT SD       0.10E+00   30.8     0.00000244     -5732.6389813993 -5.96E-06
    54 OT SD       0.10E+00   30.8     0.00000245     -5732.6389873667 -5.97E-06
    55 OT SD       0.10E+00   30.9     0.00000249     -5732.6389933323 -5.97E-06
    56 OT SD       0.10E+00   31.0     0.00000262     -5732.6389992363 -5.90E-06
    57 OT SD       0.10E+00   31.0     0.00000312     -5732.6390048146 -5.58E-06
    58 OT SD       0.10E+00   30.9     0.00000466     -5732.6390089344 -4.12E-06
    59 OT SD       0.10E+00   30.9     0.00000849     -5732.6390067669  2.17E-06
    60 OT DIIS     0.10E+00   31.0     0.00001692     -5732.6389776969  2.91E-05
    61 OT DIIS     0.10E+00   31.0     0.00000242     -5732.6389559333  2.18E-05
    62 OT SD       0.10E+00   31.0     0.00000242     -5732.6389567870 -8.54E-07
    63 OT SD       0.10E+00   30.8     0.00000242     -5732.6389626808 -5.89E-06
    64 OT SD       0.10E+00   30.9     0.00000242     -5732.6389685734 -5.89E-06
    65 OT SD       0.10E+00   30.9     0.00000244     -5732.6389744600 -5.89E-06
    66 OT SD       0.10E+00   30.9     0.00000249     -5732.6389803177 -5.86E-06
    67 OT SD       0.10E+00   30.9     0.00000269     -5732.6389860490 -5.73E-06
    68 OT SD       0.10E+00   30.9     0.00000340     -5732.6389912397 -5.19E-06
    69 OT SD       0.10E+00   31.0     0.00000548     -5732.6389941214 -2.88E-06
    70 OT SD       0.10E+00   30.9     0.00001044     -5732.6389870745  7.05E-06
    71 OT DIIS     0.10E+00   31.0     0.00002124     -5732.6389370469  5.00E-05
    72 OT SD       0.10E+00   30.9     0.00000242     -5732.6389588027 -2.18E-05
    73 OT DIIS     0.10E+00   30.9     0.00000241     -5732.6389646622 -5.86E-06
    74 OT DIIS     0.10E+00   30.8     0.00000241     -5732.6389702486 -5.59E-06
    75 OT SD       0.10E+00   30.8     0.00000241     -5732.6389737790 -3.53E-06
    76 OT SD       0.10E+00   31.0     0.00000241     -5732.6389796156 -5.84E-06
    77 OT SD       0.10E+00   30.9     0.00000242     -5732.6389854713 -5.86E-06
    78 OT SD       0.10E+00   31.0     0.00000243     -5732.6389913486 -5.88E-06
    79 OT SD       0.10E+00   30.8     0.00000248     -5732.6389972352 -5.89E-06
    80 OT SD       0.10E+00   30.9     0.00000266     -5732.6390030588 -5.82E-06
    81 OT SD       0.10E+00   30.9     0.00000329     -5732.6390084776 -5.42E-06
    82 OT SD       0.10E+00   31.0     0.00000516     -5732.6390119925 -3.51E-06
    83 OT SD       0.10E+00   30.9     0.00000971     -5732.6390070997  4.89E-06
    84 OT DIIS     0.10E+00   30.9     0.00001964     -5732.6389656697  4.14E-05
    85 OT DIIS     0.10E+00   30.8     0.00000239     -5732.6389675999 -1.93E-06
    86 OT DIIS     0.10E+00   30.8     0.00000239     -5732.6389678430 -2.43E-07
    87 OT SD       0.10E+00   30.9     0.00000245     -5732.6390125903 -4.47E-05
    88 OT SD       0.10E+00   30.9     0.00000241     -5732.6390184547 -5.86E-06
    89 OT SD       0.10E+00   31.0     0.00000242     -5732.6390242301 -5.78E-06
    90 OT SD       0.10E+00   30.9     0.00000245     -5732.6390299875 -5.76E-06
    91 OT SD       0.10E+00   30.8     0.00000256     -5732.6390356874 -5.70E-06
    92 OT SD       0.10E+00   31.0     0.00000292     -5732.6390411576 -5.47E-06
    93 OT SD       0.10E+00   31.0     0.00000401     -5732.6390456950 -4.54E-06
    94 OT SD       0.10E+00   31.0     0.00000682     -5732.6390464358 -7.41E-07
    95 OT SD       0.10E+00   30.9     0.00001314     -5732.6390313940  1.50E-05
    96 OT DIIS     0.10E+00   31.0     0.00002652     -5732.6389497612  8.16E-05
    97 OT SD       0.10E+00   30.9     0.00000238     -5732.6389658797 -1.61E-05
    98 OT SD       0.10E+00   30.9     0.00000238     -5732.6389715844 -5.70E-06
    99 OT SD       0.10E+00   31.0     0.00000238     -5732.6389772809 -5.70E-06
   100 OT SD       0.10E+00   31.0     0.00000238     -5732.6389829804 -5.70E-06
   101 OT SD       0.10E+00   30.9     0.00000238     -5732.6389886850 -5.70E-06
   102 OT SD       0.10E+00   30.8     0.00000239     -5732.6389943954 -5.71E-06
   103 OT SD       0.10E+00   30.9     0.00000241     -5732.6390001069 -5.71E-06
   104 OT SD       0.10E+00   31.0     0.00000247     -5732.6390057948 -5.69E-06
   105 OT SD       0.10E+00   31.0     0.00000271     -5732.6390113467 -5.55E-06
   106 OT SD       0.10E+00   30.9     0.00000353     -5732.6390162770 -4.93E-06
   107 OT SD       0.10E+00   30.9     0.00000585     -5732.6390185073 -2.23E-06
   108 OT SD       0.10E+00   31.0     0.00001126     -5732.6390091358  9.37E-06
   109 OT DIIS     0.10E+00   31.0     0.00002287     -5732.6389499483  5.92E-05
   110 OT SD       0.10E+00   31.0     0.00000237     -5732.6389714218 -2.15E-05
   111 OT DIIS     0.10E+00   30.9     0.00000237     -5732.6389770885 -5.67E-06
   112 OT SD       0.10E+00   30.9     0.00000239     -5732.6389934084 -1.63E-05
   113 OT SD       0.10E+00   31.0     0.00000239     -5732.6389990918 -5.68E-06
   114 OT SD       0.10E+00   31.0     0.00000244     -5732.6390047348 -5.64E-06
   115 OT SD       0.10E+00   30.9     0.00000259     -5732.6390102861 -5.55E-06
   116 OT SD       0.10E+00   31.0     0.00000311     -5732.6390154773 -5.19E-06
   117 OT SD       0.10E+00   30.9     0.00000461     -5732.6390192283 -3.75E-06
   118 OT SD       0.10E+00   31.0     0.00000826     -5732.6390171051  2.12E-06
   119 OT DIIS     0.10E+00   30.9     0.00001621     -5732.6389905878  2.65E-05
   120 OT SD       0.10E+00   31.0     0.00000237     -5732.6389670860  2.35E-05
   121 OT DIIS     0.10E+00   30.9     0.00000237     -5732.6389727243 -5.64E-06
   122 OT SD       0.10E+00   30.9     0.00000238     -5732.6389849104 -1.22E-05
   123 OT SD       0.10E+00   30.9     0.00000238     -5732.6389905539 -5.64E-06
   124 OT SD       0.10E+00   31.0     0.00000241     -5732.6389961747 -5.62E-06
   125 OT SD       0.10E+00   31.0     0.00000254     -5732.6390017277 -5.55E-06
   126 OT SD       0.10E+00   31.0     0.00000301     -5732.6390069656 -5.24E-06
   127 OT SD       0.10E+00   30.8     0.00000449     -5732.6390108240 -3.86E-06
   128 OT SD       0.10E+00   31.0     0.00000824     -5732.6390087014  2.12E-06
   129 OT DIIS     0.10E+00   30.9     0.00001654     -5732.6389807177  2.80E-05
   130 OT DIIS     0.10E+00   30.9     0.00000236     -5732.6389734634  7.25E-06
   131 OT DIIS     0.10E+00   30.9     0.00000236     -5732.6389766560 -3.19E-06
   132 OT SD       0.10E+00   31.0     0.00000236     -5732.6390005625 -2.39E-05
   133 OT SD       0.10E+00   30.9     0.00000236     -5732.6390061669 -5.60E-06
   134 OT SD       0.10E+00   30.9     0.00000238     -5732.6390117654 -5.60E-06
   135 OT SD       0.10E+00   30.9     0.00000243     -5732.6390173415 -5.58E-06
   136 OT SD       0.10E+00   30.9     0.00000261     -5732.6390228127 -5.47E-06
   137 OT SD       0.10E+00   31.0     0.00000323     -5732.6390278367 -5.02E-06
   138 OT SD       0.10E+00   30.9     0.00000505     -5732.6390309780 -3.14E-06
   139 OT SD       0.10E+00   30.9     0.00000944     -5732.6390261463  4.83E-06
   140 OT DIIS     0.10E+00   31.0     0.00001899     -5732.6389872280  3.89E-05
   141 OT DIIS     0.10E+00   31.0     0.00000235     -5732.6389750113  1.22E-05
   142 OT DIIS     0.10E+00   30.9     0.00000235     -5732.6389800015 -4.99E-06
   143 OT SD       0.10E+00   30.9     0.00000236     -5732.6389972320 -1.72E-05
   144 OT SD       0.10E+00   30.9     0.00000236     -5732.6390028063 -5.57E-06
   145 OT SD       0.10E+00   30.9     0.00000239     -5732.6390083707 -5.56E-06
   146 OT SD       0.10E+00   30.9     0.00000250     -5732.6390138808 -5.51E-06
   147 OT SD       0.10E+00   30.9     0.00000291     -5732.6390191293 -5.25E-06
   148 OT SD       0.10E+00   31.0     0.00000423     -5732.6390232178 -4.09E-06
   149 OT SD       0.10E+00   30.8     0.00000762     -5732.6390222778  9.40E-07
   150 OT DIIS     0.10E+00   30.9     0.00001520     -5732.6389996090  2.27E-05
   151 OT DIIS     0.10E+00   30.9     0.00000234     -5732.6389799605  1.96E-05
   152 OT DIIS     0.10E+00   31.0     0.00000234     -5732.6389810232 -1.06E-06
   153 OT SD       0.10E+00   31.0     0.00000236     -5732.6390089593 -2.79E-05
   154 OT SD       0.10E+00   31.0     0.00000236     -5732.6390145100 -5.55E-06
   155 OT SD       0.10E+00   30.8     0.00000241     -5732.6390200256 -5.52E-06
   156 OT SD       0.10E+00   31.0     0.00000256     -5732.6390254523 -5.43E-06
   157 OT SD       0.10E+00   31.0     0.00000310     -5732.6390305095 -5.06E-06
   158 OT SD       0.10E+00   30.9     0.00000469     -5732.6390340222 -3.51E-06
   159 OT SD       0.10E+00   30.8     0.00000860     -5732.6390310311  2.99E-06
   160 OT DIIS     0.10E+00   30.9     0.00001716     -5732.6390003552  3.07E-05
   161 OT SD       0.10E+00   30.9     0.00000234     -5732.6389791974  2.12E-05
   162 OT DIIS     0.10E+00   30.9     0.00000234     -5732.6389847003 -5.50E-06
   163 OT SD       0.10E+00   31.0     0.00000235     -5732.6389984635 -1.38E-05
   164 OT SD       0.10E+00   31.0     0.00000235     -5732.6390039871 -5.52E-06
   165 OT SD       0.10E+00   30.9     0.00000237     -5732.6390094929 -5.51E-06
   166 OT SD       0.10E+00   30.9     0.00000243     -5732.6390149689 -5.48E-06
   167 OT SD       0.10E+00   30.9     0.00000269     -5732.6390202958 -5.33E-06
   168 OT SD       0.10E+00   31.0     0.00000357     -5732.6390249484 -4.65E-06
   169 OT SD       0.10E+00   31.0     0.00000602     -5732.6390266680 -1.72E-06
   170 OT SD       0.10E+00   31.0     0.00001172     -5732.6390157089  1.10E-05
   171 OT DIIS     0.10E+00   30.9     0.00002394     -5732.6389499424  6.58E-05
   172 OT DIIS     0.10E+00   31.0     0.00000233     -5732.6389851473 -3.52E-05
   173 OT DIIS     0.10E+00   31.0     0.00000233     -5732.6389973861 -1.22E-05
   174 OT SD       0.10E+00   30.9     0.00000233     -5732.6390065322 -9.15E-06
   175 OT SD       0.10E+00   30.9     0.00000234     -5732.6390120060 -5.47E-06
   176 OT SD       0.10E+00   30.9     0.00000235     -5732.6390174764 -5.47E-06
   177 OT SD       0.10E+00   30.9     0.00000240     -5732.6390229251 -5.45E-06
   178 OT SD       0.10E+00   30.9     0.00000257     -5732.6390282714 -5.35E-06
   179 OT SD       0.10E+00   31.0     0.00000320     -5732.6390331747 -4.90E-06
   180 OT SD       0.10E+00   31.0     0.00000503     -5732.6390361934 -3.02E-06

  Leaving inner SCF loop after reaching   180 steps.


  Electronic density on regular grids:      -2111.9999999915        0.0000000085
  Core density on regular grids:             2111.9999999992       -0.0000000008
  Total charge density on r-space grids:        0.0000000077
  Total charge density g-space grids:           0.0000000077

  Overlap energy of the core charge distribution:               0.00000746064565
  Self energy of the core charge distribution:             -14063.09528692122331
  Core Hamiltonian energy:                                   3716.36375612529173
  Hartree energy:                                            5743.81639231859663
  Exchange-correlation energy:                              -1129.21189864646135
  Dispersion energy:                                           -0.51200653027705

  Total energy:                                             -5732.63903619342727

  outer SCF iter =    5 RMS gradient =   0.50E-05 energy =      -5732.6390361934

  ----------------------------------- OT ---------------------------------------
  Minimizer      : DIIS                : direct inversion
                                         in the iterative subspace
                                         using   7 DIIS vectors
                                         safer DIIS on
  Preconditioner : FULL_SINGLE_INVERSE : inversion of 
                                         H + eS - 2*(Sc)(c^T*H*c+const)(Sc)^T
  Precond_solver : INVERSE_UPDATE
  stepsize       :    0.10000000                  energy_gap     :    0.10000000
  eps_taylor     :   0.10000E-15                  max_taylor     :             4
  ----------------------------------- OT ---------------------------------------

  Step     Update method      Time    Convergence         Total energy    Change
  ------------------------------------------------------------------------------


     Lanczos converged:  T threshold:   0.100E-02
     Est. extremal eigenvalues:    0.103E+01   0.856E+00
     Est. condition number :    0.121E+01
     Hotelling iter   1 1.00000000   0.192E-01       1.500   272255.389



     Lanczos converged:  T threshold:   0.100E-02
     Est. extremal eigenvalues:    0.103E+01   0.864E+00
     Est. condition number :    0.120E+01
     Hotelling iter   1 1.00000000   0.181E-01       1.652   247665.133

     1 OT DIIS     0.10E+00   82.4     0.00000952     -5732.6390311617  5.03E-06
     2 OT DIIS     0.10E+00   30.8     0.00001947     -5732.6389899553  4.12E-05
     3 OT DIIS     0.10E+00   31.1     0.00000242     -5732.6390525262 -6.26E-05
     4 OT SD       0.10E+00   31.3     0.00000238     -5732.6390543713 -1.85E-06
     5 OT SD       0.10E+00   31.2     0.00000239     -5732.6390601063 -5.74E-06
     6 OT SD       0.10E+00   31.2     0.00000239     -5732.6390658601 -5.75E-06
     7 OT SD       0.10E+00   31.1     0.00000240     -5732.6390716344 -5.77E-06
     8 OT SD       0.10E+00   31.5     0.00000243     -5732.6390774268 -5.79E-06
     9 OT SD       0.10E+00   31.4     0.00000250     -5732.6390832156 -5.79E-06
    10 OT SD       0.10E+00   31.3     0.00000273     -5732.6390889023 -5.69E-06
    11 OT SD       0.10E+00   31.2     0.00000345     -5732.6390940848 -5.18E-06
    12 OT SD       0.10E+00   31.4     0.00000542     -5732.6390971529 -3.07E-06
    13 OT SD       0.10E+00   31.3     0.00000993     -5732.6390916215  5.53E-06
    14 OT SD       0.10E+00   31.3     0.00001946     -5732.6390510323  4.06E-05
    15 OT DIIS     0.10E+00   31.4     0.00003913     -5732.6388658124  1.85E-04
    16 OT DIIS     0.10E+00   31.6     0.00000236     -5732.6389941394 -1.28E-04
    17 OT SD       0.10E+00   31.4     0.00000236     -5732.6389976694 -3.53E-06
    18 OT SD       0.10E+00   31.2     0.00000237     -5732.6390032692 -5.60E-06
    19 OT SD       0.10E+00   31.3     0.00000242     -5732.6390088390 -5.57E-06
    20 OT SD       0.10E+00   31.4     0.00000262     -5732.6390142846 -5.45E-06
    21 OT SD       0.10E+00   31.3     0.00000336     -5732.6390191828 -4.90E-06
    22 OT SD       0.10E+00   31.2     0.00000550     -5732.6390216940 -2.51E-06
    23 OT SD       0.10E+00   31.1     0.00001065     -5732.6390137516  7.94E-06
    24 OT DIIS     0.10E+00   31.3     0.00002186     -5732.6389599706  5.38E-05
    25 OT SD       0.10E+00   31.4     0.00000236     -5732.6389964230 -3.65E-05
    26 OT DIIS     0.10E+00   31.3     0.00000236     -5732.6390020073 -5.58E-06
    27 OT SD       0.10E+00   31.2     0.00000235     -5732.6390111533 -9.15E-06
    28 OT SD       0.10E+00   31.4     0.00000236     -5732.6390167094 -5.56E-06
    29 OT SD       0.10E+00   31.3     0.00000241     -5732.6390222447 -5.54E-06
    30 OT SD       0.10E+00   31.3     0.00000258     -5732.6390276790 -5.43E-06
    31 OT SD       0.10E+00   31.2     0.00000323     -5732.6390326532 -4.97E-06
    32 OT SD       0.10E+00   31.6     0.00000518     -5732.6390355842 -2.93E-06
    33 OT SD       0.10E+00   31.4     0.00000994     -5732.6390294869  6.10E-06
    34 OT DIIS     0.10E+00   31.2     0.00002044     -5732.6389833647  4.61E-05
    35 OT SD       0.10E+00   31.3     0.00000234     -5732.6390046081 -2.12E-05
    36 OT DIIS     0.10E+00   31.3     0.00000234     -5732.6390101368 -5.53E-06
    37 OT SD       0.10E+00   31.3     0.00000234     -5732.6390244620 -1.43E-05
    38 OT SD       0.10E+00   31.2     0.00000235     -5732.6390299919 -5.53E-06
    39 OT SD       0.10E+00   31.1     0.00000235     -5732.6390355208 -5.53E-06
    40 OT SD       0.10E+00   31.3     0.00000239     -5732.6390410349 -5.51E-06
    41 OT SD       0.10E+00   31.3     0.00000253     -5732.6390464687 -5.43E-06
    42 OT SD       0.10E+00   31.2     0.00000307     -5732.6390515333 -5.06E-06
    43 OT SD       0.10E+00   31.2     0.00000474     -5732.6390549706 -3.44E-06
    44 OT SD       0.10E+00   31.3     0.00000890     -5732.6390512824  3.69E-06
    45 OT DIIS     0.10E+00   31.4     0.00001810     -5732.6390163852  3.49E-05
    46 OT DIIS     0.10E+00   31.2     0.00000234     -5732.6390063690  1.00E-05
    47 OT DIIS     0.10E+00   31.3     0.00000233     -5732.6390099023 -3.53E-06
    48 OT SD       0.10E+00   31.5     0.00000234     -5732.6390267081 -1.68E-05
    49 OT SD       0.10E+00   31.4     0.00000234     -5732.6390322128 -5.50E-06
    50 OT SD       0.10E+00   31.3     0.00000237     -5732.6390377104 -5.50E-06
    51 OT SD       0.10E+00   31.1     0.00000245     -5732.6390431679 -5.46E-06
    52 OT SD       0.10E+00   31.2     0.00000278     -5732.6390484225 -5.25E-06
    53 OT SD       0.10E+00   31.2     0.00000390     -5732.6390527579 -4.34E-06
    54 OT SD       0.10E+00   31.3     0.00000691     -5732.6390530264 -2.68E-07
    55 OT DIIS     0.10E+00   31.1     0.00001382     -5732.6390353393  1.77E-05
    56 OT SD       0.10E+00   31.4     0.00000233     -5732.6390106789  2.47E-05
    57 OT DIIS     0.10E+00   31.3     0.00000233     -5732.6390161449 -5.47E-06
    58 OT SD       0.10E+00   31.3     0.00000233     -5732.6390357946 -1.96E-05
    59 OT SD       0.10E+00   31.1     0.00000233     -5732.6390412735 -5.48E-06
    60 OT SD       0.10E+00   31.3     0.00000234     -5732.6390467524 -5.48E-06
    61 OT SD       0.10E+00   31.3     0.00000235     -5732.6390522310 -5.48E-06
    62 OT SD       0.10E+00   31.3     0.00000241     -5732.6390576861 -5.46E-06
    63 OT SD       0.10E+00   31.3     0.00000263     -5732.6390630143 -5.33E-06
    64 OT SD       0.10E+00   31.6     0.00000341     -5732.6390677673 -4.75E-06
    65 OT SD       0.10E+00   31.4     0.00000563     -5732.6390700124 -2.25E-06
    66 OT SD       0.10E+00   31.3     0.00001087     -5732.6390613923  8.62E-06
    67 OT DIIS     0.10E+00   31.1     0.00002221     -5732.6390056295  5.58E-05
    68 OT SD       0.10E+00   31.3     0.00000232     -5732.6390061544 -5.25E-07
    69 OT SD       0.10E+00   31.4     0.00000232     -5732.6390115900 -5.44E-06
    70 OT SD       0.10E+00   31.3     0.00000232     -5732.6390170244 -5.43E-06
    71 OT SD       0.10E+00   31.2     0.00000232     -5732.6390224598 -5.44E-06
    72 OT SD       0.10E+00   31.4     0.00000232     -5732.6390278971 -5.44E-06
    73 OT SD       0.10E+00   31.4     0.00000233     -5732.6390333358 -5.44E-06
    74 OT SD       0.10E+00   31.3     0.00000234     -5732.6390387713 -5.44E-06
    75 OT SD       0.10E+00   31.2     0.00000240     -5732.6390441802 -5.41E-06
    76 OT SD       0.10E+00   31.3     0.00000262     -5732.6390494551 -5.27E-06
    77 OT SD       0.10E+00   31.3     0.00000344     -5732.6390541136 -4.66E-06
    78 OT SD       0.10E+00   31.4     0.00000584     -5732.6390559948 -1.88E-06
    79 OT SD       0.10E+00   31.3     0.00001156     -5732.6390453959  1.06E-05
    80 OT DIIS     0.10E+00   31.6     0.00002409     -5732.6389786734  6.67E-05
    81 OT SD       0.10E+00   31.5     0.00000232     -5732.6390132009 -3.45E-05
    82 OT DIIS     0.10E+00   31.3     0.00000232     -5732.6390186130 -5.41E-06
    83 OT SD       0.10E+00   31.1     0.00000232     -5732.6390298607 -1.12E-05
    84 OT SD       0.10E+00   31.3     0.00000233     -5732.6390352753 -5.41E-06
    85 OT SD       0.10E+00   31.3     0.00000234     -5732.6390406850 -5.41E-06
    86 OT SD       0.10E+00   31.2     0.00000241     -5732.6390460641 -5.38E-06
    87 OT SD       0.10E+00   31.2     0.00000267     -5732.6390512927 -5.23E-06
    88 OT SD       0.10E+00   31.4     0.00000352     -5732.6390558752 -4.58E-06
    89 OT SD       0.10E+00   31.4     0.00000584     -5732.6390577507 -1.88E-06
    90 OT SD       0.10E+00   31.3     0.00001115     -5732.6390483054  9.45E-06
    91 OT DIIS     0.10E+00   31.3     0.00002244     -5732.6389912187  5.71E-05
    92 OT DIIS     0.10E+00   31.3     0.00000231     -5732.6390145024 -2.33E-05
    93 OT DIIS     0.10E+00   31.3     0.00000231     -5732.6390230717 -8.57E-06
    94 OT SD       0.10E+00   31.3     0.00000233     -5732.6390490758 -2.60E-05
    95 OT SD       0.10E+00   31.3     0.00000233     -5732.6390544813 -5.41E-06
    96 OT SD       0.10E+00   31.6     0.00000236     -5732.6390598605 -5.38E-06
    97 OT SD       0.10E+00   31.4     0.00000248     -5732.6390651765 -5.32E-06
    98 OT SD       0.10E+00   31.3     0.00000294     -5732.6390701883 -5.01E-06
    99 OT SD       0.10E+00   31.3     0.00000444     -5732.6390738243 -3.64E-06
   100 OT SD       0.10E+00   31.3     0.00000831     -5732.6390712694  2.55E-06
   101 OT DIIS     0.10E+00   31.3     0.00001704     -5732.6390409444  3.03E-05
   102 OT SD       0.10E+00   31.2     0.00000230     -5732.6390197838  2.12E-05
   103 OT DIIS     0.10E+00   31.2     0.00000230     -5732.6390251325 -5.35E-06
   104 OT SD       0.10E+00   31.3     0.00000231     -5732.6390357537 -1.06E-05
   105 OT SD       0.10E+00   31.4     0.00000231     -5732.6390411218 -5.37E-06
   106 OT SD       0.10E+00   31.3     0.00000231     -5732.6390464872 -5.37E-06
   107 OT SD       0.10E+00   31.3     0.00000232     -5732.6390518590 -5.37E-06
   108 OT SD       0.10E+00   31.4     0.00000235     -5732.6390572277 -5.37E-06
   109 OT SD       0.10E+00   31.3     0.00000245     -5732.6390625556 -5.33E-06
   110 OT SD       0.10E+00   31.4     0.00000281     -5732.6390676676 -5.11E-06
   111 OT SD       0.10E+00   31.3     0.00000396     -5732.6390718382 -4.17E-06
   112 OT SD       0.10E+00   31.6     0.00000694     -5732.6390719619 -1.24E-07
   113 OT SD       0.10E+00   31.5     0.00001366     -5732.6390547386  1.72E-05
   114 OT DIIS     0.10E+00   31.2     0.00002801     -5732.6389624877  9.23E-05
   115 OT DIIS     0.10E+00   31.2     0.00000230     -5732.6390162477 -5.38E-05
   116 OT SD       0.10E+00   31.3     0.00000230     -5732.6390189221 -2.67E-06
   117 OT SD       0.10E+00   31.3     0.00000230     -5732.6390242385 -5.32E-06
   118 OT SD       0.10E+00   31.2     0.00000230     -5732.6390295539 -5.32E-06
   119 OT SD       0.10E+00   31.2     0.00000231     -5732.6390348636 -5.31E-06
   120 OT SD       0.10E+00   31.3     0.00000237     -5732.6390401456 -5.28E-06
   121 OT SD       0.10E+00   31.4     0.00000258     -5732.6390453002 -5.15E-06
   122 OT SD       0.10E+00   31.3     0.00000333     -5732.6390499011 -4.60E-06
   123 OT SD       0.10E+00   31.2     0.00000550     -5732.6390521032 -2.20E-06
   124 OT SD       0.10E+00   31.4     0.00001061     -5732.6390439382  8.17E-06
   125 OT DIIS     0.10E+00   31.4     0.00002167     -5732.6389908518  5.31E-05
   126 OT SD       0.10E+00   31.3     0.00000230     -5732.6390202021 -2.94E-05
   127 OT DIIS     0.10E+00   31.3     0.00000229     -5732.6390254910 -5.29E-06
   128 OT SD       0.10E+00   31.7     0.00000229     -5732.6390321634 -6.67E-06
   129 OT SD       0.10E+00   31.5     0.00000229     -5732.6390374390 -5.28E-06
   130 OT SD       0.10E+00   31.4     0.00000231     -5732.6390427161 -5.28E-06
   131 OT SD       0.10E+00   31.2     0.00000237     -5732.6390479733 -5.26E-06
   132 OT SD       0.10E+00   31.3     0.00000258     -5732.6390531189 -5.15E-06
   133 OT SD       0.10E+00   31.3     0.00000331     -5732.6390577440 -4.63E-06
   134 OT SD       0.10E+00   31.3     0.00000541     -5732.6390601014 -2.36E-06
   135 OT SD       0.10E+00   31.2     0.00001039     -5732.6390526001  7.50E-06
   136 OT DIIS     0.10E+00   31.4     0.00002123     -5732.6390021212  5.05E-05
   137 OT DIIS     0.10E+00   31.4     0.00000228     -5732.6390251043 -2.30E-05
   138 OT DIIS     0.10E+00   31.4     0.00000228     -5732.6390300186 -4.91E-06
   139 OT SD       0.10E+00   31.3     0.00000228     -5732.6390540086 -2.40E-05
   140 OT SD       0.10E+00   31.4     0.00000228     -5732.6390592543 -5.25E-06
   141 OT SD       0.10E+00   31.3     0.00000230     -5732.6390644951 -5.24E-06
   142 OT SD       0.10E+00   31.4     0.00000234     -5732.6390697157 -5.22E-06
   143 OT SD       0.10E+00   31.3     0.00000253     -5732.6390748292 -5.11E-06
   144 OT SD       0.10E+00   31.6     0.00000322     -5732.6390794576 -4.63E-06
   145 OT SD       0.10E+00   31.4     0.00000523     -5732.6390819541 -2.50E-06
   146 OT SD       0.10E+00   31.3     0.00001007     -5732.6390751501  6.80E-06
   147 OT DIIS     0.10E+00   31.3     0.00002060     -5732.6390277506  4.74E-05
   148 OT DIIS     0.10E+00   31.4     0.00000227     -5732.6390221387  5.61E-06
   149 OT DIIS     0.10E+00   31.4     0.00000227     -5732.6390256789 -3.54E-06
   150 OT DIIS     0.10E+00   31.2     0.00000228     -5732.6390356860 -1.00E-05
   151 OT SD       0.10E+00   31.2     0.00000228     -5732.6390368391 -1.15E-06
   152 OT SD       0.10E+00   31.4     0.00000228     -5732.6390420531 -5.21E-06
   153 OT SD       0.10E+00   31.4     0.00000230     -5732.6390472630 -5.21E-06
   154 OT SD       0.10E+00   31.4     0.00000236     -5732.6390524484 -5.19E-06
   155 OT SD       0.10E+00   31.2     0.00000261     -5732.6390574992 -5.05E-06
   156 OT SD       0.10E+00   31.5     0.00000347     -5732.6390619128 -4.41E-06
   157 OT SD       0.10E+00   31.3     0.00000591     -5732.6390634770 -1.56E-06
   158 OT SD       0.10E+00   31.5     0.00001167     -5732.6390523654  1.11E-05
   159 OT DIIS     0.10E+00   31.2     0.00002420     -5732.6389848367  6.75E-05
   160 OT DIIS     0.10E+00   31.6     0.00000227     -5732.6390289903 -4.42E-05
   161 OT DIIS     0.10E+00   31.5     0.00000226     -5732.6390409351 -1.19E-05
   162 OT SD       0.10E+00   31.3     0.00000227     -5732.6390493947 -8.46E-06
   163 OT SD       0.10E+00   31.3     0.00000227     -5732.6390545691 -5.17E-06
   164 OT SD       0.10E+00   31.3     0.00000227     -5732.6390597447 -5.18E-06
   165 OT SD       0.10E+00   31.3     0.00000229     -5732.6390649148 -5.17E-06
   166 OT SD       0.10E+00   31.3     0.00000237     -5732.6390700474 -5.13E-06
   167 OT SD       0.10E+00   31.2     0.00000266     -5732.6390750016 -4.95E-06
   168 OT SD       0.10E+00   31.4     0.00000366     -5732.6390791717 -4.17E-06
   169 OT SD       0.10E+00   31.4     0.00000636     -5732.6390799458 -7.74E-07
   170 OT SD       0.10E+00   31.4     0.00001254     -5732.6390660323  1.39E-05
   171 OT DIIS     0.10E+00   31.2     0.00002576     -5732.6389884511  7.76E-05
   172 OT SD       0.10E+00   31.4     0.00000226     -5732.6390251553 -3.67E-05
   173 OT DIIS     0.10E+00   31.3     0.00000226     -5732.6390302986 -5.14E-06
   174 OT SD       0.10E+00   31.4     0.00000227     -5732.6390378415 -7.54E-06
   175 OT SD       0.10E+00   31.3     0.00000227     -5732.6390430043 -5.16E-06
   176 OT SD       0.10E+00   31.5     0.00000228     -5732.6390481504 -5.15E-06
   177 OT SD       0.10E+00   31.5     0.00000232     -5732.6390532780 -5.13E-06
   178 OT SD       0.10E+00   31.3     0.00000251     -5732.6390583068 -5.03E-06
   179 OT SD       0.10E+00   31.3     0.00000318     -5732.6390628762 -4.57E-06
   180 OT SD       0.10E+00   31.3     0.00000514     -5732.6390654111 -2.53E-06

  Leaving inner SCF loop after reaching   180 steps.


  Electronic density on regular grids:      -2111.9999999915        0.0000000085
  Core density on regular grids:             2111.9999999992       -0.0000000008
  Total charge density on r-space grids:        0.0000000077
  Total charge density g-space grids:           0.0000000077

  Overlap energy of the core charge distribution:               0.00000746064565
  Self energy of the core charge distribution:             -14063.09528692122331
  Core Hamiltonian energy:                                   3716.36358990953613
  Hartree energy:                                            5743.81646576913045
  Exchange-correlation energy:                              -1129.21183509895650
  Dispersion energy:                                           -0.51200653027705

  Total energy:                                             -5732.63906541114466

  outer SCF iter =    6 RMS gradient =   0.51E-05 energy =      -5732.6390654111

  ----------------------------------- OT ---------------------------------------
  Minimizer      : DIIS                : direct inversion
                                         in the iterative subspace
                                         using   7 DIIS vectors
                                         safer DIIS on
  Preconditioner : FULL_SINGLE_INVERSE : inversion of 
                                         H + eS - 2*(Sc)(c^T*H*c+const)(Sc)^T
  Precond_solver : INVERSE_UPDATE
  stepsize       :    0.10000000                  energy_gap     :    0.10000000
  eps_taylor     :   0.10000E-15                  max_taylor     :             4
  ----------------------------------- OT ---------------------------------------

  Step     Update method      Time    Convergence         Total energy    Change
  ------------------------------------------------------------------------------


     Lanczos converged:  T threshold:   0.100E-02
     Est. extremal eigenvalues:    0.104E+01   0.943E+00
     Est. condition number :    0.110E+01
     Hotelling iter   1 1.00000000   0.928E-02       1.552   275934.951



     Lanczos converged:  T threshold:   0.100E-02
     Est. extremal eigenvalues:    0.104E+01   0.953E+00
     Est. condition number :    0.109E+01
     Hotelling iter   1 1.00000000   0.840E-02       1.724   248542.091

     1 OT DIIS     0.10E+00   82.5     0.00000989     -5732.6390590001  6.41E-06
     2 OT DIIS     0.10E+00   30.9     0.00002023     -5732.6390135096  4.55E-05
     3 OT DIIS     0.10E+00   31.1     0.00000235     -5732.6390810668 -6.76E-05
     4 OT SD       0.10E+00   31.4     0.00000230     -5732.6390827346 -1.67E-06
     5 OT SD       0.10E+00   31.3     0.00000231     -5732.6390880695 -5.33E-06
     6 OT SD       0.10E+00   31.3     0.00000233     -5732.6390934563 -5.39E-06
     7 OT SD       0.10E+00   31.3     0.00000237     -5732.6390989009 -5.44E-06
     8 OT SD       0.10E+00   31.4     0.00000246     -5732.6391043888 -5.49E-06
     9 OT SD       0.10E+00   31.5     0.00000275     -5732.6391098147 -5.43E-06
    10 OT SD       0.10E+00   31.5     0.00000363     -5732.6391146944 -4.88E-06
    11 OT SD       0.10E+00   31.4     0.00000596     -5732.6391169768 -2.28E-06
    12 OT SD       0.10E+00   31.6     0.00001126     -5732.6391080762  8.90E-06
    13 OT DIIS     0.10E+00   31.6     0.00002251     -5732.6390518006  5.63E-05
    14 OT DIIS     0.10E+00   31.4     0.00000225     -5732.6390204663  3.13E-05
    15 OT SD       0.10E+00   31.3     0.00000225     -5732.6390224945 -2.03E-06
    16 OT SD       0.10E+00   31.6     0.00000225     -5732.6390275918 -5.10E-06
    17 OT DIIS     0.10E+00   31.5     0.00000225     -5732.6390326850 -5.09E-06
    18 OT DIIS     0.10E+00   31.2     0.00000225     -5732.6390335729 -8.88E-07
    19 OT SD       0.10E+00   31.3     0.00000225     -5732.6390423929 -8.82E-06
    20 OT SD       0.10E+00   31.4     0.00000225     -5732.6390474890 -5.10E-06
    21 OT SD       0.10E+00   31.3     0.00000225     -5732.6390525865 -5.10E-06
    22 OT SD       0.10E+00   31.2     0.00000226     -5732.6390576836 -5.10E-06
    23 OT SD       0.10E+00   31.2     0.00000228     -5732.6390627714 -5.09E-06
    24 OT SD       0.10E+00   31.2     0.00000238     -5732.6390678082 -5.04E-06
    25 OT SD       0.10E+00   31.3     0.00000274     -5732.6390726158 -4.81E-06
    26 OT SD       0.10E+00   31.3     0.00000394     -5732.6390764249 -3.81E-06
    27 OT SD       0.10E+00   31.2     0.00000706     -5732.6390759246  5.00E-07
    28 OT DIIS     0.10E+00   31.5     0.00001407     -5732.6390568074  1.91E-05
    29 OT SD       0.10E+00   31.6     0.00000225     -5732.6390385842  1.82E-05
    30 OT DIIS     0.10E+00   31.4     0.00000224     -5732.6390436536 -5.07E-06
    31 OT SD       0.10E+00   31.3     0.00000224     -5732.6390537668 -1.01E-05
    32 OT SD       0.10E+00   31.5     0.00000225     -5732.6390588361 -5.07E-06
    33 OT SD       0.10E+00   31.4     0.00000225     -5732.6390639132 -5.08E-06
    34 OT SD       0.10E+00   31.2     0.00000227     -5732.6390689944 -5.08E-06
    35 OT SD       0.10E+00   31.2     0.00000235     -5732.6390740493 -5.05E-06
    36 OT SD       0.10E+00   31.3     0.00000266     -5732.6390789412 -4.89E-06
    37 OT SD       0.10E+00   31.2     0.00000366     -5732.6390830663 -4.13E-06
    38 OT SD       0.10E+00   31.2     0.00000637     -5732.6390838104 -7.44E-07
    39 OT SD       0.10E+00   31.2     0.00001258     -5732.6390698274  1.40E-05
    40 OT DIIS     0.10E+00   31.4     0.00002585     -5732.6389917506  7.81E-05
    41 OT DIIS     0.10E+00   31.4     0.00000223     -5732.6390381341 -4.64E-05
    42 OT SD       0.10E+00   31.4     0.00000223     -5732.6390392243 -1.09E-06
    43 OT SD       0.10E+00   31.3     0.00000223     -5732.6390442454 -5.02E-06
    44 OT SD       0.10E+00   31.6     0.00000223     -5732.6390492668 -5.02E-06
    45 OT SD       0.10E+00   31.5     0.00000223     -5732.6390542894 -5.02E-06
    46 OT SD       0.10E+00   31.3     0.00000224     -5732.6390593135 -5.02E-06
    47 OT SD       0.10E+00   31.3     0.00000224     -5732.6390643378 -5.02E-06
    48 OT SD       0.10E+00   31.5     0.00000226     -5732.6390693556 -5.02E-06
    49 OT SD       0.10E+00   31.4     0.00000234     -5732.6390743345 -4.98E-06
    50 OT SD       0.10E+00   31.3     0.00000263     -5732.6390791338 -4.80E-06
    51 OT SD       0.10E+00   31.3     0.00000365     -5732.6390831346 -4.00E-06
    52 OT SD       0.10E+00   31.4     0.00000643     -5732.6390836252 -4.91E-07
    53 OT SD       0.10E+00   31.3     0.00001282     -5732.6390686693  1.50E-05
    54 OT DIIS     0.10E+00   31.3     0.00002657     -5732.6389855969  8.31E-05
    55 OT SD       0.10E+00   31.2     0.00000223     -5732.6390370868 -5.15E-05
    56 OT DIIS     0.10E+00   31.4     0.00000223     -5732.6390420829 -5.00E-06
    57 OT SD       0.10E+00   31.3     0.00000223     -5732.6390480752 -5.99E-06
    58 OT SD       0.10E+00   31.4     0.00000223     -5732.6390530620 -4.99E-06
    59 OT SD       0.10E+00   31.3     0.00000225     -5732.6390580493 -4.99E-06
    60 OT SD       0.10E+00   31.5     0.00000231     -5732.6390630191 -4.97E-06
    61 OT SD       0.10E+00   31.5     0.00000251     -5732.6390678883 -4.87E-06
    62 OT SD       0.10E+00   31.4     0.00000317     -5732.6390723100 -4.42E-06
    63 OT SD       0.10E+00   31.3     0.00000500     -5732.6390748894 -2.58E-06
    64 OT SD       0.10E+00   31.6     0.00000922     -5732.6390699571  4.93E-06
    65 OT DIIS     0.10E+00   31.5     0.00001815     -5732.6390343540  3.56E-05
    66 OT DIIS     0.10E+00   31.3     0.00000221     -5732.6390462616 -1.19E-05
    67 OT DIIS     0.10E+00   31.2     0.00000221     -5732.6390563748 -1.01E-05
    68 OT SD       0.10E+00   31.4     0.00000222     -5732.6390717307 -1.54E-05
    69 OT SD       0.10E+00   31.3     0.00000222     -5732.6390766781 -4.95E-06
    70 OT SD       0.10E+00   31.3     0.00000222     -5732.6390816291 -4.95E-06
    71 OT SD       0.10E+00   31.2     0.00000222     -5732.6390865844 -4.96E-06
    72 OT SD       0.10E+00   31.4     0.00000223     -5732.6390915421 -4.96E-06
    73 OT SD       0.10E+00   31.5     0.00000226     -5732.6390964909 -4.95E-06
    74 OT SD       0.10E+00   31.5     0.00000238     -5732.6391013782 -4.89E-06
    75 OT SD       0.10E+00   31.3     0.00000285     -5732.6391059678 -4.59E-06
    76 OT SD       0.10E+00   31.6     0.00000435     -5732.6391092075 -3.24E-06
    77 OT SD       0.10E+00   31.6     0.00000819     -5732.6391064078  2.80E-06
    78 OT DIIS     0.10E+00   31.4     0.00001679     -5732.6390766352  2.98E-05
    79 OT DIIS     0.10E+00   31.3     0.00000221     -5732.6390398891  3.67E-05
    80 OT DIIS     0.10E+00   31.7     0.00000221     -5732.6390407406 -8.51E-07
    81 OT SD       0.10E+00   31.6     0.00000224     -5732.6390436977 -2.96E-06
    82 OT SD       0.10E+00   31.3     0.00000221     -5732.6390486549 -4.96E-06
    83 OT SD       0.10E+00   31.2     0.00000221     -5732.6390535678 -4.91E-06
    84 OT SD       0.10E+00   31.4     0.00000222     -5732.6390584793 -4.91E-06
    85 OT SD       0.10E+00   31.3     0.00000223     -5732.6390633927 -4.91E-06
    86 OT SD       0.10E+00   31.3     0.00000228     -5732.6390682914 -4.90E-06
    87 OT SD       0.10E+00   31.2     0.00000244     -5732.6390731145 -4.82E-06
    88 OT SD       0.10E+00   31.3     0.00000298     -5732.6390775881 -4.47E-06
    89 OT SD       0.10E+00   31.4     0.00000455     -5732.6390806011 -3.01E-06
    90 OT SD       0.10E+00   31.4     0.00000835     -5732.6390774928  3.11E-06
    91 OT DIIS     0.10E+00   31.4     0.00001655     -5732.6390487613  2.87E-05
    92 OT DIIS     0.10E+00   31.5     0.00000220     -5732.6390506537 -1.89E-06
    93 OT DIIS     0.10E+00   31.5     0.00000220     -5732.6390578992 -7.25E-06
    94 OT SD       0.10E+00   31.3     0.00000220     -5732.6390735108 -1.56E-05
    95 OT SD       0.10E+00   31.3     0.00000220     -5732.6390783936 -4.88E-06
    96 OT SD       0.10E+00   31.6     0.00000220     -5732.6390832796 -4.89E-06
    97 OT SD       0.10E+00   31.5     0.00000221     -5732.6390881701 -4.89E-06
    98 OT SD       0.10E+00   31.4     0.00000221     -5732.6390930636 -4.89E-06
    99 OT SD       0.10E+00   31.3     0.00000223     -5732.6390979521 -4.89E-06
   100 OT SD       0.10E+00   31.4     0.00000232     -5732.6391027977 -4.85E-06
   101 OT SD       0.10E+00   31.4     0.00000267     -5732.6391074359 -4.64E-06
   102 OT SD       0.10E+00   31.4     0.00000381     -5732.6391111530 -3.72E-06
   103 OT SD       0.10E+00   31.3     0.00000682     -5732.6391108576  2.95E-07
   104 OT SD       0.10E+00   31.3     0.00001362     -5732.6390931147  1.77E-05
   105 OT DIIS     0.10E+00   31.4     0.00002810     -5732.6389993713  9.37E-05
   106 OT DIIS     0.10E+00   31.3     0.00000220     -5732.6390435116 -4.41E-05
   107 OT SD       0.10E+00   31.4     0.00000219     -5732.6390457454 -2.23E-06
   108 OT SD       0.10E+00   31.5     0.00000219     -5732.6390505890 -4.84E-06
   109 OT SD       0.10E+00   31.6     0.00000219     -5732.6390554327 -4.84E-06
   110 OT SD       0.10E+00   31.3     0.00000220     -5732.6390602758 -4.84E-06
   111 OT SD       0.10E+00   31.4     0.00000223     -5732.6390651092 -4.83E-06
   112 OT SD       0.10E+00   31.5     0.00000233     -5732.6390698905 -4.78E-06
   113 OT SD       0.10E+00   31.4     0.00000272     -5732.6390744321 -4.54E-06
   114 OT SD       0.10E+00   31.3     0.00000399     -5732.6390779108 -3.48E-06
   115 OT SD       0.10E+00   31.3     0.00000729     -5732.6390767167  1.19E-06
   116 OT DIIS     0.10E+00   31.4     0.00001473     -5732.6390549599  2.18E-05
   117 OT DIIS     0.10E+00   31.5     0.00000219     -5732.6390571018 -2.14E-06
   118 OT DIIS     0.10E+00   31.3     0.00000219     -5732.6390579921 -8.90E-07
   119 OT SD       0.10E+00   31.2     0.00000219     -5732.6390746506 -1.67E-05
   120 OT SD       0.10E+00   31.3     0.00000219     -5732.6390794749 -4.82E-06
   121 OT SD       0.10E+00   31.5     0.00000220     -5732.6390843003 -4.83E-06
   122 OT SD       0.10E+00   31.4     0.00000223     -5732.6390891158 -4.82E-06
   123 OT SD       0.10E+00   31.3     0.00000235     -5732.6390938724 -4.76E-06
   124 OT SD       0.10E+00   31.5     0.00000278     -5732.6390983574 -4.49E-06
   125 OT SD       0.10E+00   31.5     0.00000415     -5732.6391016643 -3.31E-06
   126 OT SD       0.10E+00   31.4     0.00000759     -5732.6390999100  1.75E-06
   127 OT DIIS     0.10E+00   31.4     0.00001519     -5732.6390764050  2.35E-05
   128 OT SD       0.10E+00   31.6     0.00000218     -5732.6390521719  2.42E-05
   129 OT DIIS     0.10E+00   31.5     0.00000218     -5732.6390569673 -4.80E-06
   130 OT SD       0.10E+00   31.3     0.00000220     -5732.6390660036 -9.04E-06
   131 OT SD       0.10E+00   31.3     0.00000219     -5732.6390708301 -4.83E-06
   132 OT SD       0.10E+00   31.4     0.00000221     -5732.6390756232 -4.79E-06
   133 OT SD       0.10E+00   31.4     0.00000229     -5732.6390803731 -4.75E-06
   134 OT SD       0.10E+00   31.3     0.00000261     -5732.6390849341 -4.56E-06
   135 OT SD       0.10E+00   31.3     0.00000368     -5732.6390886608 -3.73E-06
   136 OT SD       0.10E+00   31.3     0.00000652     -5732.6390887628 -1.02E-07
   137 OT DIIS     0.10E+00   31.4     0.00001297     -5732.6390730843  1.57E-05
   138 OT DIIS     0.10E+00   31.4     0.00000218     -5732.6390535013  1.96E-05
   139 OT DIIS     0.10E+00   31.3     0.00000218     -5732.6390565764 -3.08E-06
   140 OT SD       0.10E+00   31.5     0.00000218     -5732.6390721942 -1.56E-05
   141 OT SD       0.10E+00   31.5     0.00000218     -5732.6390769718 -4.78E-06
   142 OT SD       0.10E+00   31.5     0.00000219     -5732.6390817444 -4.77E-06
   143 OT SD       0.10E+00   31.4     0.00000224     -5732.6390864954 -4.75E-06
   144 OT SD       0.10E+00   31.6     0.00000243     -5732.6390911433 -4.65E-06
   145 OT SD       0.10E+00   31.5     0.00000310     -5732.6390953370 -4.19E-06
   146 OT SD       0.10E+00   31.4     0.00000501     -5732.6390975864 -2.25E-06
   147 OT SD       0.10E+00   31.4     0.00000956     -5732.6390915189  6.07E-06
   148 OT DIIS     0.10E+00   31.4     0.00001937     -5732.6390497854  4.17E-05
   149 OT DIIS     0.10E+00   31.4     0.00000217     -5732.6390559303 -6.14E-06
   150 OT DIIS     0.10E+00   31.3     0.00000217     -5732.6390615299 -5.60E-06
   151 OT SD       0.10E+00   31.2     0.00000217     -5732.6390735397 -1.20E-05
   152 OT SD       0.10E+00   31.4     0.00000218     -5732.6390782976 -4.76E-06
   153 OT SD       0.10E+00   31.4     0.00000218     -5732.6390830558 -4.76E-06
   154 OT SD       0.10E+00   31.5     0.00000221     -5732.6390878046 -4.75E-06
   155 OT SD       0.10E+00   31.3     0.00000234     -5732.6390924948 -4.69E-06
   156 OT SD       0.10E+00   31.5     0.00000279     -5732.6390969059 -4.41E-06
   157 OT SD       0.10E+00   31.6     0.00000421     -5732.6391000852 -3.18E-06
   158 OT SD       0.10E+00   31.4     0.00000779     -5732.6390978782  2.21E-06
   159 OT DIIS     0.10E+00   31.4     0.00001575     -5732.6390721406  2.57E-05
   160 OT DIIS     0.10E+00   31.5     0.00000217     -5732.6390576709  1.45E-05
   161 OT DIIS     0.10E+00   31.6     0.00000217     -5732.6390629011 -5.23E-06
   162 OT SD       0.10E+00   31.3     0.00000218     -5732.6390789547 -1.61E-05
   163 OT SD       0.10E+00   31.4     0.00000218     -5732.6390837012 -4.75E-06
   164 OT SD       0.10E+00   31.4     0.00000221     -5732.6390884247 -4.72E-06
   165 OT SD       0.10E+00   31.4     0.00000231     -5732.6390930926 -4.67E-06
   166 OT SD       0.10E+00   31.3     0.00000271     -5732.6390975168 -4.42E-06
   167 OT SD       0.10E+00   31.2     0.00000396     -5732.6391008981 -3.38E-06
   168 OT SD       0.10E+00   31.4     0.00000714     -5732.6390998501  1.05E-06
   169 OT DIIS     0.10E+00   31.3     0.00001418     -5732.6390799488  1.99E-05
   170 OT SD       0.10E+00   31.5     0.00000216     -5732.6390590277  2.09E-05
   171 OT DIIS     0.10E+00   31.3     0.00000216     -5732.6390637359 -4.71E-06
   172 OT SD       0.10E+00   31.5     0.00000217     -5732.6390771167 -1.34E-05
   173 OT SD       0.10E+00   31.6     0.00000217     -5732.6390818380 -4.72E-06
   174 OT SD       0.10E+00   31.4     0.00000217     -5732.6390865561 -4.72E-06
   175 OT SD       0.10E+00   31.4     0.00000220     -5732.6390912686 -4.71E-06
   176 OT SD       0.10E+00   31.6     0.00000230     -5732.6390959367 -4.67E-06
   177 OT SD       0.10E+00   31.5     0.00000267     -5732.6391003850 -4.45E-06
   178 OT SD       0.10E+00   31.5     0.00000389     -5732.6391038450 -3.46E-06
   179 OT SD       0.10E+00   31.4     0.00000706     -5732.6391029513  8.94E-07
   180 OT DIIS     0.10E+00   31.4     0.00001422     -5732.6390829282  2.00E-05

  Leaving inner SCF loop after reaching   180 steps.


  Electronic density on regular grids:      -2111.9999999915        0.0000000085
  Core density on regular grids:             2111.9999999992       -0.0000000008
  Total charge density on r-space grids:        0.0000000077
  Total charge density g-space grids:           0.0000000077

  Overlap energy of the core charge distribution:               0.00000746064565
  Self energy of the core charge distribution:             -14063.09528692122331
  Core Hamiltonian energy:                                   3716.36362482380537
  Hartree energy:                                            5743.81639504399755
  Exchange-correlation energy:                              -1129.21181680512427
  Dispersion energy:                                           -0.51200653027705

  Total energy:                                             -5732.63908292817632

  outer SCF iter =    7 RMS gradient =   0.14E-04 energy =      -5732.6390829282

  ----------------------------------- OT ---------------------------------------
  Minimizer      : DIIS                : direct inversion
                                         in the iterative subspace
                                         using   7 DIIS vectors
                                         safer DIIS on
  Preconditioner : FULL_SINGLE_INVERSE : inversion of 
                                         H + eS - 2*(Sc)(c^T*H*c+const)(Sc)^T
  Precond_solver : INVERSE_UPDATE
  stepsize       :    0.10000000                  energy_gap     :    0.10000000
  eps_taylor     :   0.10000E-15                  max_taylor     :             4
  ----------------------------------- OT ---------------------------------------

  Step     Update method      Time    Convergence         Total energy    Change
  ------------------------------------------------------------------------------


     Lanczos converged:  T threshold:   0.100E-02
     Est. extremal eigenvalues:    0.103E+01   0.967E+00
     Est. condition number :    0.107E+01
     Hotelling iter   1 1.00000000   0.640E-02       1.460   269579.424



     Lanczos converged:  T threshold:   0.100E-02
     Est. extremal eigenvalues:    0.104E+01   0.960E+00
     Est. condition number :    0.108E+01
     Hotelling iter   1 1.00000000   0.749E-02       1.609   247532.498

     1 OT DIIS     0.10E+00   82.7     0.00000216     -5732.6390607717  2.22E-05
     2 OT DIIS     0.10E+00   30.8     0.00000216     -5732.6390654595 -4.69E-06
     3 OT SD       0.10E+00   31.3     0.00000216     -5732.6390683566 -2.90E-06
     4 OT SD       0.10E+00   31.2     0.00000216     -5732.6390730453 -4.69E-06
     5 OT SD       0.10E+00   31.2     0.00000216     -5732.6390777358 -4.69E-06
     6 OT SD       0.10E+00   31.2     0.00000216     -5732.6390824284 -4.69E-06
     7 OT SD       0.10E+00   31.2     0.00000216     -5732.6390871229 -4.69E-06
     8 OT SD       0.10E+00   31.5     0.00000217     -5732.6390918153 -4.69E-06
     9 OT SD       0.10E+00   31.5     0.00000222     -5732.6390964868 -4.67E-06
    10 OT SD       0.10E+00   31.5     0.00000241     -5732.6391010524 -4.57E-06
    11 OT SD       0.10E+00   31.3     0.00000311     -5732.6391051397 -4.09E-06
    12 OT SD       0.10E+00   31.6     0.00000515     -5732.6391071160 -1.98E-06
    13 OT SD       0.10E+00   31.5     0.00001002     -5732.6390998211  7.29E-06
    14 OT DIIS     0.10E+00   31.4     0.00002060     -5732.6390517844  4.80E-05
    15 OT DIIS     0.10E+00   31.3     0.00000215     -5732.6390616163 -9.83E-06
    16 OT DIIS     0.10E+00   31.5     0.00000215     -5732.6390627457 -1.13E-06
    17 OT SD       0.10E+00   31.4     0.00000216     -5732.6390771783 -1.44E-05
    18 OT SD       0.10E+00   31.4     0.00000216     -5732.6390818554 -4.68E-06
    19 OT SD       0.10E+00   31.4     0.00000217     -5732.6390865337 -4.68E-06
    20 OT SD       0.10E+00   31.5     0.00000219     -5732.6390912087 -4.68E-06
    21 OT SD       0.10E+00   31.4     0.00000228     -5732.6390958473 -4.64E-06
    22 OT SD       0.10E+00   31.3     0.00000259     -5732.6391003133 -4.47E-06
    23 OT SD       0.10E+00   31.2     0.00000355     -5732.6391040607 -3.75E-06
    24 OT SD       0.10E+00   31.5     0.00000600     -5732.6391048975 -8.37E-07
    25 OT SD       0.10E+00   31.4     0.00001140     -5732.6390939495  1.09E-05
    26 OT DIIS     0.10E+00   31.4     0.00002264     -5732.6390349314  5.90E-05
    27 OT SD       0.10E+00   31.3     0.00000215     -5732.6390638249 -2.89E-05
    28 OT SD       0.10E+00   31.5     0.00000215     -5732.6390684662 -4.64E-06
    29 OT SD       0.10E+00   31.4     0.00000215     -5732.6390731077 -4.64E-06
    30 OT SD       0.10E+00   31.3     0.00000215     -5732.6390777502 -4.64E-06
    31 OT SD       0.10E+00   31.4     0.00000215     -5732.6390823942 -4.64E-06
    32 OT SD       0.10E+00   31.7     0.00000215     -5732.6390870387 -4.64E-06
    33 OT SD       0.10E+00   31.4     0.00000217     -5732.6390916788 -4.64E-06
    34 OT SD       0.10E+00   31.3     0.00000223     -5732.6390962899 -4.61E-06
    35 OT SD       0.10E+00   31.3     0.00000247     -5732.6391007642 -4.47E-06
    36 OT SD       0.10E+00   31.5     0.00000332     -5732.6391046262 -3.86E-06
    37 OT SD       0.10E+00   31.3     0.00000570     -5732.6391057882 -1.16E-06
    38 OT SD       0.10E+00   31.3     0.00001128     -5732.6390950588  1.07E-05
    39 OT DIIS     0.10E+00   31.2     0.00002333     -5732.6390318979  6.32E-05
    40 OT SD       0.10E+00   31.3     0.00000215     -5732.6390644352 -3.25E-05
    41 OT DIIS     0.10E+00   31.3     0.00000214     -5732.6390690553 -4.62E-06
    42 OT SD       0.10E+00   31.4     0.00000214     -5732.6390716904 -2.64E-06
    43 OT SD       0.10E+00   31.2     0.00000215     -5732.6390763015 -4.61E-06
    44 OT SD       0.10E+00   31.6     0.00000216     -5732.6390809127 -4.61E-06
    45 OT SD       0.10E+00   31.5     0.00000221     -5732.6390855079 -4.60E-06
    46 OT SD       0.10E+00   31.4     0.00000240     -5732.6390900126 -4.50E-06
    47 OT SD       0.10E+00   31.4     0.00000300     -5732.6390941324 -4.12E-06
    48 OT SD       0.10E+00   31.7     0.00000465     -5732.6390966908 -2.56E-06
    49 OT SD       0.10E+00   31.5     0.00000847     -5732.6390929866  3.70E-06
    50 OT DIIS     0.10E+00   31.3     0.00001652     -5732.6390640226  2.90E-05
    51 OT DIIS     0.10E+00   31.2     0.00000213     -5732.6390715586 -7.54E-06
    52 OT DIIS     0.10E+00   31.3     0.00000213     -5732.6390759286 -4.37E-06
    53 OT SD       0.10E+00   31.3     0.00000213     -5732.6390947614 -1.88E-05
    54 OT SD       0.10E+00   31.3     0.00000213     -5732.6390993429 -4.58E-06
    55 OT SD       0.10E+00   31.3     0.00000213     -5732.6391039278 -4.58E-06
    56 OT SD       0.10E+00   31.4     0.00000214     -5732.6391085171 -4.59E-06
    57 OT SD       0.10E+00   31.5     0.00000214     -5732.6391131117 -4.59E-06
    58 OT SD       0.10E+00   31.4     0.00000214     -5732.6391177102 -4.60E-06
    59 OT SD       0.10E+00   31.3     0.00000216     -5732.6391223075 -4.60E-06
    60 OT SD       0.10E+00   31.5     0.00000223     -5732.6391268740 -4.57E-06
    61 OT SD       0.10E+00   31.4     0.00000252     -5732.6391312797 -4.41E-06
    62 OT SD       0.10E+00   31.4     0.00000353     -5732.6391349322 -3.65E-06
    63 OT SD       0.10E+00   31.4     0.00000630     -5732.6391351816 -2.49E-07
    64 OT SD       0.10E+00   31.6     0.00001272     -5732.6391201022  1.51E-05
    65 OT DIIS     0.10E+00   31.4     0.00002667     -5732.6390360223  8.41E-05
    66 OT DIIS     0.10E+00   31.2     0.00000213     -5732.6390642115 -2.82E-05
    67 OT SD       0.10E+00   31.2     0.00000212     -5732.6390715385 -7.33E-06
    68 OT SD       0.10E+00   31.4     0.00000212     -5732.6390760840 -4.55E-06
    69 OT SD       0.10E+00   31.4     0.00000213     -5732.6390806302 -4.55E-06
    70 OT SD       0.10E+00   31.3     0.00000214     -5732.6390851741 -4.54E-06
    71 OT SD       0.10E+00   31.2     0.00000219     -5732.6390897006 -4.53E-06
    72 OT SD       0.10E+00   31.5     0.00000235     -5732.6390941425 -4.44E-06
    73 OT SD       0.10E+00   31.5     0.00000290     -5732.6390982311 -4.09E-06
    74 OT SD       0.10E+00   31.4     0.00000447     -5732.6391008743 -2.64E-06
    75 OT SD       0.10E+00   31.5     0.00000818     -5732.6390976372  3.24E-06
    76 OT DIIS     0.10E+00   31.5     0.00001606     -5732.6390703573  2.73E-05
    77 OT DIIS     0.10E+00   31.4     0.00000212     -5732.6390752299 -4.87E-06
    78 OT DIIS     0.10E+00   31.3     0.00000212     -5732.6390762817 -1.05E-06
    79 OT SD       0.10E+00   31.4     0.00000212     -5732.6390976701 -2.14E-05
    80 OT SD       0.10E+00   31.6     0.00000212     -5732.6391022017 -4.53E-06
    81 OT SD       0.10E+00   31.5     0.00000212     -5732.6391067366 -4.53E-06
    82 OT SD       0.10E+00   31.3     0.00000213     -5732.6391112756 -4.54E-06
    83 OT SD       0.10E+00   31.3     0.00000214     -5732.6391158150 -4.54E-06
    84 OT SD       0.10E+00   31.4     0.00000219     -5732.6391203342 -4.52E-06
    85 OT SD       0.10E+00   31.4     0.00000241     -5732.6391247401 -4.41E-06
    86 OT SD       0.10E+00   31.3     0.00000318     -5732.6391286166 -3.88E-06
    87 OT SD       0.10E+00   31.3     0.00000539     -5732.6391301254 -1.51E-06
    88 OT SD       0.10E+00   31.4     0.00001062     -5732.6391211284  9.00E-06
    89 OT DIIS     0.10E+00   31.5     0.00002199     -5732.6390655654  5.56E-05
    90 OT DIIS     0.10E+00   31.4     0.00000211     -5732.6390698311 -4.27E-06
    91 OT SD       0.10E+00   31.3     0.00000211     -5732.6390727451 -2.91E-06
    92 OT SD       0.10E+00   31.5     0.00000211     -5732.6390772420 -4.50E-06
    93 OT SD       0.10E+00   31.5     0.00000211     -5732.6390817404 -4.50E-06
    94 OT SD       0.10E+00   31.4     0.00000211     -5732.6390862410 -4.50E-06
    95 OT SD       0.10E+00   31.4     0.00000211     -5732.6390907448 -4.50E-06
    96 OT SD       0.10E+00   31.6     0.00000212     -5732.6390952522 -4.51E-06
    97 OT SD       0.10E+00   31.5     0.00000212     -5732.6390997638 -4.51E-06
    98 OT SD       0.10E+00   31.3     0.00000213     -5732.6391042760 -4.51E-06
    99 OT SD       0.10E+00   31.4     0.00000217     -5732.6391087753 -4.50E-06
   100 OT SD       0.10E+00   31.4     0.00000233     -5732.6391131992 -4.42E-06
   101 OT SD       0.10E+00   31.4     0.00000285     -5732.6391172967 -4.10E-06
   102 OT SD       0.10E+00   31.2     0.00000436     -5732.6391200395 -2.74E-06
   103 OT SD       0.10E+00   31.3     0.00000796     -5732.6391172258  2.81E-06
   104 OT DIIS     0.10E+00   31.4     0.00001567     -5732.6390915241  2.57E-05
   105 OT DIIS     0.10E+00   31.5     0.00000211     -5732.6390722359  1.93E-05
   106 OT SD       0.10E+00   31.4     0.00000211     -5732.6390722924 -5.65E-08
   107 OT SD       0.10E+00   31.4     0.00000211     -5732.6390767716 -4.48E-06
   108 OT SD       0.10E+00   31.5     0.00000211     -5732.6390812512 -4.48E-06
   109 OT SD       0.10E+00   31.5     0.00000211     -5732.6390857311 -4.48E-06
   110 OT SD       0.10E+00   31.5     0.00000212     -5732.6390902100 -4.48E-06
   111 OT SD       0.10E+00   31.5     0.00000214     -5732.6390946797 -4.47E-06
   112 OT SD       0.10E+00   31.6     0.00000223     -5732.6390991050 -4.43E-06
   113 OT SD       0.10E+00   31.5     0.00000256     -5732.6391033347 -4.23E-06
   114 OT SD       0.10E+00   31.3     0.00000364     -5732.6391067303 -3.40E-06
   115 OT SD       0.10E+00   31.3     0.00000645     -5732.6391065689  1.61E-07
   116 OT DIIS     0.10E+00   31.3     0.00001275     -5732.6390912010  1.54E-05
   117 OT SD       0.10E+00   31.4     0.00000211     -5732.6390796315  1.16E-05
   118 OT DIIS     0.10E+00   31.3     0.00000210     -5732.6390840915 -4.46E-06
   119 OT SD       0.10E+00   31.2     0.00000210     -5732.6390915994 -7.51E-06
   120 OT SD       0.10E+00   31.5     0.00000211     -5732.6390960598 -4.46E-06
   121 OT SD       0.10E+00   31.5     0.00000211     -5732.6391005265 -4.47E-06
   122 OT SD       0.10E+00   31.4     0.00000212     -5732.6391049973 -4.47E-06
   123 OT SD       0.10E+00   31.4     0.00000217     -5732.6391094596 -4.46E-06
   124 OT SD       0.10E+00   31.5     0.00000232     -5732.6391138509 -4.39E-06
   125 OT SD       0.10E+00   31.6     0.00000287     -5732.6391179073 -4.06E-06
   126 OT SD       0.10E+00   31.4     0.00000448     -5732.6391205057 -2.60E-06
   127 OT SD       0.10E+00   31.5     0.00000835     -5732.6391168932  3.61E-06
   128 OT DIIS     0.10E+00   31.5     0.00001675     -5732.6390867981  3.01E-05
   129 OT DIIS     0.10E+00   31.6     0.00000210     -5732.6390767273  1.01E-05
   130 OT SD       0.10E+00   31.3     0.00000210     -5732.6390783973 -1.67E-06
   131 OT SD       0.10E+00   31.4     0.00000210     -5732.6390828239 -4.43E-06
   132 OT SD       0.10E+00   31.3     0.00000210     -5732.6390872504 -4.43E-06
   133 OT SD       0.10E+00   31.5     0.00000210     -5732.6390916767 -4.43E-06
   134 OT SD       0.10E+00   31.4     0.00000211     -5732.6390960988 -4.42E-06
   135 OT SD       0.10E+00   31.2     0.00000216     -5732.6391004982 -4.40E-06
   136 OT SD       0.10E+00   31.5     0.00000234     -5732.6391047967 -4.30E-06
   137 OT SD       0.10E+00   31.5     0.00000299     -5732.6391086639 -3.87E-06
   138 OT SD       0.10E+00   31.4     0.00000485     -5732.6391107026 -2.04E-06
   139 OT SD       0.10E+00   31.4     0.00000924     -5732.6391049723  5.73E-06
   140 OT DIIS     0.10E+00   31.5     0.00001868     -5732.6390660880  3.89E-05
   141 OT SD       0.10E+00   31.6     0.00000210     -5732.6390815720 -1.55E-05
   142 OT DIIS     0.10E+00   31.4     0.00000209     -5732.6390859781 -4.41E-06
   143 OT SD       0.10E+00   31.5     0.00000209     -5732.6390918857 -5.91E-06
   144 OT SD       0.10E+00   31.6     0.00000209     -5732.6390962855 -4.40E-06
   145 OT SD       0.10E+00   31.5     0.00000210     -5732.6391006912 -4.41E-06
   146 OT SD       0.10E+00   31.3     0.00000213     -5732.6391050950 -4.40E-06
   147 OT SD       0.10E+00   31.4     0.00000224     -5732.6391094571 -4.36E-06
   148 OT SD       0.10E+00   31.4     0.00000264     -5732.6391136006 -4.14E-06
   149 OT SD       0.10E+00   31.4     0.00000386     -5732.6391167773 -3.18E-06
   150 OT SD       0.10E+00   31.3     0.00000693     -5732.6391158160  9.61E-07
   151 OT DIIS     0.10E+00   31.2     0.00001373     -5732.6390972467  1.86E-05
   152 OT DIIS     0.10E+00   31.4     0.00000208     -5732.6390838885  1.34E-05
   153 OT DIIS     0.10E+00   31.5     0.00000208     -5732.6390847520 -8.63E-07
   154 OT SD       0.10E+00   31.4     0.00000210     -5732.6391149754 -3.02E-05
   155 OT SD       0.10E+00   31.4     0.00000209     -5732.6391193716 -4.40E-06
   156 OT SD       0.10E+00   31.5     0.00000209     -5732.6391237453 -4.37E-06
   157 OT SD       0.10E+00   31.5     0.00000212     -5732.6391281094 -4.36E-06
   158 OT SD       0.10E+00   31.4     0.00000222     -5732.6391324236 -4.31E-06
   159 OT SD       0.10E+00   31.4     0.00000261     -5732.6391365086 -4.08E-06
   160 OT SD       0.10E+00   31.6     0.00000386     -5732.6391395877 -3.08E-06
   161 OT SD       0.10E+00   31.5     0.00000704     -5732.6391383110  1.28E-06
   162 OT SD       0.10E+00   31.3     0.00001414     -5732.6391181561  2.02E-05
   163 OT DIIS     0.10E+00   31.3     0.00002919     -5732.6390159590  1.02E-04
   164 OT SD       0.10E+00   31.4     0.00000208     -5732.6390839713 -6.80E-05
   165 OT SD       0.10E+00   31.5     0.00000207     -5732.6390883063 -4.34E-06
   166 OT SD       0.10E+00   31.4     0.00000207     -5732.6390926393 -4.33E-06
   167 OT SD       0.10E+00   31.2     0.00000208     -5732.6390969746 -4.34E-06
   168 OT SD       0.10E+00   31.4     0.00000208     -5732.6391013139 -4.34E-06
   169 OT SD       0.10E+00   31.5     0.00000208     -5732.6391056582 -4.34E-06
   170 OT SD       0.10E+00   31.4     0.00000209     -5732.6391100085 -4.35E-06
   171 OT SD       0.10E+00   31.4     0.00000210     -5732.6391143647 -4.36E-06
   172 OT SD       0.10E+00   31.5     0.00000212     -5732.6391187235 -4.36E-06
   173 OT SD       0.10E+00   31.5     0.00000218     -5732.6391230643 -4.34E-06
   174 OT SD       0.10E+00   31.4     0.00000240     -5732.6391273029 -4.24E-06
   175 OT SD       0.10E+00   31.5     0.00000309     -5732.6391310879 -3.78E-06
   176 OT SD       0.10E+00   31.5     0.00000498     -5732.6391329903 -1.90E-06
   177 OT SD       0.10E+00   31.5     0.00000931     -5732.6391271518  5.84E-06
   178 OT DIIS     0.10E+00   31.3     0.00001843     -5732.6390895105  3.76E-05
   179 OT SD       0.10E+00   31.3     0.00000207     -5732.6390823177  7.19E-06
   180 OT SD       0.10E+00   31.3     0.00000207     -5732.6390866298 -4.31E-06

  Leaving inner SCF loop after reaching   180 steps.


  Electronic density on regular grids:      -2111.9999999915        0.0000000085
  Core density on regular grids:             2111.9999999992       -0.0000000008
  Total charge density on r-space grids:        0.0000000077
  Total charge density g-space grids:           0.0000000077

  Overlap energy of the core charge distribution:               0.00000746064565
  Self energy of the core charge distribution:             -14063.09528692122331
  Core Hamiltonian energy:                                   3716.36344759769872
  Hartree energy:                                            5743.81648900971413
  Exchange-correlation energy:                              -1129.21173724640585
  Dispersion energy:                                           -0.51200653027705

  Total energy:                                             -5732.63908662984704

  outer SCF iter =    8 RMS gradient =   0.21E-05 energy =      -5732.6390866298

  ----------------------------------- OT ---------------------------------------
  Minimizer      : DIIS                : direct inversion
                                         in the iterative subspace
                                         using   7 DIIS vectors
                                         safer DIIS on
  Preconditioner : FULL_SINGLE_INVERSE : inversion of 
                                         H + eS - 2*(Sc)(c^T*H*c+const)(Sc)^T
  Precond_solver : INVERSE_UPDATE
  stepsize       :    0.10000000                  energy_gap     :    0.10000000
  eps_taylor     :   0.10000E-15                  max_taylor     :             4
  ----------------------------------- OT ---------------------------------------

  Step     Update method      Time    Convergence         Total energy    Change
  ------------------------------------------------------------------------------


     Lanczos converged:  T threshold:   0.100E-02
     Est. extremal eigenvalues:    0.104E+01   0.957E+00
     Est. condition number :    0.109E+01
     Hotelling iter   1 1.00000000   0.796E-02       1.567   273665.412



     Lanczos converged:  T threshold:   0.100E-02
     Est. extremal eigenvalues:    0.103E+01   0.968E+00
     Est. condition number :    0.106E+01
     Hotelling iter   1 1.00000000   0.613E-02       1.712   249755.559

     1 OT DIIS     0.10E+00   82.7     0.00000207     -5732.6390909413 -4.31E-06
     2 OT DIIS     0.10E+00   30.8     0.00000207     -5732.6390952516 -4.31E-06
     3 OT SD       0.10E+00   31.1     0.00000207     -5732.6390966968 -1.45E-06
     4 OT SD       0.10E+00   31.3     0.00000207     -5732.6391010101 -4.31E-06
     5 OT SD       0.10E+00   31.3     0.00000207     -5732.6391053255 -4.32E-06
     6 OT SD       0.10E+00   31.3     0.00000207     -5732.6391096433 -4.32E-06
     7 OT SD       0.10E+00   31.2     0.00000207     -5732.6391139641 -4.32E-06
     8 OT SD       0.10E+00   31.5     0.00000207     -5732.6391182877 -4.32E-06
     9 OT SD       0.10E+00   31.5     0.00000208     -5732.6391226120 -4.32E-06
    10 OT SD       0.10E+00   31.5     0.00000211     -5732.6391269253 -4.31E-06
    11 OT SD       0.10E+00   31.4     0.00000224     -5732.6391311752 -4.25E-06
    12 OT SD       0.10E+00   31.6     0.00000273     -5732.6391351272 -3.95E-06
    13 OT SD       0.10E+00   31.5     0.00000426     -5732.6391377391 -2.61E-06
    14 OT SD       0.10E+00   31.4     0.00000811     -5732.6391343721  3.37E-06
    15 OT DIIS     0.10E+00   31.3     0.00001668     -5732.6391043270  3.00E-05
    16 OT DIIS     0.10E+00   31.5     0.00000207     -5732.6390813046  2.30E-05
    17 OT DIIS     0.10E+00   31.3     0.00000206     -5732.6390820541 -7.50E-07
    18 OT SD       0.10E+00   31.2     0.00000209     -5732.6390975794 -1.55E-05
    19 OT SD       0.10E+00   31.2     0.00000207     -5732.6391019077 -4.33E-06
    20 OT SD       0.10E+00   31.3     0.00000208     -5732.6391062177 -4.31E-06
    21 OT SD       0.10E+00   31.3     0.00000208     -5732.6391105357 -4.32E-06
    22 OT SD       0.10E+00   31.3     0.00000209     -5732.6391148665 -4.33E-06
    23 OT SD       0.10E+00   31.2     0.00000211     -5732.6391192105 -4.34E-06
    24 OT SD       0.10E+00   31.5     0.00000215     -5732.6391235632 -4.35E-06
    25 OT SD       0.10E+00   31.4     0.00000226     -5732.6391278892 -4.33E-06
    26 OT SD       0.10E+00   31.4     0.00000264     -5732.6391320323 -4.14E-06
    27 OT SD       0.10E+00   31.4     0.00000378     -5732.6391353196 -3.29E-06
    28 OT SD       0.10E+00   31.6     0.00000665     -5732.6391349214  3.98E-07
    29 OT SD       0.10E+00   31.4     0.00001300     -5732.6391189179  1.60E-05
    30 OT DIIS     0.10E+00   31.3     0.00002633     -5732.6390370676  8.19E-05
    31 OT DIIS     0.10E+00   31.2     0.00000206     -5732.6390855432 -4.85E-05
    32 OT SD       0.10E+00   31.5     0.00000206     -5732.6390896183 -4.08E-06
    33 OT SD       0.10E+00   31.3     0.00000206     -5732.6390938779 -4.26E-06
    34 OT SD       0.10E+00   31.2     0.00000206     -5732.6390981357 -4.26E-06
    35 OT SD       0.10E+00   31.2     0.00000207     -5732.6391023886 -4.25E-06
    36 OT SD       0.10E+00   31.3     0.00000212     -5732.6391066161 -4.23E-06
    37 OT SD       0.10E+00   31.3     0.00000233     -5732.6391107303 -4.11E-06
    38 OT SD       0.10E+00   31.4     0.00000307     -5732.6391143440 -3.61E-06
    39 OT SD       0.10E+00   31.2     0.00000519     -5732.6391157631 -1.42E-06
    40 OT SD       0.10E+00   31.4     0.00001019     -5732.6391075277  8.24E-06
    41 OT DIIS     0.10E+00   31.3     0.00002105     -5732.6390566789  5.08E-05
    42 OT SD       0.10E+00   31.3     0.00000206     -5732.6390856389 -2.90E-05
    43 OT SD       0.10E+00   31.4     0.00000205     -5732.6390898780 -4.24E-06
    44 OT SD       0.10E+00   31.5     0.00000205     -5732.6390941031 -4.23E-06
    45 OT SD       0.10E+00   31.4     0.00000207     -5732.6390983202 -4.22E-06
    46 OT SD       0.10E+00   31.2     0.00000213     -5732.6391025084 -4.19E-06
    47 OT SD       0.10E+00   31.2     0.00000235     -5732.6391065724 -4.06E-06
    48 OT SD       0.10E+00   31.6     0.00000312     -5732.6391101137 -3.54E-06
    49 OT SD       0.10E+00   31.4     0.00000522     -5732.6391114528 -1.34E-06
    50 OT DIIS     0.10E+00   31.3     0.00001006     -5732.6391035000  7.95E-06
    51 OT DIIS     0.10E+00   31.2     0.00000204     -5732.6390881276  1.54E-05
    52 OT DIIS     0.10E+00   31.3     0.00000204     -5732.6390909476 -2.82E-06
    53 OT SD       0.10E+00   31.4     0.00000204     -5732.6391095606 -1.86E-05
    54 OT SD       0.10E+00   31.2     0.00000205     -5732.6391137665 -4.21E-06
    55 OT SD       0.10E+00   31.3     0.00000207     -5732.6391179657 -4.20E-06
    56 OT SD       0.10E+00   31.4     0.00000216     -5732.6391221264 -4.16E-06
    57 OT SD       0.10E+00   31.5     0.00000248     -5732.6391261039 -3.98E-06
    58 OT SD       0.10E+00   31.4     0.00000357     -5732.6391292666 -3.16E-06
    59 OT SD       0.10E+00   31.5     0.00000642     -5732.6391288551  4.12E-07
    60 OT DIIS     0.10E+00   31.5     0.00001289     -5732.6391127684  1.61E-05
    61 OT SD       0.10E+00   31.4     0.00000204     -5732.6390953058  1.75E-05
    62 OT DIIS     0.10E+00   31.2     0.00000204     -5732.6390994902 -4.18E-06
    63 OT SD       0.10E+00   31.4     0.00000204     -5732.6391130562 -1.36E-05
    64 OT SD       0.10E+00   31.5     0.00000204     -5732.6391172502 -4.19E-06
    65 OT SD       0.10E+00   31.5     0.00000204     -5732.6391214456 -4.20E-06
    66 OT SD       0.10E+00   31.3     0.00000205     -5732.6391256453 -4.20E-06
    67 OT SD       0.10E+00   31.4     0.00000206     -5732.6391298467 -4.20E-06
    68 OT SD       0.10E+00   31.3     0.00000210     -5732.6391340367 -4.19E-06
    69 OT SD       0.10E+00   31.4     0.00000225     -5732.6391381541 -4.12E-06
    70 OT SD       0.10E+00   31.3     0.00000280     -5732.6391419410 -3.79E-06
    71 OT SD       0.10E+00   31.3     0.00000440     -5732.6391442941 -2.35E-06
    72 OT SD       0.10E+00   31.4     0.00000826     -5732.6391405241  3.77E-06
    73 OT DIIS     0.10E+00   31.5     0.00001662     -5732.6391105953  2.99E-05
    74 OT DIIS     0.10E+00   31.2     0.00000203     -5732.6390894951  2.11E-05
    75 OT SD       0.10E+00   31.4     0.00000203     -5732.6390904590 -9.64E-07
    76 OT SD       0.10E+00   31.4     0.00000203     -5732.6390946212 -4.16E-06
    77 OT SD       0.10E+00   31.4     0.00000203     -5732.6390987836 -4.16E-06
    78 OT SD       0.10E+00   31.3     0.00000203     -5732.6391029459 -4.16E-06
    79 OT SD       0.10E+00   31.2     0.00000204     -5732.6391071070 -4.16E-06
    80 OT SD       0.10E+00   31.6     0.00000207     -5732.6391112567 -4.15E-06
    81 OT SD       0.10E+00   31.5     0.00000217     -5732.6391153528 -4.10E-06
    82 OT SD       0.10E+00   31.3     0.00000259     -5732.6391192036 -3.85E-06
    83 OT SD       0.10E+00   31.3     0.00000392     -5732.6391219669 -2.76E-06
    84 OT SD       0.10E+00   31.4     0.00000734     -5732.6391198998  2.07E-06
    85 OT DIIS     0.10E+00   31.4     0.00001500     -5732.6390963560  2.35E-05
    86 OT SD       0.10E+00   31.2     0.00000203     -5732.6390983715 -2.02E-06
    87 OT DIIS     0.10E+00   31.2     0.00000203     -5732.6391025180 -4.15E-06
    88 OT SD       0.10E+00   31.5     0.00000203     -5732.6391087716 -6.25E-06
    89 OT SD       0.10E+00   31.4     0.00000203     -5732.6391129181 -4.15E-06
    90 OT SD       0.10E+00   31.4     0.00000203     -5732.6391170695 -4.15E-06
    91 OT SD       0.10E+00   31.4     0.00000204     -5732.6391212267 -4.16E-06
    92 OT SD       0.10E+00   31.5     0.00000205     -5732.6391253869 -4.16E-06
    93 OT SD       0.10E+00   31.4     0.00000210     -5732.6391295335 -4.15E-06
    94 OT SD       0.10E+00   31.3     0.00000229     -5732.6391335893 -4.06E-06
    95 OT SD       0.10E+00   31.3     0.00000298     -5732.6391372125 -3.62E-06
    96 OT SD       0.10E+00   31.5     0.00000493     -5732.6391389219 -1.71E-06
    97 OT SD       0.10E+00   31.4     0.00000952     -5732.6391323012  6.62E-06
    98 OT DIIS     0.10E+00   31.3     0.00001945     -5732.6390895434  4.28E-05
    99 OT SD       0.10E+00   31.2     0.00000202     -5732.6390947521 -5.21E-06
   100 OT SD       0.10E+00   31.3     0.00000202     -5732.6390988721 -4.12E-06
   101 OT SD       0.10E+00   31.3     0.00000202     -5732.6391029918 -4.12E-06
   102 OT SD       0.10E+00   31.3     0.00000202     -5732.6391071120 -4.12E-06
   103 OT SD       0.10E+00   31.3     0.00000203     -5732.6391112322 -4.12E-06
   104 OT SD       0.10E+00   31.4     0.00000204     -5732.6391153488 -4.12E-06
   105 OT SD       0.10E+00   31.4     0.00000208     -5732.6391194452 -4.10E-06
   106 OT SD       0.10E+00   31.4     0.00000226     -5732.6391234481 -4.00E-06
   107 OT SD       0.10E+00   31.4     0.00000290     -5732.6391270373 -3.59E-06
   108 OT SD       0.10E+00   31.5     0.00000479     -5732.6391288104 -1.77E-06
   109 OT SD       0.10E+00   31.4     0.00000930     -5732.6391225965  6.21E-06
   110 OT DIIS     0.10E+00   31.3     0.00001916     -5732.6390811154  4.15E-05
   111 OT SD       0.10E+00   31.2     0.00000202     -5732.6390980306 -1.69E-05
   112 OT DIIS     0.10E+00   31.6     0.00000202     -5732.6391021318 -4.10E-06
   113 OT SD       0.10E+00   31.4     0.00000202     -5732.6391072916 -5.16E-06
   114 OT SD       0.10E+00   31.3     0.00000202     -5732.6391113849 -4.09E-06
   115 OT SD       0.10E+00   31.3     0.00000203     -5732.6391154839 -4.10E-06
   116 OT SD       0.10E+00   31.4     0.00000205     -5732.6391195824 -4.10E-06
   117 OT SD       0.10E+00   31.3     0.00000216     -5732.6391236441 -4.06E-06
   118 OT SD       0.10E+00   31.3     0.00000254     -5732.6391275030 -3.86E-06
   119 OT SD       0.10E+00   31.2     0.00000375     -5732.6391304355 -2.93E-06
   120 OT SD       0.10E+00   31.4     0.00000682     -5732.6391293108  1.12E-06
   121 OT DIIS     0.10E+00   31.4     0.00001366     -5732.6391106015  1.87E-05
   122 OT DIIS     0.10E+00   31.4     0.00000201     -5732.6391032957  7.31E-06
   123 OT DIIS     0.10E+00   31.4     0.00000201     -5732.6391066331 -3.34E-06
   124 OT SD       0.10E+00   31.6     0.00000201     -5732.6391321523 -2.55E-05
   125 OT SD       0.10E+00   31.4     0.00000201     -5732.6391362198 -4.07E-06
   126 OT SD       0.10E+00   31.3     0.00000201     -5732.6391402873 -4.07E-06
   127 OT SD       0.10E+00   31.3     0.00000202     -5732.6391443572 -4.07E-06
   128 OT SD       0.10E+00   31.6     0.00000204     -5732.6391484238 -4.07E-06
   129 OT SD       0.10E+00   31.5     0.00000211     -5732.6391524607 -4.04E-06
   130 OT SD       0.10E+00   31.4     0.00000237     -5732.6391563570 -3.90E-06
   131 OT SD       0.10E+00   31.3     0.00000325     -5732.6391596401 -3.28E-06
   132 OT SD       0.10E+00   31.4     0.00000561     -5732.6391602991 -6.59E-07
   133 OT SD       0.10E+00   31.3     0.00001101     -5732.6391496972  1.06E-05
   134 OT DIIS     0.10E+00   31.3     0.00002254     -5732.6390905033  5.92E-05
   135 OT DIIS     0.10E+00   31.2     0.00000200     -5732.6390973115 -6.81E-06
   136 OT DIIS     0.10E+00   31.4     0.00000200     -5732.6391019498 -4.64E-06
   137 OT SD       0.10E+00   31.4     0.00000202     -5732.6391066408 -4.69E-06
   138 OT SD       0.10E+00   31.4     0.00000201     -5732.6391106911 -4.05E-06
   139 OT SD       0.10E+00   31.4     0.00000201     -5732.6391147241 -4.03E-06
   140 OT SD       0.10E+00   31.5     0.00000204     -5732.6391187487 -4.02E-06
   141 OT SD       0.10E+00   31.4     0.00000214     -5732.6391227322 -3.98E-06
   142 OT SD       0.10E+00   31.4     0.00000251     -5732.6391265105 -3.78E-06
   143 OT SD       0.10E+00   31.3     0.00000369     -5732.6391293868 -2.88E-06
   144 OT SD       0.10E+00   31.5     0.00000672     -5732.6391283223  1.06E-06
   145 OT DIIS     0.10E+00   31.5     0.00001346     -5732.6391101639  1.82E-05
   146 OT DIIS     0.10E+00   31.4     0.00000199     -5732.6391057770  4.39E-06
   147 OT DIIS     0.10E+00   31.2     0.00000199     -5732.6391137962 -8.02E-06
   148 OT SD       0.10E+00   31.4     0.00000199     -5732.6391193395 -5.54E-06
   149 OT SD       0.10E+00   31.4     0.00000199     -5732.6391233472 -4.01E-06
   150 OT SD       0.10E+00   31.4     0.00000200     -5732.6391273567 -4.01E-06
   151 OT SD       0.10E+00   31.2     0.00000200     -5732.6391313680 -4.01E-06
   152 OT SD       0.10E+00   31.4     0.00000201     -5732.6391353788 -4.01E-06
   153 OT SD       0.10E+00   31.5     0.00000204     -5732.6391393783 -4.00E-06
   154 OT SD       0.10E+00   31.4     0.00000215     -5732.6391433238 -3.95E-06
   155 OT SD       0.10E+00   31.4     0.00000254     -5732.6391470453 -3.72E-06
   156 OT SD       0.10E+00   31.5     0.00000370     -5732.6391498650 -2.82E-06
   157 OT SD       0.10E+00   31.4     0.00000653     -5732.6391490536  8.11E-07
   158 OT SD       0.10E+00   31.3     0.00001265     -5732.6391334948  1.56E-05
   159 OT DIIS     0.10E+00   31.2     0.00002533     -5732.6390574177  7.61E-05
   160 OT DIIS     0.10E+00   31.6     0.00000199     -5732.6391020310 -4.46E-05
   161 OT DIIS     0.10E+00   31.4     0.00000199     -5732.6391045707 -2.54E-06
   162 OT SD       0.10E+00   31.3     0.00000200     -5732.6391155073 -1.09E-05
   163 OT SD       0.10E+00   31.3     0.00000200     -5732.6391195165 -4.01E-06
   164 OT SD       0.10E+00   31.4     0.00000201     -5732.6391235092 -3.99E-06
   165 OT SD       0.10E+00   31.3     0.00000206     -5732.6391274814 -3.97E-06
   166 OT SD       0.10E+00   31.3     0.00000227     -5732.6391313501 -3.87E-06
   167 OT SD       0.10E+00   31.3     0.00000301     -5732.6391347370 -3.39E-06
   168 OT SD       0.10E+00   31.4     0.00000513     -5732.6391359725 -1.24E-06
   169 OT SD       0.10E+00   31.5     0.00001011     -5732.6391276790  8.29E-06
   170 OT DIIS     0.10E+00   31.4     0.00002092     -5732.6390772371  5.04E-05
   171 OT DIIS     0.10E+00   31.5     0.00000198     -5732.6391092357 -3.20E-05
   172 OT DIIS     0.10E+00   31.5     0.00000198     -5732.6391170132 -7.78E-06
   173 OT SD       0.10E+00   31.5     0.00000198     -5732.6391221808 -5.17E-06
   174 OT SD       0.10E+00   31.3     0.00000199     -5732.6391261528 -3.97E-06
   175 OT SD       0.10E+00   31.2     0.00000199     -5732.6391301272 -3.97E-06
   176 OT SD       0.10E+00   31.5     0.00000199     -5732.6391341044 -3.98E-06
   177 OT SD       0.10E+00   31.5     0.00000199     -5732.6391380851 -3.98E-06
   178 OT SD       0.10E+00   31.3     0.00000199     -5732.6391420693 -3.98E-06
   179 OT SD       0.10E+00   31.3     0.00000200     -5732.6391460553 -3.99E-06
   180 OT SD       0.10E+00   31.4     0.00000203     -5732.6391500339 -3.98E-06

  Leaving inner SCF loop after reaching   180 steps.


  Electronic density on regular grids:      -2111.9999999915        0.0000000085
  Core density on regular grids:             2111.9999999992       -0.0000000008
  Total charge density on r-space grids:        0.0000000077
  Total charge density g-space grids:           0.0000000077

  Overlap energy of the core charge distribution:               0.00000746064565
  Self energy of the core charge distribution:             -14063.09528692122331
  Core Hamiltonian energy:                                   3716.36331588560824
  Hartree energy:                                            5743.81653773772359
  Exchange-correlation energy:                              -1129.21171766635530
  Dispersion energy:                                           -0.51200653027705

  Total energy:                                             -5732.63915003387865

  outer SCF iter =    9 RMS gradient =   0.20E-05 energy =      -5732.6391500339

  ----------------------------------- OT ---------------------------------------
  Minimizer      : DIIS                : direct inversion
                                         in the iterative subspace
                                         using   7 DIIS vectors
                                         safer DIIS on
  Preconditioner : FULL_SINGLE_INVERSE : inversion of 
                                         H + eS - 2*(Sc)(c^T*H*c+const)(Sc)^T
  Precond_solver : INVERSE_UPDATE
  stepsize       :    0.10000000                  energy_gap     :    0.10000000
  eps_taylor     :   0.10000E-15                  max_taylor     :             4
  ----------------------------------- OT ---------------------------------------

  Step     Update method      Time    Convergence         Total energy    Change
  ------------------------------------------------------------------------------


     Lanczos converged:  T threshold:   0.100E-02
     Est. extremal eigenvalues:    0.108E+01   0.922E+00
     Est. condition number :    0.117E+01
     Hotelling iter   1 1.00000000   0.153E-01       1.484   276617.101



     Lanczos converged:  T threshold:   0.100E-02
     Est. extremal eigenvalues:    0.104E+01   0.952E+00
     Est. condition number :    0.110E+01
     Hotelling iter   1 1.00000000   0.876E-02       1.641   248011.983

     1 OT DIIS     0.10E+00   82.8     0.00000213     -5732.6391539671 -3.93E-06
     2 OT DIIS     0.10E+00   30.8     0.00000249     -5732.6391576894 -3.72E-06
     3 OT SD       0.10E+00   31.2     0.00000200     -5732.6391593954 -1.71E-06
     4 OT SD       0.10E+00   31.2     0.00000200     -5732.6391634109 -4.02E-06
     5 OT SD       0.10E+00   31.3     0.00000201     -5732.6391674341 -4.02E-06
     6 OT SD       0.10E+00   31.2     0.00000205     -5732.6391714552 -4.02E-06
     7 OT SD       0.10E+00   31.4     0.00000217     -5732.6391754273 -3.97E-06
     8 OT SD       0.10E+00   31.4     0.00000263     -5732.6391791465 -3.72E-06
     9 OT SD       0.10E+00   31.5     0.00000402     -5732.6391817312 -2.58E-06
    10 OT SD       0.10E+00   31.3     0.00000747     -5732.6391793704  2.36E-06
    11 OT SD       0.10E+00   31.4     0.00001509     -5732.6391554436  2.39E-05
    12 OT DIIS     0.10E+00   31.5     0.00003132     -5732.6390369444  1.18E-04
    13 OT DIIS     0.10E+00   31.5     0.00000198     -5732.6391018555 -6.49E-05
    14 OT SD       0.10E+00   31.3     0.00000198     -5732.6391103624 -8.51E-06
    15 OT SD       0.10E+00   31.3     0.00000199     -5732.6391142902 -3.93E-06
    16 OT SD       0.10E+00   31.6     0.00000202     -5732.6391182034 -3.91E-06
    17 OT SD       0.10E+00   31.4     0.00000215     -5732.6391220497 -3.85E-06
    18 OT SD       0.10E+00   31.3     0.00000263     -5732.6391256093 -3.56E-06
    19 OT SD       0.10E+00   31.3     0.00000410     -5732.6391279283 -2.32E-06
    20 OT SD       0.10E+00   31.4     0.00000770     -5732.6391249157  3.01E-06
    21 OT DIIS     0.10E+00   31.3     0.00001555     -5732.6390989320  2.60E-05
    22 OT DIIS     0.10E+00   31.3     0.00000197     -5732.6391066918 -7.76E-06
    23 OT DIIS     0.10E+00   31.4     0.00000197     -5732.6391080305 -1.34E-06
    24 OT SD       0.10E+00   31.5     0.00000197     -5732.6391231371 -1.51E-05
    25 OT SD       0.10E+00   31.4     0.00000198     -5732.6391270535 -3.92E-06
    26 OT SD       0.10E+00   31.3     0.00000199     -5732.6391309660 -3.91E-06
    27 OT SD       0.10E+00   31.1     0.00000205     -5732.6391348542 -3.89E-06
    28 OT SD       0.10E+00   31.4     0.00000228     -5732.6391386234 -3.77E-06
    29 OT SD       0.10E+00   31.4     0.00000309     -5732.6391418576 -3.23E-06
    30 OT SD       0.10E+00   31.2     0.00000533     -5732.6391427336 -8.76E-07
    31 OT SD       0.10E+00   31.1     0.00001055     -5732.6391332175  9.52E-06
    32 OT DIIS     0.10E+00   31.5     0.00002184     -5732.6390777418  5.55E-05
    33 OT DIIS     0.10E+00   31.4     0.00000197     -5732.6391109343 -3.32E-05
    34 OT DIIS     0.10E+00   31.3     0.00000197     -5732.6391142330 -3.30E-06
    35 OT SD       0.10E+00   31.3     0.00000197     -5732.6391232138 -8.98E-06
    36 OT SD       0.10E+00   31.5     0.00000197     -5732.6391271168 -3.90E-06
    37 OT SD       0.10E+00   31.3     0.00000197     -5732.6391310199 -3.90E-06
    38 OT SD       0.10E+00   31.2     0.00000198     -5732.6391349225 -3.90E-06
    39 OT SD       0.10E+00   31.4     0.00000201     -5732.6391388142 -3.89E-06
    40 OT SD       0.10E+00   31.4     0.00000214     -5732.6391426462 -3.83E-06
    41 OT SD       0.10E+00   31.3     0.00000260     -5732.6391462105 -3.56E-06
    42 OT SD       0.10E+00   31.3     0.00000400     -5732.6391486147 -2.40E-06
    43 OT SD       0.10E+00   31.1     0.00000746     -5732.6391460474  2.57E-06
    44 OT DIIS     0.10E+00   31.4     0.00001500     -5732.6391221763  2.39E-05
    45 OT SD       0.10E+00   31.4     0.00000196     -5732.6391096558  1.25E-05
    46 OT DIIS     0.10E+00   31.4     0.00000196     -5732.6391135399 -3.88E-06
    47 OT SD       0.10E+00   31.2     0.00000201     -5732.6391254488 -1.19E-05
    48 OT SD       0.10E+00   31.6     0.00000198     -5732.6391293980 -3.95E-06
    49 OT SD       0.10E+00   31.3     0.00000198     -5732.6391332915 -3.89E-06
    50 OT SD       0.10E+00   31.3     0.00000201     -5732.6391371734 -3.88E-06
    51 OT SD       0.10E+00   31.3     0.00000210     -5732.6391410118 -3.84E-06
    52 OT SD       0.10E+00   31.4     0.00000245     -5732.6391446626 -3.65E-06
    53 OT SD       0.10E+00   31.2     0.00000357     -5732.6391474748 -2.81E-06
    54 OT SD       0.10E+00   31.2     0.00000650     -5732.6391466002  8.75E-07
    55 OT DIIS     0.10E+00   31.3     0.00001313     -5732.6391293883  1.72E-05
    56 OT DIIS     0.10E+00   31.5     0.00000196     -5732.6391157028  1.37E-05
    57 OT DIIS     0.10E+00   31.4     0.00000196     -5732.6391198134 -4.11E-06
    58 OT SD       0.10E+00   31.3     0.00000196     -5732.6391255678 -5.75E-06
    59 OT SD       0.10E+00   31.2     0.00000196     -5732.6391294424 -3.87E-06
    60 OT SD       0.10E+00   31.4     0.00000196     -5732.6391333193 -3.88E-06
    61 OT SD       0.10E+00   31.4     0.00000197     -5732.6391371990 -3.88E-06
    62 OT SD       0.10E+00   31.3     0.00000198     -5732.6391410786 -3.88E-06
    63 OT SD       0.10E+00   31.2     0.00000201     -5732.6391449459 -3.87E-06
    64 OT SD       0.10E+00   31.5     0.00000215     -5732.6391487474 -3.80E-06
    65 OT SD       0.10E+00   31.3     0.00000264     -5732.6391522639 -3.52E-06
    66 OT SD       0.10E+00   31.1     0.00000406     -5732.6391545923 -2.33E-06
    67 OT SD       0.10E+00   31.2     0.00000746     -5732.6391520134  2.58E-06
    68 OT DIIS     0.10E+00   31.4     0.00001473     -5732.6391291305  2.29E-05
    69 OT SD       0.10E+00   31.3     0.00000196     -5732.6391095059  1.96E-05
    70 OT SD       0.10E+00   31.3     0.00000196     -5732.6391133618 -3.86E-06
    71 OT SD       0.10E+00   31.4     0.00000196     -5732.6391172168 -3.85E-06
    72 OT SD       0.10E+00   31.4     0.00000196     -5732.6391210703 -3.85E-06
    73 OT SD       0.10E+00   31.4     0.00000198     -5732.6391249158 -3.85E-06
    74 OT SD       0.10E+00   31.3     0.00000206     -5732.6391287225 -3.81E-06
    75 OT SD       0.10E+00   31.2     0.00000239     -5732.6391323499 -3.63E-06
    76 OT SD       0.10E+00   31.4     0.00000349     -5732.6391351667 -2.82E-06
    77 OT SD       0.10E+00   31.4     0.00000643     -5732.6391343284  8.38E-07
    78 OT DIIS     0.10E+00   31.4     0.00001313     -5732.6391170218  1.73E-05
    79 OT DIIS     0.10E+00   31.4     0.00000195     -5732.6391156720  1.35E-06
    80 OT DIIS     0.10E+00   31.6     0.00000195     -5732.6391180004 -2.33E-06
    81 OT DIIS     0.10E+00   31.5     0.00000195     -5732.6391243488 -6.35E-06
    82 OT SD       0.10E+00   31.2     0.00000195     -5732.6391259297 -1.58E-06
    83 OT SD       0.10E+00   31.3     0.00000195     -5732.6391297695 -3.84E-06
    84 OT SD       0.10E+00   31.3     0.00000196     -5732.6391336148 -3.85E-06
    85 OT SD       0.10E+00   31.3     0.00000196     -5732.6391374660 -3.85E-06
    86 OT SD       0.10E+00   31.2     0.00000197     -5732.6391413209 -3.85E-06
    87 OT SD       0.10E+00   31.4     0.00000203     -5732.6391451638 -3.84E-06
    88 OT SD       0.10E+00   31.3     0.00000221     -5732.6391489230 -3.76E-06
    89 OT SD       0.10E+00   31.4     0.00000287     -5732.6391522857 -3.36E-06
    90 OT SD       0.10E+00   31.3     0.00000471     -5732.6391539220 -1.64E-06
    91 OT SD       0.10E+00   31.2     0.00000900     -5732.6391481738  5.75E-06
    92 OT DIIS     0.10E+00   31.3     0.00001821     -5732.6391109432  3.72E-05
    93 OT SD       0.10E+00   31.4     0.00000195     -5732.6391129340 -1.99E-06
    94 OT SD       0.10E+00   31.4     0.00000195     -5732.6391167477 -3.81E-06
    95 OT SD       0.10E+00   31.3     0.00000195     -5732.6391205611 -3.81E-06
    96 OT SD       0.10E+00   31.6     0.00000195     -5732.6391243746 -3.81E-06
    97 OT SD       0.10E+00   31.4     0.00000195     -5732.6391281874 -3.81E-06
    98 OT SD       0.10E+00   31.3     0.00000197     -5732.6391319946 -3.81E-06
    99 OT SD       0.10E+00   31.3     0.00000203     -5732.6391357734 -3.78E-06
   100 OT SD       0.10E+00   31.4     0.00000227     -5732.6391394240 -3.65E-06
   101 OT SD       0.10E+00   31.2     0.00000311     -5732.6391425075 -3.08E-06
   102 OT SD       0.10E+00   31.2     0.00000544     -5732.6391430883 -5.81E-07
   103 OT DIIS     0.10E+00   31.4     0.00001085     -5732.6391326036  1.05E-05
   104 OT SD       0.10E+00   31.5     0.00000195     -5732.6391180917  1.45E-05
   105 OT DIIS     0.10E+00   31.5     0.00000194     -5732.6391218867 -3.79E-06
   106 OT DIIS     0.10E+00   31.3     0.00000193     -5732.6391266277 -4.74E-06
   107 OT SD       0.10E+00   31.2     0.00000194     -5732.6391299553 -3.33E-06
   108 OT SD       0.10E+00   31.4     0.00000194     -5732.6391337342 -3.78E-06
   109 OT SD       0.10E+00   31.4     0.00000194     -5732.6391375273 -3.79E-06
   110 OT SD       0.10E+00   31.4     0.00000195     -5732.6391413394 -3.81E-06
   111 OT SD       0.10E+00   31.3     0.00000196     -5732.6391451758 -3.84E-06
   112 OT SD       0.10E+00   31.5     0.00000197     -5732.6391490433 -3.87E-06
   113 OT SD       0.10E+00   31.5     0.00000198     -5732.6391529495 -3.91E-06
   114 OT SD       0.10E+00   31.3     0.00000200     -5732.6391569026 -3.95E-06
   115 OT SD       0.10E+00   31.4     0.00000206     -5732.6391609028 -4.00E-06
   116 OT SD       0.10E+00   31.4     0.00000222     -5732.6391649130 -4.01E-06
   117 OT SD       0.10E+00   31.3     0.00000274     -5732.6391687208 -3.81E-06
   118 OT SD       0.10E+00   31.3     0.00000424     -5732.6391713680 -2.65E-06
   119 OT SD       0.10E+00   31.4     0.00000785     -5732.6391687107  2.66E-06
   120 OT DIIS     0.10E+00   31.4     0.00001569     -5732.6391430848  2.56E-05
   121 OT SD       0.10E+00   31.4     0.00000192     -5732.6391147103  2.84E-05
   122 OT SD       0.10E+00   31.4     0.00000192     -5732.6391184284 -3.72E-06
   123 OT SD       0.10E+00   31.2     0.00000192     -5732.6391221453 -3.72E-06
   124 OT SD       0.10E+00   31.5     0.00000192     -5732.6391258614 -3.72E-06
   125 OT SD       0.10E+00   31.4     0.00000193     -5732.6391295762 -3.71E-06
   126 OT SD       0.10E+00   31.4     0.00000194     -5732.6391332840 -3.71E-06
   127 OT SD       0.10E+00   31.2     0.00000201     -5732.6391369605 -3.68E-06
   128 OT SD       0.10E+00   31.5     0.00000227     -5732.6391404982 -3.54E-06
   129 OT SD       0.10E+00   31.4     0.00000317     -5732.6391434268 -2.93E-06
   130 OT SD       0.10E+00   31.3     0.00000560     -5732.6391436797 -2.53E-07
   131 OT DIIS     0.10E+00   31.3     0.00001118     -5732.6391321515  1.15E-05
   132 OT SD       0.10E+00   31.4     0.00000195     -5732.6391219896  1.02E-05
   133 OT SD       0.10E+00   31.3     0.00000192     -5732.6391256937 -3.70E-06
   134 OT SD       0.10E+00   31.3     0.00000193     -5732.6391293353 -3.64E-06
   135 OT SD       0.10E+00   31.4     0.00000197     -5732.6391329499 -3.61E-06
   136 OT SD       0.10E+00   31.5     0.00000213     -5732.6391364833 -3.53E-06
   137 OT SD       0.10E+00   31.4     0.00000268     -5732.6391396876 -3.20E-06
   138 OT SD       0.10E+00   31.4     0.00000426     -5732.6391415206 -1.83E-06
   139 OT SD       0.10E+00   31.2     0.00000801     -5732.6391375830  3.94E-06
   140 OT DIIS     0.10E+00   31.4     0.00001609     -5732.6391091746  2.84E-05
   141 OT DIIS     0.10E+00   31.4     0.00000190     -5732.6391211951 -1.20E-05
   142 OT DIIS     0.10E+00   31.5     0.00000190     -5732.6391233016 -2.11E-06
   143 OT SD       0.10E+00   31.3     0.00000190     -5732.6391410861 -1.78E-05
   144 OT SD       0.10E+00   31.6     0.00000190     -5732.6391447163 -3.63E-06
   145 OT SD       0.10E+00   31.4     0.00000192     -5732.6391483378 -3.62E-06
   146 OT SD       0.10E+00   31.4     0.00000199     -5732.6391519300 -3.59E-06
   147 OT SD       0.10E+00   31.3     0.00000225     -5732.6391553869 -3.46E-06
   148 OT SD       0.10E+00   31.5     0.00000314     -5732.6391582508 -2.86E-06
   149 OT SD       0.10E+00   31.4     0.00000551     -5732.6391585365 -2.86E-07
   150 OT DIIS     0.10E+00   31.4     0.00001094     -5732.6391476094  1.09E-05
   151 OT SD       0.10E+00   31.4     0.00000189     -5732.6391296711  1.79E-05
   152 OT DIIS     0.10E+00   31.5     0.00000189     -5732.6391332835 -3.61E-06
   153 OT SD       0.10E+00   31.4     0.00000189     -5732.6391403675 -7.08E-06
   154 OT SD       0.10E+00   31.4     0.00000190     -5732.6391439825 -3.61E-06
   155 OT SD       0.10E+00   31.2     0.00000190     -5732.6391475971 -3.61E-06
   156 OT SD       0.10E+00   31.5     0.00000192     -5732.6391512057 -3.61E-06
   157 OT SD       0.10E+00   31.5     0.00000200     -5732.6391547796 -3.57E-06
   158 OT SD       0.10E+00   31.4     0.00000231     -5732.6391581959 -3.42E-06
   159 OT SD       0.10E+00   31.3     0.00000328     -5732.6391609348 -2.74E-06
   160 OT SD       0.10E+00   31.5     0.00000581     -5732.6391607899  1.45E-07
   161 OT DIIS     0.10E+00   31.4     0.00001147     -5732.6391483503  1.24E-05
   162 OT DIIS     0.10E+00   31.3     0.00000189     -5732.6391295357  1.88E-05
   163 OT DIIS     0.10E+00   31.4     0.00000189     -5732.6391333077 -3.77E-06
   164 OT SD       0.10E+00   31.4     0.00000190     -5732.6391540714 -2.08E-05
   165 OT SD       0.10E+00   31.3     0.00000190     -5732.6391576875 -3.62E-06
   166 OT SD       0.10E+00   31.3     0.00000190     -5732.6391612972 -3.61E-06
   167 OT SD       0.10E+00   31.4     0.00000193     -5732.6391648997 -3.60E-06
   168 OT SD       0.10E+00   31.5     0.00000204     -5732.6391684568 -3.56E-06
   169 OT SD       0.10E+00   31.4     0.00000244     -5732.6391717984 -3.34E-06
   170 OT SD       0.10E+00   31.4     0.00000370     -5732.6391741783 -2.38E-06
   171 OT SD       0.10E+00   31.2     0.00000689     -5732.6391723300  1.85E-06
   172 OT DIIS     0.10E+00   31.4     0.00001397     -5732.6391519094  2.04E-05
   173 OT DIIS     0.10E+00   31.4     0.00000189     -5732.6391325541  1.94E-05
   174 OT SD       0.10E+00   31.4     0.00000189     -5732.6391356092 -3.06E-06
   175 OT SD       0.10E+00   31.2     0.00000189     -5732.6391391922 -3.58E-06
   176 OT SD       0.10E+00   31.5     0.00000189     -5732.6391427743 -3.58E-06
   177 OT SD       0.10E+00   31.4     0.00000191     -5732.6391463511 -3.58E-06
   178 OT SD       0.10E+00   31.4     0.00000197     -5732.6391499005 -3.55E-06
   179 OT SD       0.10E+00   31.4     0.00000220     -5732.6391533330 -3.43E-06
   180 OT SD       0.10E+00   31.4     0.00000296     -5732.6391562803 -2.95E-06

  Leaving inner SCF loop after reaching   180 steps.


  Electronic density on regular grids:      -2111.9999999915        0.0000000085
  Core density on regular grids:             2111.9999999992       -0.0000000008
  Total charge density on r-space grids:        0.0000000077
  Total charge density g-space grids:           0.0000000077

  Overlap energy of the core charge distribution:               0.00000746064565
  Self energy of the core charge distribution:             -14063.09528692122331
  Core Hamiltonian energy:                                   3716.36319643473598
  Hartree energy:                                            5743.81659476341520
  Exchange-correlation energy:                              -1129.21166148754514
  Dispersion energy:                                           -0.51200653027705

  Total energy:                                             -5732.63915628025006

  outer SCF iter =   10 RMS gradient =   0.30E-05 energy =      -5732.6391562803

  ----------------------------------- OT ---------------------------------------
  Minimizer      : DIIS                : direct inversion
                                         in the iterative subspace
                                         using   7 DIIS vectors
                                         safer DIIS on
  Preconditioner : FULL_SINGLE_INVERSE : inversion of 
                                         H + eS - 2*(Sc)(c^T*H*c+const)(Sc)^T
  Precond_solver : INVERSE_UPDATE
  stepsize       :    0.10000000                  energy_gap     :    0.10000000
  eps_taylor     :   0.10000E-15                  max_taylor     :             4
  ----------------------------------- OT ---------------------------------------

  Step     Update method      Time    Convergence         Total energy    Change
  ------------------------------------------------------------------------------


     Lanczos converged:  T threshold:   0.100E-02
     Est. extremal eigenvalues:    0.103E+01   0.958E+00
     Est. condition number :    0.107E+01
     Hotelling iter   1 1.00000000   0.705E-02       1.539   276570.794



     Lanczos converged:  T threshold:   0.100E-02
     Est. extremal eigenvalues:    0.103E+01   0.967E+00
     Est. condition number :    0.106E+01
     Hotelling iter   1 1.00000000   0.623E-02       1.747   243533.937

     1 OT DIIS     0.10E+00   82.8     0.00000497     -5732.6391572251 -9.45E-07
     2 OT DIIS     0.10E+00   30.8     0.00000953     -5732.6391498644  7.36E-06
     3 OT DIIS     0.10E+00   31.2     0.00000192     -5732.6391655403 -1.57E-05
     4 OT SD       0.10E+00   31.3     0.00000190     -5732.6391667088 -1.17E-06
     5 OT SD       0.10E+00   31.3     0.00000190     -5732.6391703359 -3.63E-06
     6 OT SD       0.10E+00   31.2     0.00000190     -5732.6391739723 -3.64E-06
     7 OT SD       0.10E+00   31.1     0.00000191     -5732.6391776194 -3.65E-06
     8 OT SD       0.10E+00   31.4     0.00000193     -5732.6391812756 -3.66E-06
     9 OT SD       0.10E+00   31.5     0.00000197     -5732.6391849289 -3.65E-06
    10 OT SD       0.10E+00   31.4     0.00000214     -5732.6391885236 -3.59E-06
    11 OT SD       0.10E+00   31.4     0.00000267     -5732.6391918292 -3.31E-06
    12 OT SD       0.10E+00   31.6     0.00000414     -5732.6391939109 -2.08E-06
    13 OT SD       0.10E+00   31.5     0.00000758     -5732.6391909725  2.94E-06
    14 OT SD       0.10E+00   31.3     0.00001489     -5732.6391674547  2.35E-05
    15 OT DIIS     0.10E+00   31.4     0.00002997     -5732.6390589456  1.09E-04
    16 OT DIIS     0.10E+00   31.6     0.00000189     -5732.6391266672 -6.77E-05
    17 OT SD       0.10E+00   31.5     0.00000188     -5732.6391323018 -5.63E-06
    18 OT SD       0.10E+00   31.3     0.00000189     -5732.6391358682 -3.57E-06
    19 OT SD       0.10E+00   31.4     0.00000190     -5732.6391394305 -3.56E-06
    20 OT SD       0.10E+00   31.3     0.00000194     -5732.6391429732 -3.54E-06
    21 OT SD       0.10E+00   31.3     0.00000210     -5732.6391464371 -3.46E-06
    22 OT SD       0.10E+00   31.2     0.00000268     -5732.6391495524 -3.12E-06
    23 OT SD       0.10E+00   31.1     0.00000438     -5732.6391511654 -1.61E-06
    24 OT SD       0.10E+00   31.3     0.00000844     -5732.6391462367  4.93E-06
    25 OT DIIS     0.10E+00   31.4     0.00001726     -5732.6391128166  3.34E-05
    26 OT DIIS     0.10E+00   31.4     0.00000188     -5732.6391315380 -1.87E-05
    27 OT DIIS     0.10E+00   31.3     0.00000188     -5732.6391328537 -1.32E-06
    28 OT SD       0.10E+00   31.5     0.00000188     -5732.6391371085 -4.25E-06
    29 OT SD       0.10E+00   31.5     0.00000188     -5732.6391406525 -3.54E-06
    30 OT SD       0.10E+00   31.2     0.00000190     -5732.6391441916 -3.54E-06
    31 OT SD       0.10E+00   31.3     0.00000197     -5732.6391477031 -3.51E-06
    32 OT SD       0.10E+00   31.5     0.00000222     -5732.6391510925 -3.39E-06
    33 OT SD       0.10E+00   31.4     0.00000300     -5732.6391539755 -2.88E-06
    34 OT SD       0.10E+00   31.2     0.00000507     -5732.6391547742 -7.99E-07
    35 OT DIIS     0.10E+00   31.3     0.00000971     -5732.6391469629  7.81E-06
    36 OT DIIS     0.10E+00   31.4     0.00000187     -5732.6391353785  1.16E-05
    37 OT DIIS     0.10E+00   31.3     0.00000187     -5732.6391405378 -5.16E-06
    38 OT SD       0.10E+00   31.2     0.00000187     -5732.6391537239 -1.32E-05
    39 OT SD       0.10E+00   31.1     0.00000187     -5732.6391572543 -3.53E-06
    40 OT SD       0.10E+00   31.3     0.00000187     -5732.6391607861 -3.53E-06
    41 OT SD       0.10E+00   31.3     0.00000188     -5732.6391643186 -3.53E-06
    42 OT SD       0.10E+00   31.3     0.00000190     -5732.6391678436 -3.52E-06
    43 OT SD       0.10E+00   31.2     0.00000200     -5732.6391713265 -3.48E-06
    44 OT SD       0.10E+00   31.4     0.00000237     -5732.6391746139 -3.29E-06
    45 OT SD       0.10E+00   31.4     0.00000353     -5732.6391770426 -2.43E-06
    46 OT SD       0.10E+00   31.3     0.00000650     -5732.6391757280  1.31E-06
    47 OT DIIS     0.10E+00   31.3     0.00001311     -5732.6391581149  1.76E-05
    48 OT SD       0.10E+00   31.6     0.00000187     -5732.6391337478  2.44E-05
    49 OT DIIS     0.10E+00   31.4     0.00000187     -5732.6391372601 -3.51E-06
    50 OT SD       0.10E+00   31.3     0.00000189     -5732.6391374318 -1.72E-07
    51 OT SD       0.10E+00   31.3     0.00000188     -5732.6391409681 -3.54E-06
    52 OT SD       0.10E+00   31.3     0.00000190     -5732.6391444712 -3.50E-06
    53 OT SD       0.10E+00   31.2     0.00000198     -5732.6391479360 -3.46E-06
    54 OT SD       0.10E+00   31.2     0.00000228     -5732.6391512427 -3.31E-06
    55 OT SD       0.10E+00   31.1     0.00000323     -5732.6391539002 -2.66E-06
    56 OT SD       0.10E+00   31.3     0.00000566     -5732.6391538544  4.58E-08
    57 OT DIIS     0.10E+00   31.4     0.00001105     -5732.6391425109  1.13E-05
    58 OT DIIS     0.10E+00   31.4     0.00000186     -5732.6391323907  1.01E-05
    59 OT DIIS     0.10E+00   31.3     0.00000186     -5732.6391366452 -4.25E-06
    60 OT SD       0.10E+00   31.4     0.00000186     -5732.6391460969 -9.45E-06
    61 OT SD       0.10E+00   31.4     0.00000186     -5732.6391495940 -3.50E-06
    62 OT SD       0.10E+00   31.3     0.00000187     -5732.6391530889 -3.49E-06
    63 OT SD       0.10E+00   31.3     0.00000190     -5732.6391565744 -3.49E-06
    64 OT SD       0.10E+00   31.5     0.00000200     -5732.6391600122 -3.44E-06
    65 OT SD       0.10E+00   31.3     0.00000239     -5732.6391632400 -3.23E-06
    66 OT SD       0.10E+00   31.3     0.00000361     -5732.6391655524 -2.31E-06
    67 OT SD       0.10E+00   31.3     0.00000668     -5732.6391638995  1.65E-06
    68 OT DIIS     0.10E+00   31.4     0.00001347     -5732.6391450367  1.89E-05
    69 OT DIIS     0.10E+00   31.3     0.00000186     -5732.6391377079  7.33E-06
    70 OT DIIS     0.10E+00   31.2     0.00000186     -5732.6391410665 -3.36E-06
    71 OT SD       0.10E+00   31.1     0.00000186     -5732.6391483369 -7.27E-06
    72 OT SD       0.10E+00   31.3     0.00000186     -5732.6391518222 -3.49E-06
    73 OT SD       0.10E+00   31.4     0.00000187     -5732.6391553095 -3.49E-06
    74 OT SD       0.10E+00   31.2     0.00000188     -5732.6391587960 -3.49E-06
    75 OT SD       0.10E+00   31.2     0.00000193     -5732.6391622637 -3.47E-06
    76 OT SD       0.10E+00   31.4     0.00000214     -5732.6391656371 -3.37E-06
    77 OT SD       0.10E+00   31.4     0.00000283     -5732.6391685913 -2.95E-06
    78 OT SD       0.10E+00   31.3     0.00000473     -5732.6391697516 -1.16E-06
    79 OT SD       0.10E+00   31.4     0.00000914     -5732.6391632462  6.51E-06
    80 OT DIIS     0.10E+00   31.6     0.00001858     -5732.6391238766  3.94E-05
    81 OT DIIS     0.10E+00   31.4     0.00000185     -5732.6391391035 -1.52E-05
    82 OT SD       0.10E+00   31.3     0.00000185     -5732.6391402841 -1.18E-06
    83 OT SD       0.10E+00   31.4     0.00000185     -5732.6391437512 -3.47E-06
    84 OT SD       0.10E+00   31.3     0.00000186     -5732.6391472185 -3.47E-06
    85 OT SD       0.10E+00   31.3     0.00000186     -5732.6391506862 -3.47E-06
    86 OT SD       0.10E+00   31.2     0.00000186     -5732.6391541532 -3.47E-06
    87 OT SD       0.10E+00   31.1     0.00000188     -5732.6391576135 -3.46E-06
    88 OT SD       0.10E+00   31.3     0.00000195     -5732.6391610409 -3.43E-06
    89 OT SD       0.10E+00   31.4     0.00000224     -5732.6391643205 -3.28E-06
    90 OT SD       0.10E+00   31.3     0.00000319     -5732.6391669559 -2.64E-06
    91 OT SD       0.10E+00   31.2     0.00000569     -5732.6391667956  1.60E-07
    92 OT DIIS     0.10E+00   31.4     0.00001136     -5732.6391544900  1.23E-05
    93 OT SD       0.10E+00   31.4     0.00000185     -5732.6391421005  1.24E-05
    94 OT DIIS     0.10E+00   31.3     0.00000185     -5732.6391455543 -3.45E-06
    95 OT SD       0.10E+00   31.3     0.00000185     -5732.6391514499 -5.90E-06
    96 OT SD       0.10E+00   31.5     0.00000185     -5732.6391549038 -3.45E-06
    97 OT SD       0.10E+00   31.4     0.00000185     -5732.6391583634 -3.46E-06
    98 OT SD       0.10E+00   31.2     0.00000186     -5732.6391618304 -3.47E-06
    99 OT SD       0.10E+00   31.3     0.00000186     -5732.6391653064 -3.48E-06
   100 OT SD       0.10E+00   31.4     0.00000187     -5732.6391687913 -3.48E-06
   101 OT SD       0.10E+00   31.4     0.00000191     -5732.6391722775 -3.49E-06
   102 OT SD       0.10E+00   31.3     0.00000203     -5732.6391757249 -3.45E-06
   103 OT SD       0.10E+00   31.2     0.00000247     -5732.6391789568 -3.23E-06
   104 OT SD       0.10E+00   31.4     0.00000375     -5732.6391812222 -2.27E-06
   105 OT SD       0.10E+00   31.4     0.00000687     -5732.6391793631  1.86E-06
   106 OT DIIS     0.10E+00   31.3     0.00001365     -5732.6391600644  1.93E-05
   107 OT SD       0.10E+00   31.3     0.00000184     -5732.6391377838  2.23E-05
   108 OT SD       0.10E+00   31.5     0.00000184     -5732.6391412107 -3.43E-06
   109 OT SD       0.10E+00   31.4     0.00000184     -5732.6391446370 -3.43E-06
   110 OT SD       0.10E+00   31.4     0.00000185     -5732.6391480631 -3.43E-06
   111 OT SD       0.10E+00   31.4     0.00000185     -5732.6391514882 -3.43E-06
   112 OT SD       0.10E+00   31.6     0.00000186     -5732.6391549076 -3.42E-06
   113 OT SD       0.10E+00   31.5     0.00000192     -5732.6391582996 -3.39E-06
   114 OT SD       0.10E+00   31.3     0.00000217     -5732.6391615684 -3.27E-06
   115 OT SD       0.10E+00   31.4     0.00000301     -5732.6391642929 -2.72E-06
   116 OT SD       0.10E+00   31.4     0.00000530     -5732.6391646188 -3.26E-07
   117 OT DIIS     0.10E+00   31.3     0.00001059     -5732.6391543735  1.02E-05
   118 OT SD       0.10E+00   31.3     0.00000186     -5732.6391452169  9.16E-06
   119 OT DIIS     0.10E+00   31.2     0.00000184     -5732.6391486316 -3.41E-06
   120 OT DIIS     0.10E+00   31.4     0.00000183     -5732.6391501211 -1.49E-06
   121 OT SD       0.10E+00   31.5     0.00000183     -5732.6391572724 -7.15E-06
   122 OT SD       0.10E+00   31.4     0.00000184     -5732.6391606482 -3.38E-06
   123 OT SD       0.10E+00   31.2     0.00000185     -5732.6391640407 -3.39E-06
   124 OT SD       0.10E+00   31.5     0.00000188     -5732.6391674488 -3.41E-06
   125 OT SD       0.10E+00   31.5     0.00000197     -5732.6391708510 -3.40E-06
   126 OT SD       0.10E+00   31.4     0.00000228     -5732.6391741365 -3.29E-06
   127 OT SD       0.10E+00   31.4     0.00000323     -5732.6391768233 -2.69E-06
   128 OT SD       0.10E+00   31.6     0.00000567     -5732.6391768641 -4.08E-08
   129 OT DIIS     0.10E+00   31.4     0.00001108     -5732.6391655999  1.13E-05
   130 OT DIIS     0.10E+00   31.3     0.00000181     -5732.6391513870  1.42E-05
   131 OT DIIS     0.10E+00   31.5     0.00000181     -5732.6391516748 -2.88E-07
   132 OT SD       0.10E+00   31.4     0.00000184     -5732.6391796408 -2.80E-05
   133 OT SD       0.10E+00   31.3     0.00000183     -5732.6391829867 -3.35E-06
   134 OT SD       0.10E+00   31.3     0.00000185     -5732.6391862862 -3.30E-06
   135 OT SD       0.10E+00   31.2     0.00000196     -5732.6391895306 -3.24E-06
   136 OT SD       0.10E+00   31.5     0.00000239     -5732.6391925434 -3.01E-06
   137 OT SD       0.10E+00   31.4     0.00000372     -5732.6391945406 -2.00E-06
   138 OT SD       0.10E+00   31.6     0.00000701     -5732.6391921075  2.43E-06
   139 OT DIIS     0.10E+00   31.2     0.00001425     -5732.6391703012  2.18E-05
   140 OT SD       0.10E+00   31.5     0.00000181     -5732.6391448060  2.55E-05
   141 OT SD       0.10E+00   31.4     0.00000180     -5732.6391480854 -3.28E-06
   142 OT SD       0.10E+00   31.5     0.00000181     -5732.6391513565 -3.27E-06
   143 OT SD       0.10E+00   31.4     0.00000182     -5732.6391546221 -3.27E-06
   144 OT SD       0.10E+00   31.6     0.00000187     -5732.6391578664 -3.24E-06
   145 OT SD       0.10E+00   31.4     0.00000206     -5732.6391610193 -3.15E-06
   146 OT SD       0.10E+00   31.3     0.00000272     -5732.6391637764 -2.76E-06
   147 OT SD       0.10E+00   31.4     0.00000458     -5732.6391648311 -1.05E-06
   148 OT DIIS     0.10E+00   31.5     0.00000892     -5732.6391585303  6.30E-06
   149 OT DIIS     0.10E+00   31.3     0.00000180     -5732.6391522052  6.33E-06
   150 OT DIIS     0.10E+00   31.3     0.00000180     -5732.6391543290 -2.12E-06
   151 OT SD       0.10E+00   31.2     0.00000180     -5732.6391673450 -1.30E-05
   152 OT SD       0.10E+00   31.4     0.00000180     -5732.6391706035 -3.26E-06
   153 OT SD       0.10E+00   31.4     0.00000181     -5732.6391738610 -3.26E-06
   154 OT SD       0.10E+00   31.4     0.00000184     -5732.6391771083 -3.25E-06
   155 OT SD       0.10E+00   31.3     0.00000195     -5732.6391803054 -3.20E-06
   156 OT SD       0.10E+00   31.5     0.00000237     -5732.6391832786 -2.97E-06
   157 OT SD       0.10E+00   31.5     0.00000366     -5732.6391852819 -2.00E-06
   158 OT SD       0.10E+00   31.5     0.00000684     -5732.6391830958  2.19E-06
   159 OT DIIS     0.10E+00   31.4     0.00001382     -5732.6391627758  2.03E-05
   160 OT DIIS     0.10E+00   31.6     0.00000180     -5732.6391541917  8.58E-06
   161 OT DIIS     0.10E+00   31.4     0.00000179     -5732.6391563832 -2.19E-06
   162 OT SD       0.10E+00   31.3     0.00000180     -5732.6391676123 -1.12E-05
   163 OT SD       0.10E+00   31.4     0.00000180     -5732.6391708655 -3.25E-06
   164 OT SD       0.10E+00   31.5     0.00000180     -5732.6391741201 -3.25E-06
   165 OT SD       0.10E+00   31.4     0.00000180     -5732.6391773788 -3.26E-06
   166 OT SD       0.10E+00   31.4     0.00000180     -5732.6391806426 -3.26E-06
   167 OT SD       0.10E+00   31.2     0.00000181     -5732.6391839103 -3.27E-06
   168 OT SD       0.10E+00   31.5     0.00000184     -5732.6391871747 -3.26E-06
   169 OT SD       0.10E+00   31.4     0.00000196     -5732.6391903965 -3.22E-06
   170 OT SD       0.10E+00   31.4     0.00000238     -5732.6391934035 -3.01E-06
   171 OT SD       0.10E+00   31.3     0.00000368     -5732.6391954354 -2.03E-06
   172 OT SD       0.10E+00   31.4     0.00000691     -5732.6391931825  2.25E-06
   173 OT DIIS     0.10E+00   31.5     0.00001404     -5732.6391721926  2.10E-05
   174 OT SD       0.10E+00   31.4     0.00000179     -5732.6391509176  2.13E-05
   175 OT SD       0.10E+00   31.4     0.00000179     -5732.6391541492 -3.23E-06
   176 OT SD       0.10E+00   31.6     0.00000179     -5732.6391573804 -3.23E-06
   177 OT SD       0.10E+00   31.5     0.00000179     -5732.6391606114 -3.23E-06
   178 OT SD       0.10E+00   31.3     0.00000179     -5732.6391638424 -3.23E-06
   179 OT SD       0.10E+00   31.6     0.00000180     -5732.6391670716 -3.23E-06
   180 OT SD       0.10E+00   32.7     0.00000182     -5732.6391702920 -3.22E-06

  Leaving inner SCF loop after reaching   180 steps.


  Electronic density on regular grids:      -2111.9999999915        0.0000000085
  Core density on regular grids:             2111.9999999992       -0.0000000008
  Total charge density on r-space grids:        0.0000000077
  Total charge density g-space grids:           0.0000000077

  Overlap energy of the core charge distribution:               0.00000746064565
  Self energy of the core charge distribution:             -14063.09528692122331
  Core Hamiltonian energy:                                   3716.36310342566230
  Hartree energy:                                            5743.81662817161396
  Exchange-correlation energy:                              -1129.21161589839448
  Dispersion energy:                                           -0.51200653027705

  Total energy:                                             -5732.63917029197273
