     360
 i =        1, E =     -5732.5755421372
 Ca         2.8235104892        4.3070769911        3.2100982867
 Ca        -2.3130256202       10.0936768651        5.8484824591
 Ca        -3.4948843763        8.3559540051        2.7827632586
 Ca         2.8276660920        2.1644538181        6.3434454534
 Ca        -8.9095120348       10.4527809128        3.1032455382
 Ca        -2.5284226951        3.8252509285        6.0502742936
 Ca         8.4316345287        1.7873572956        2.5687651010
 Ca         2.3568683842        8.3300954799        6.3104836981
 Ca         6.0839411808        0.0421019960        4.8011737558
 Ca        -0.6373069281        6.5214416480        3.9332835009
 Ca        23.8942776237        0.0430638725        1.7223847589
 Ca        17.7915416487        6.4204376075        4.7034860817
  S         2.9644604462        1.2989571298        3.0571518450
  S        -3.1788425751        7.2898119840        6.3010786334
  S        -3.0778001267       11.3859285359        2.6161036289
  S         2.9231034801        5.2402084961        6.6877483000
  S         0.1720858184        3.7916506398        1.6102460960
  S        -5.9809151769        9.5475951283        4.8640099285
  S        -0.7617825716        8.5587132766        0.9122393550
  S         5.9884772514        3.2329571507        4.9173108158
  S         2.8746931721        7.3648794747        2.9704203534
  S         8.3159258810        0.5842574854        7.5544214925
  S        -3.3439946019        5.3136239507        2.8135427758
  S        -8.6993435584       11.9787376722        6.9855410631
  O         4.0535087787        0.4984687282        3.6644578739
  O        -2.4522377181        6.0842230083        6.7314666437
  O        -4.0545150657       12.2954366944        3.2499043219
  O         1.8873133189        6.1529788477        7.2214289820
  O         2.0023177790        0.3052362578        2.4880296456
  O        -4.5984739450        7.0161663719        6.1328948707
  O        -2.0307488820       12.2569831156        1.9932977044
  O         4.0566516210        6.0922072679        6.2553320682
  O         3.4187861182        2.2614813196        2.0495423859
  O        -2.6065224872        7.7898058276        4.9461637044
  O        -3.6884233803       10.4616159068        1.6497156532
  O         2.3643014937        4.5182835029        5.4646081116
  O         2.2706301286        2.0988611071        4.1193658178
  O        -2.9344461532        8.3989248513        7.2427365497
  O        -2.4003919290       10.5130536306        3.6342561457
  O         3.3125493745        4.1800729706        7.6235061922
  O         0.0883539397        2.2890088542        1.5357677125
  O        -6.8025979055        8.8083925623        5.8274351224
  O        -0.3403237926        9.9458213905        0.5735589245
  O         6.9305359297        4.1248717518        5.6232564759
  O         6.7520192389        2.2684454056        4.0687878162
  O         0.3286280988        8.0233133756        5.4418123920
  O        -6.8038621341       10.6194438049        4.2003683153
  O        -0.6034675500        2.5327924329        7.0159702895
  O         0.1489862090        4.2242779880        3.0878395365
  O        -4.7838251349       10.1778962614        5.4511378229
  O        -0.8741591223        8.3756864293        2.4211384923
  O         5.1819562560        2.3900693112        5.8376039635
  O         2.8243977073        8.2543998629        1.8231025416
  O         8.6262954338        1.8323093769        6.8770105571
  O        -2.4342547761        6.2541637242        2.0862977281
  O        -9.1307552815       10.7655675003        6.3002631994
  O         3.0617541299        8.2156061601        4.1947033094
  O         9.6664007183        0.3719928113        1.3091819910
  O        -3.6224600356        4.0951130005        2.0596861082
  O        -9.6574439219       11.7621653423        1.3920807859
  O         4.0059118170        6.3834317832        2.9373738688
  O       -14.7505868706       25.0739770185        7.9406153093
  O        -4.5786485108        6.0964488018        3.0873474533
  O        -9.7465911077       12.9503484124        7.3233824505
  O         1.6439538069        6.5230539664        3.1050405980
  O       -16.9435171128       25.1393784289        6.9087826240
  O        -2.6324114438        4.9887166091        4.0830254753
  O        -7.5119696097       12.6722084983        6.4396004085
  O         5.0871819858        4.0817404830        4.0903717476
  O         0.1243594226        9.4510255041        5.8016459090
  O        -5.5667284528        8.5816402456        3.7831337990
  O         0.4823646079        2.4607418635        6.2846557569
  O       -17.3418677754       25.2242191591        2.4090673757
  O        -0.3147928299        5.0498339250        5.7559234301
  O         0.8585537745       10.3535486784        3.6054265986
  O         9.4543538996        1.5477407206        0.4125312526
  O        -1.7616912868        2.3963951207        4.1738855943
  O        -8.3072371827       11.3270840324        1.0547310489
  H         0.4737531704        9.9308153282        4.9114022508
  H         8.9415195151        1.1299388875       -0.3000919166
  H        -1.3476448448        1.5565415700        4.4637818389
  H        -7.7541083838       12.1123562639        1.3425668081
  H         0.4822449866        9.5373874272        3.2257964660
  H         7.7524495150        0.9931471186        8.7200649838
  H        -0.9869955982        2.9222950180        3.8562327006
  H        -8.2489197448       11.5222528055        8.1854594074
  H       -16.6353180080       24.5652646029        2.2685671310
  H         0.5321441354        4.5525445766        5.6832739208
  H        -7.5101911967       13.9294479345        2.0777417548
  H        -0.1768355177        5.6228918534        6.5326113189
 Ca        -8.9433608641       16.8729443104        3.7267435812
 Ca       -15.4494574993       22.9174326427        7.0986259960
 Ca       -15.1035129363       21.2980573252        3.8477694517
 Ca        -8.5443696210       15.0182943150        6.7140957397
 Ca       -21.0148381508       23.5436727360        2.6561309081
 Ca       -14.4459664061       16.8571975928        5.4505859068
 Ca        -3.0564998209       14.5843453141        2.2987537233
 Ca        -9.4195754598       20.9892406862        5.6205099248
 Ca        -6.1003362455       12.8319696363        4.3671999766
 Ca       -11.9770804218       19.0751284618        3.2485394998
 Ca        12.3301250137       11.8091487148        1.9038223563
 Ca       -17.9877860615       19.0588235697        3.9669113328
  S        -9.6722059029       13.9392449686        3.6092620444
  S       -15.4970692315       19.9877728970        6.5825117647
  S       -14.4871954549       24.3176117489        4.0535357657
  S        -8.3937414596       17.9378506322        6.5674292864
  S       -11.6717159952       16.1447673647        1.1714930550
  S       -18.2334588383       22.1492388655        4.5530541440
  S       -12.4067799416       22.0044657182        1.6080594532
  S        -5.7486807008       15.9637803095        4.3562797507
  S        -9.1547926828       19.8226659468        2.7332006264
  S        -3.3730171986       13.4354113141        6.7383720635
  S       -14.7775566661       18.3811183043        2.7491595452
  S       -21.0543051921       24.4578276527        6.9176788802
  O        -8.8296774616       12.7686525995        3.9288889475
  O       -14.9906149352       18.6703761655        6.9480852252
  O         8.7018254871        0.0242848796        4.3481145128
  O        -8.9075018087       19.2150071237        7.0751722585
  O       -11.0610140977       13.5731039235        3.2523109434
  O       -16.4197977557       19.8993566663        5.4054510240
  O       -13.1654650598       24.9540133603        3.8014485795
  O        -7.5268509628       18.1893908933        5.3698710826
  O        -9.0455074035       14.7711437158        2.5433090712
  O       -14.3848696877       20.9051062900        6.0790816517
  O       -14.9271706140       23.5024847846        2.8892655005
  O        -9.5097909724       17.0781629537        6.0311137284
  O        -9.7597448163       14.8263797769        4.8085292511
  O       -16.1418436162       20.7173782068        7.6873452009
  O       -14.3289896028       23.3793095813        5.1915738677
  O        -7.6973201810       17.1187696404        7.5743219658
  O       -12.8209243178       15.2853628529        1.5427271117
  O       -19.0185456626       21.1079657293        5.2438654516
  O       -11.4304840182       23.2001870235        1.7139039143
  O        -4.9732879816       16.9228439485        5.1618426850
  O        -4.8654767373       14.8892378708        3.8411797280
  O       -12.0043092019       23.1143888003        7.3759702730
  O       -19.1161934138       23.2735661587        4.1334028708
  O       -12.1515226156       17.2118728227        4.7186936486
  O       -11.0975269157       16.9025192182        2.3308435377
  O       -17.1693853641       22.7417287407        5.4090468943
  O       -12.6945283584       21.4438008354        3.0357702459
  O        -6.8250855189       15.2693000413        5.1365373871
  O       -10.1435003916       19.7349934365        1.6640766395
  O        -2.9307463118       14.8211494796        6.6244730517
  O       -13.7826765132       18.5471825373        1.6827238661
  O       -20.8690035947       23.0418844541        6.6360806447
  O        -8.9055481620       21.2207856926        3.1559505200
  O        -4.7113860802       14.1432820360        0.9216599309
  O       -15.0358850064       16.9544896160        3.0515164416
  O       -19.4202589840       24.2815034215        1.3109173272
  O        -7.9023100590       19.0856655739        2.4683075721
  O        -2.3715253847       12.4658998376        6.2377432817
  O       -16.0291302954       19.1373816201        2.4991632452
  O       -22.2519286909       25.0997770173        6.3551860927
  O        -9.7669706581       19.1599435642        3.9736806919
  O        -4.7401162179       13.1806405143        6.3216857279
  O       -14.1852382718       18.9860792121        4.0171388294
  O       -19.8563209342       25.2968310761        6.7201323152
  O        -6.4271777292       16.7031792419        3.2452184899
  O       -13.0789684797       22.6907185402        7.8842495253
  O       -17.5700339498       21.5116280098        3.3707240312
  O       -12.3744275318       17.5720233408        6.0177373245
  O        -6.7813942098       13.2736832773        2.1123009207
  O       -11.7306454347       20.1235497690        5.6355383738
  O       -10.6385189856       22.9195302651        4.5477216484
  O        -4.6582020856       15.6244660663        0.9496489870
  O       -13.5615568030       14.6037043793        4.2590189640
  O       -19.3363007366       22.8045353718        1.1834784729
  H       -10.8766438430       23.6712724381        5.1328055827
  H        -5.3990421169       15.8885299196        1.5298981984
  H        10.4573821809       13.9106567236        4.9421720848
  H       -18.5891589660       22.5402313098        1.7566408353
  H       -11.4882265414       22.6836309645        4.1215095200
  H        -3.3824682656       13.2232430326        8.0784179252
  H       -12.6294501992       14.5699862035        3.9576669411
  H       -21.2440740985       24.4770078709        8.2644596278
  H        -5.9929434999       13.6328044739        1.5470841422
  H       -11.8041695139       19.2025176077        6.0231981700
  H       -18.1680656568       24.8622362090        1.8796006853
  H       -12.5866044815       20.5453464054        5.8793027716
 Ca        14.8570674844        4.3077914986        3.2094466094
 Ca         9.7214135420       10.0939562509        5.8484954875
 Ca         8.5398591046        8.3562129109        2.7825668492
 Ca        14.8619905308        2.1655657843        6.3428434346
 Ca         3.1250577836       10.4527397067        3.1030464993
 Ca         9.5054679261        3.8253323297        6.0506966922
 Ca        20.4661732683        1.7869581008        2.5685052656
 Ca        14.3912431511        8.3301208349        6.3105673014
 Ca        18.1186134699        0.0420073653        4.8011209949
 Ca        11.3973788783        6.5215542065        3.9333729850
 Ca        11.8637849711        0.0419372020        1.7238772438
 Ca         5.7572216806        6.4204914073        4.7034468332
  S        14.9988917746        1.2992116053        3.0572406881
  S         8.8554837688        7.2898100964        6.3010533973
  S         8.9566169363       11.3858975468        2.6161450646
  S        14.9573377791        5.2399810674        6.6876799052
  S        12.2113427032        3.7932335396        1.6102796753
  S         6.0534648110        9.5475378119        4.8639303811
  S        11.2723954945        8.5589565862        0.9123237387
  S        18.0228909351        3.2329764896        4.9173709952
  S        14.9091179357        7.3648980230        2.9705317336
  S        20.3503094601        0.5843894436        7.5543642284
  S         8.6904520179        5.3136452348        2.8134853571
  S         3.3350560225       11.9787637156        6.9855564398
  O        16.0873152530        0.4978934909        3.6644710159
  O         9.5819844388        6.0840870610        6.7312682980
  O         7.9799056594       12.2953245905        3.2500440654
  O        13.9216613437        6.1528507057        7.2213913775
  O        14.0363727516        0.3059642894        2.4878539477
  O         7.4358813248        7.0159635872        6.1329111007
  O        10.0035709022       12.2568285016        1.9930356831
  O        16.0909267261        6.0919774629        6.2553730315
  O        15.4533434768        2.2615393524        2.0495894840
  O         9.4278300412        7.7898598438        4.9461865786
  O         8.3458264207       10.4616387821        1.6497972184
  O        14.3990371051        4.5184419470        5.4640062153
  O        14.3049079847        2.0989431152        4.1194457420
  O         9.0999543612        8.3989024111        7.2426959401
  O         9.6340992216       10.5128743896        3.6341464982
  O        15.3469854639        4.1800447534        7.6235979880
  O        12.1150256685        2.2912837079        1.5354405667
  O         5.2316291844        8.8083898820        5.8272852692
  O        11.6941894164        9.9458900563        0.5733833635
  O        18.9648671017        4.1247536772        5.6235915368
  O        18.7864166620        2.2683816320        4.0689365954
  O        12.3633567879        8.0233480926        5.4418256811
  O         5.2305101578       10.6194883455        4.2004550238
  O        11.4296236215        2.5320202561        7.0137398058
  O        12.1827666487        4.2238234808        3.0884646539
  O         7.2504875816       10.1778438562        5.4511742339
  O        11.1605293987        8.3755343074        2.4212180976
  O        17.2160880243        2.3902601861        5.8376532937
  O        14.8587086953        8.2543258262        1.8231289108
  O        20.6604662087        1.8324685345        6.8769451866
  O         9.6002392779        6.2540176355        2.0860769768
  O         2.9035997309       10.7657254898        6.3001331719
  O        15.0960540243        8.2156687920        4.1948005238
  O        21.6979265694        0.3712503773        1.3085972927
  O         8.4117600139        4.0950976023        2.0597746601
  O         2.3769259723       11.7623229120        1.3924146817
  O        16.0405281572        6.3836543774        2.9375021709
  O        -2.7157581590       25.0746141314        7.9402777657
  O         7.4557479455        6.0963616191        3.0873426202
  O         2.2876867843       12.9503230859        7.3232391169
  O        13.6784627050        6.5230449334        3.1054724751
  O        -4.9092448163       25.1392981679        6.9091185215
  O         9.4019119547        4.9886100459        4.0830336885
  O         4.5223303797       12.6722263371        6.4394660005
  O        17.1214823464        4.0816135335        4.0903962514
  O        12.1582353540        9.4509982263        5.8015648560
  O         6.4675590365        8.5815401305        3.7830392751
  O        12.5180047436        2.4595217357        6.2861621813
  O        -5.3076661462       25.2240011600        2.4093856047
  O        11.7195409473        5.0496324398        5.7556421475
  O        12.8930706123       10.3534704652        3.6055471064
  O        21.4885681821        1.5482067569        0.4127772512
  O        10.2731166173        2.3964692843        4.1742861070
  O         3.7270148516       11.3270991656        1.0544680694
  H        12.5080984627        9.9307699064        4.9114470575
  H        20.9760091702        1.1298907587       -0.2997434377
  H        10.6868363899        1.5564813895        4.4643465721
  H         4.2803575407       12.1122167437        1.3424243610
  H        12.5165755251        9.5374362655        3.2258222090
  H        19.7868646288        0.9930127671        8.7201862576
  H        11.0472663799        2.9226531660        3.8555276160
  H         3.7854467061       11.5222505346        8.1854771515
  H        -4.6008031229       24.5654493966        2.2685187279
  H        12.5669301285        4.5529643584        5.6842353448
  H         4.5243592864       13.9295400848        2.0775664651
  H        11.8574427622        5.6224144746        6.5325931693
 Ca         3.0919686026       16.8729346549        3.7264285416
 Ca        -3.4152839908       22.9185824790        7.0984390101
 Ca        -3.0688669762       21.2980655551        3.8479304615
 Ca         3.4906321991       15.0180072364        6.7141295372
 Ca        -8.9804092044       23.5436309615        2.6564592792
 Ca        -2.4136670841       16.8561836022        5.4514199579
 Ca         8.9785829094       14.5851685436        2.2982335593
 Ca         2.6150996324       20.9894462348        5.6209848582
 Ca         5.9346788737       12.8320934385        4.3670855688
 Ca         0.0544314743       19.0740983176        3.2598201953
 Ca         0.2957124800       11.8087697952        1.9036597623
 Ca        -5.9544514670       19.0589561257        3.9668044180
  S         2.3619847158       13.9392592233        3.6090459914
  S        -3.4626212486       19.9878373054        6.5826158598
  S        -2.4529487141       24.3176502907        4.0537411025
  S         3.6407154010       17.9379209269        6.5673536744
  S         0.3600313440       16.1473223883        1.1706387219
  S        -6.1990534339       22.1492229830        4.5530793169
  S        -0.3765153926       22.0134147552        1.6063781007
  S         6.2855930342       15.9637404791        4.3563094599
  S         2.8789070923       19.8227903415        2.7329648553
  S         8.6614274547       13.4354825412        6.7381371993
  S        -2.7431612015       18.3810531107        2.7487037093
  S        -9.0200013413       24.4576005171        6.9177303514
  O         3.2046120626       12.7689114892        3.9291360521
  O        -2.9555742081       18.6703607657        6.9474013672
  O        20.7359530914        0.0242012884        4.3482720058
  O         3.1266957455       19.2149488974        7.0750982074
  O         0.9731633175       13.5733148147        3.2518623572
  O        -4.3849089099       19.8992653015        5.4052507981
  O        -1.1310556524       24.9538199536        3.8020044680
  O         4.5073485806       18.1893794813        5.3696074384
  O         2.9884455510       14.7711424813        2.5429300907
  O        -2.3505835417       20.9056751864        6.0796715792
  O        -2.8924005846       23.5018618908        2.8897398689
  O         2.5244432525       17.0783940481        6.0310197711
  O         2.2743139872       14.8268392384        4.8080613242
  O        -4.1070687371       20.7170844102        7.6877989059
  O        -2.2953757607       23.3792061645        5.1918231591
  O         4.3368636296       17.1186321860        7.5742248163
  O        -0.7852634061       15.2834707924        1.5430378496
  O        -6.9839459927       21.1079064279        5.2440302615
  O         0.6077321617       23.2027104661        1.7134275527
  O         7.0607944906       16.9229423678        5.1618415664
  O         7.1688077015       14.8892778088        3.8411504207
  O         0.0306347630       23.1137973145        7.3761274696
  O        -7.0816634103       23.2736691781        4.1334864237
  O        -0.1204319328       17.2148834063        4.7187178870
  O         0.9442011137       16.9012297663        2.3273039479
  O        -5.1348620910       22.7415099764        5.4090748848
  O        -0.6537860668       21.4360491768        3.0300039340
  O         5.2089269196       15.2692902849        5.1363365996
  O         1.8892749896       19.7353429822        1.6644675349
  O         9.1034850784       14.8213689843        6.6246990548
  O        -1.7483822802       18.5473832861        1.6822045573
  O        -8.8342395693       23.0417040423        6.6361620813
  O         3.1286113859       21.2207149289        3.1559117424
  O         7.3232108470       14.1430903589        0.9219393650
  O        -3.0006187774       16.9543401270        3.0515637819
  O        -7.3861466548       24.2816333427        1.3107957042
  O         4.1313169144       19.0857276134        2.4680393770
  O         9.6626833947       12.4654977503        6.2378912876
  O        -3.9948046265       19.1372554656        2.4995067110
  O       -10.2169332956       25.1005104605        6.3549431249
  O         2.2669261992       19.1597747025        3.9733363411
  O         7.2942418969       13.1804138888        6.3218025758
  O        -2.1513031791       18.9854995494        4.0171033321
  O        -7.8219745126       25.2965482042        6.7203874880
  O         5.6067720256       16.7031693098        3.2454162693
  O        -1.0435815529       22.6882400367        7.8837479638
  O        -5.5355570075       21.5115989830        3.3707883758
  O        -0.3404857929       17.5710086269        6.0187511437
  O         5.2529551572       13.2736489396        2.1122024664
  O         0.3045001429       20.1241296702        5.6352972418
  O         1.3957070947       22.9191353777        4.5483530912
  O         7.3760437531       15.6244467707        0.9493724038
  O        -1.5271202156       14.6037316016        4.2589144143
  O        -7.3017113031       22.8046643694        1.1836208735
  H         1.1581261010       23.6716833969        5.1327123098
  H         6.6354106484       15.8884447224        1.5298877534
  H        -1.5771302784       13.9106882875        4.9422134158
  H        -6.5546256630       22.5401227714        1.7567145464
  H         0.5462989630       22.6837812712        4.1211783745
  H         8.6518566187       13.2232698699        8.0781325622
  H        -0.5949738311       14.5697583858        3.9577911372
  H        -9.2098072026       24.4771002172        8.2645004370
  H         6.0415683566       13.6328723000        1.5471015527
  H         0.2307584412       19.2033153715        6.0228359476
  H        -6.1337754227       24.8623131032        1.8795809837
  H        -0.5517888315       20.5450726995        5.8793284969
     360
 i =        2, E =     -5732.6177255750
 Ca         2.8221410869        4.3104201067        3.2095361655
 Ca        -2.3161958302       10.0958690925        5.8604450849
 Ca        -3.5047229301        8.3627572770        2.7849090574
 Ca         2.7924553687        2.1784616237        6.3596387005
 Ca        -8.9128881056       10.4423097647        3.0940554932
 Ca        -2.4872239289        3.8109226253        6.0737603444
 Ca         8.4172375710        1.7830371893        2.5566630699
 Ca         2.3582382525        8.3291789915        6.3294684661
 Ca         6.0968229544        0.0415733034        4.7967349393
 Ca        -0.6464784699        6.5242835727        3.9337870480
 Ca        23.8952278026        0.0383676922        1.6984174784
 Ca        17.7878222818        6.4153297436        4.7090759977
  S         2.9709711761        1.2951486561        3.0490611755
  S        -3.1740654937        7.2875758384        6.3119762930
  S        -3.0769817301       11.3925338959        2.6123159000
  S         2.9196194935        5.2414644477        6.7039251531
  S         0.1675557218        3.8075813176        1.5965587647
  S        -5.9834410268        9.5514539749        4.8691414629
  S        -0.7398467267        8.5480329997        0.8960671316
  S         5.9854977133        3.2332960548        4.9249310841
  S         2.8819602308        7.3644430958        2.9610634133
  S         8.3018136028        0.5984630788        7.5892438926
  S        -3.3434615365        5.3121958577        2.8061366712
  S        -8.6895973066       11.9632651659        7.0240604761
  O         4.0594282535        0.4904344417        3.6730702698
  O        -2.4326004135        6.0804473155        6.7445830213
  O        -4.0576059027       12.3036067789        3.2576224300
  O         1.8660518881        6.1501006292        7.2390979702
  O         2.0016837196        0.2939388538        2.4774204723
  O        -4.6056080672        7.0165842538        6.1460884828
  O        -2.0241707108       12.2687507077        1.9807927243
  O         4.0571755428        6.1065318336        6.2674216341
  O         3.4332183106        2.2547046090        2.0251648867
  O        -2.6016724128        7.7942639247        4.9455315216
  O        -3.7031425117       10.4704118626        1.6355926024
  O         2.3629273821        4.5154819721        5.4713501453
  O         2.2635379941        2.1075744820        4.1074475747
  O        -2.9328150356        8.4034593905        7.2670482557
  O        -2.3864404265       10.5045010131        3.6287348288
  O         3.3227408315        4.1814736135        7.6511989914
  O         0.0876111166        2.2940754289        1.5045798276
  O        -6.8103110248        8.8122295629        5.8456633338
  O        -0.3376465895        9.9508209177        0.5480110154
  O         6.9350264373        4.1357435817        5.6289150950
  O         6.7570039863        2.2623881495        4.0695883230
  O         0.3315076533        8.0270794112        5.4615470882
  O        -6.8106584266       10.6268687548        4.1943900376
  O        -0.6230185870        2.5556799977        7.0195773275
  O         0.1445060260        4.2372710072        3.0880762147
  O        -4.7717960003       10.1822038723        5.4533408779
  O        -0.8880469964        8.3778375385        2.4166841939
  O         5.1727812793        2.3798112561        5.8491369962
  O         2.8264533613        8.2539269129        1.7998671085
  O         8.6103019487        1.8348565199        6.8726363641
  O        -2.4251097818        6.2589347139        2.0732187600
  O        -9.1346757806       10.7739346020        6.2865890653
  O         3.0799877168        8.2228329354        4.1909074628
  O         9.6640535733        0.3675746436        1.2834823033
  O        -3.6146764711        4.0869428303        2.0376754737
  O        -9.6546428560       11.7410332926        1.3681276623
  O         4.0196682160        6.3755463316        2.9202974482
  O       -14.7436947991       25.0946100740        7.9490362448
  O        -4.5880185482        6.1029893492        3.0730175184
  O        -9.7507394923       12.9420798166        7.3304791330
  O         1.6394035657        6.5201064842        3.0954867439
  O       -16.9353802810       25.1314741071        6.9179778622
  O        -2.6240978711        4.9893023655        4.0845987572
  O        -7.5188617098       12.6733445085        6.4433776381
  O         5.0760787370        4.0841824211        4.0885993384
  O         0.1067920605        9.4572041806        5.8109368477
  O        -5.5724981513        8.5760945615        3.7777594771
  O         0.4845856599        2.4626280137        6.2980115680
  O       -17.3470325753       25.2192058158        2.4093154336
  O        -0.3064839949        5.0618629217        5.7471966527
  O         0.8493106915       10.3520654621        3.6058534042
  O         9.4644346269        1.5399361165        0.3963895976
  O        -1.7532004488        2.3839818892        4.1594807749
  O        -8.3124460268       11.3206641521        1.0351652501
  H         0.4611908668        9.9394245406        4.9126795898
  H         8.9265983953        1.1392787084       -0.3110840078
  H        -1.3431329923        1.5492308684        4.4807868148
  H        -7.7442947039       12.1040110550        1.3162284490
  H         0.4759899332        9.5370175050        3.2108840193
  H         7.7372126777        0.9989003182        8.7502239418
  H        -0.9871439852        2.9351171015        3.8533398194
  H        -8.2377651863       11.5081659202        8.2165008395
  H       -16.6282668645       24.5689396952        2.2718745245
  H         0.5271737696        4.5288979708        5.6890985863
  H        -7.5139655998       13.9322260603        2.0767264284
  H        -0.1775426734        5.6211361449        6.5404204304
 Ca        -8.9495618356       16.8680867302        3.7333687271
 Ca       -15.3889239667       22.8941546317        7.1313930966
 Ca       -15.0978887056       21.3115473867        3.8616682476
 Ca        -8.5299798667       15.0320219493        6.7284811056
 Ca       -21.0137039595       23.5291098897        2.6176765237
 Ca       -14.3830101927       16.8565688108        5.4438180036
 Ca        -3.0743168090       14.5949882579        2.2682649038
 Ca        -9.4415695636       20.9942946839        5.6340418960
 Ca        -6.1145474142       12.8394129292        4.3458081175
 Ca       -11.9808363143       19.0794736265        3.2820395736
 Ca        12.3426318968       11.8163157415        1.8873595628
 Ca       -17.9866390712       19.0564371845        3.9640705425
  S        -9.6752492041       13.9333824777        3.6144846183
  S       -15.5035127318       19.9824398237        6.5894316371
  S       -14.4919543777       24.3295981557        4.0466819406
  S        -8.3897182913       17.9446895222        6.5816891445
  S       -11.6444924375       16.1186048023        1.1563502850
  S       -18.2320425357       22.1498066138        4.5571864527
  S       -12.4194526751       22.0126797864        1.5911955654
  S        -5.7465807301       15.9611430476        4.3600941028
  S        -9.1444072606       19.8234002863        2.7250225809
  S        -3.3795675806       13.4298259399        6.7752630392
  S       -14.7877473770       18.3823248967        2.7358772232
  S       -21.0533442516       24.4567765055        6.9573550335
  O        -8.8238602990       12.7595443372        3.9481184382
  O       -14.9766925211       18.6668438051        6.9690248660
  O         8.6884083147        0.0381721368        4.3614661648
  O        -8.9240522509       19.2208216522        7.1018043655
  O       -11.0742575881       13.5742491006        3.2502663943
  O       -16.4237385908       19.8933748392        5.3962886647
  O       -13.1567473976       24.9631063499        3.7996637172
  O        -7.5264051048       18.1968984834        5.3698367653
  O        -9.0426678522       14.7628701160        2.5337970750
  O       -14.3883005854       20.9092071521        6.0802922099
  O       -14.9378499564       23.5205147220        2.8644153258
  O        -9.5076852226       17.0698225217        6.0430700365
  O        -9.7665585268       14.8332590342        4.8214455225
  O       -16.1577580925       20.7140426717        7.7016594497
  O       -14.3255980762       23.3698774458        5.1803192462
  O        -7.6820743447       17.1238432957        7.5957146222
  O       -12.8382576975       15.2932732687        1.5196189044
  O       -19.0232760866       21.0986993788        5.2518854321
  O       -11.4011216525       23.1907968100        1.7030213179
  O        -4.9713128872       16.9314976869        5.1708753036
  O        -4.8528590274       14.8785750715        3.8544045477
  O       -12.0086604316       23.0753361448        7.3673873090
  O       -19.1240789826       23.2798259871        4.1382851490
  O       -12.1519380979       17.2019292382        4.7238765059
  O       -11.1089158069       16.9167244587        2.3231850957
  O       -17.1503246037       22.7485321422        5.4069060233
  O       -12.7063145916       21.4222436288        3.0219161263
  O        -6.8453326443       15.2600635560        5.1293614268
  O       -10.1406605641       19.7417194712        1.6495945483
  O        -2.9316811281       14.8216396541        6.6351292113
  O       -13.7781084915       18.5457764918        1.6688019530
  O       -20.8516114353       23.0415742055        6.6400073132
  O        -8.8989433866       21.2284528325        3.1612192964
  O        -4.7176501204       14.1366459801        0.8951234960
  O       -15.0441865106       16.9483357403        3.0483790145
  O       -19.4202348736       24.2858584187        1.2897093929
  O        -7.8872493928       19.0784483347        2.4534397510
  O        -2.3680115915       12.4724541013        6.2431610068
  O       -16.0426939830       19.1487562849        2.4779083843
  O       -22.2327519551       25.1005957015        6.3479098290
  O        -9.7590907532       19.1562125934        3.9733522849
  O        -4.7472601275       13.1762875491        6.3282236046
  O       -14.1967036176       18.9913777427        4.0132993661
  O       -19.8509103274       25.2952181437        6.7219790014
  O        -6.4307143623       16.6979822678        3.2334103027
  O       -13.1133141042       22.7045023712        7.9166329601
  O       -17.5691228990       21.5093577212        3.3594746441
  O       -12.3790597098       17.6177363127        6.0318019259
  O        -6.7708230549       13.2889635617        2.1168176716
  O       -11.7304913199       20.1115605454        5.6332215211
  O       -10.6458662914       22.9336497441        4.5419394482
  O        -4.6663807183       15.6229569472        0.9275937432
  O       -13.5642609559       14.5929673828        4.2539749934
  O       -19.3232294447       22.8089947807        1.1534174498
  H       -10.8962995642       23.6619295047        5.1586012419
  H        -5.3985226628       15.8809611465        1.5259823674
  H        10.4652834798       13.9006653433        4.9416788905
  H       -18.5918715595       22.5510304877        1.7560332381
  H       -11.4948082238       22.6795286010        4.1171888634
  H        -3.3845725372       13.2098073951        8.1083819321
  H       -12.6229119806       14.5830093777        3.9647259569
  H       -21.2583943816       24.4774817502        8.2937111106
  H        -5.9691366662       13.6556749930        1.5484255080
  H       -11.8182597439       19.1755288060        6.0113773099
  H       -18.1880622621       24.8452837926        1.8836718063
  H       -12.5811524075       20.5366367569        5.8965409289
 Ca        14.8556581577        4.3107723150        3.2090496513
 Ca         9.7180424301       10.0963414315        5.8603954460
 Ca         8.5299572571        8.3630255848        2.7847546203
 Ca        14.8272360878        2.1796212056        6.3593584442
 Ca         3.1218638833       10.4421169436        3.0939231712
 Ca         9.5464328740        3.8100217461        6.0734327088
 Ca        20.4503829771        1.7834562496        2.5567128755
 Ca        14.3927119323        8.3291656634        6.3296986133
 Ca        18.1310095133        0.0416977239        4.7972655805
 Ca        11.3879813984        6.5242945251        3.9337896082
 Ca        11.8633972701        0.0366306299        1.7003762448
 Ca         5.7535795448        6.4154589233        4.7088861212
  S        15.0057021423        1.2954948660        3.0491281754
  S         8.8603312858        7.2875821690        6.3119338601
  S         8.9574103704       11.3924486357        2.6123075992
  S        14.9542311825        5.2416983214        6.7039894856
  S        12.2124150465        3.8092527313        1.5980554721
  S         6.0508952310        9.5514502816        4.8690814562
  S        11.2946598949        8.5481744253        0.8959750509
  S        18.0197739155        3.2333680896        4.9249939035
  S        14.9164334084        7.3646441730        2.9612408638
  S        20.3360795779        0.5991561692        7.5892036723
  S         8.6909961724        5.3121449793        2.8061766343
  S         3.3447379487       11.9633014931        7.0239210367
  O        16.0935042042        0.4899290127        3.6730216132
  O         9.6017474104        6.0802748650        6.7442888424
  O         7.9769166375       12.3033831270        3.2579329290
  O        13.9002495714        6.1499594581        7.2389596101
  O        14.0356474169        0.2952686673        2.4766654276
  O         7.4287957271        7.0164495761        6.1461361649
  O        10.0101780647       12.2684134961        1.9805326230
  O        16.0918020720        6.1067337433        6.2674618221
  O        15.4682202591        2.2546598591        2.0251519073
  O         9.4326475410        7.7943243085        4.9455196631
  O         8.3310085962       10.4702658575        1.6357437051
  O        14.3973929325        4.5157883988        5.4714582999
  O        14.2978694756        2.1076004751        4.1073280170
  O         9.1015744505        8.4034072503        7.2670398407
  O         9.6480268252       10.5041459175        3.6285177206
  O        15.3572224415        4.1815368411        7.6510776590
  O        12.1078790947        2.2973551610        1.5029039984
  O         5.2239168125        8.8121392573        5.8454846376
  O        11.6967493261        9.9509585389        0.5479721669
  O        18.9693209807        4.1357068768        5.6290501379
  O        18.7913012229        2.2623052919        4.0698462828
  O        12.3661044213        8.0269804603        5.4614405793
  O         5.2237064200       10.6269620842        4.1944267010
  O        11.4102253411        2.5546042421        7.0168326340
  O        12.1761741872        4.2373852683        3.0899629737
  O         7.2625434992       10.1820481732        5.4533948055
  O        11.1465170951        8.3780094391        2.4166012661
  O        17.2070111850        2.3797346180        5.8491022957
  O        14.8606690019        8.2538623370        1.7998444265
  O        20.6432920736        1.8354818004        6.8719993251
  O         9.6093438717        6.2588919539        2.0732539895
  O         2.8996435151       10.7739680895        6.2865134312
  O        15.1144288759        8.2230855738        4.1910404717
  O        21.6940287525        0.3658482333        1.2837408789
  O         8.4195307103        4.0869526954        2.0377360261
  O         2.3797921299       11.7414744134        1.3685247772
  O        16.0541853602        6.3757824609        2.9204099987
  O        -2.7083584365       25.0962053754        7.9477224127
  O         7.4465573659        6.1030921465        3.0731159056
  O         2.2835803089       12.9421182576        7.3304791735
  O        13.6740571524        6.5201283069        3.0960493905
  O        -4.9007983847       25.1312532863        6.9184325397
  O         9.4104959195        4.9891163108        4.0845872936
  O         4.5155292757       12.6733826332        6.4434290704
  O        17.1104419536        4.0840591466        4.0883852645
  O        12.1409141744        9.4570299099        5.8108415591
  O         6.4618249284        8.5761149599        3.7776683661
  O        12.5198690506        2.4599668633        6.2986657373
  O        -5.3129101852       25.2189613574        2.4096513719
  O        11.7277497625        5.0608138799        5.7481681886
  O        12.8838158945       10.3520131081        3.6059617257
  O        21.4985505072        1.5394536981        0.3969727065
  O        10.2809447479        2.3846426405        4.1602492204
  O         3.7217638822       11.3207485697        1.0348863720
  H        12.4954035914        9.9394691961        4.9126805171
  H        20.9609242554        1.1406568365       -0.3117114897
  H        10.6917435602        1.5501757711        4.4813960739
  H         4.2902441715       12.1038819093        1.3160660166
  H        12.5103038358        9.5371065813        3.2108884952
  H        19.7714603261        0.9986519462        8.7506451475
  H        11.0469339459        2.9347774290        3.8521189414
  H         3.7965417943       11.5082438819        8.2163894231
  H        -4.5939891419       24.5690655379        2.2715548331
  H        12.5623479538        4.5298840143        5.6889974322
  H         4.5206569571       13.9323310008        2.0765239255
  H        11.8562075060        5.6210982835        6.5407059334
 Ca         3.0881787788       16.8683175386        3.7329831448
 Ca        -3.3546283191       22.8947344049        7.1317731745
 Ca        -3.0630053996       21.3112856103        3.8625240273
 Ca         3.5053862036       15.0316563094        6.7281375708
 Ca        -8.9795004888       23.5292959586        2.6177783746
 Ca        -2.3528661374       16.8559013169        5.4450467578
 Ca         8.9616829729       14.5964863245        2.2671427057
 Ca         2.5948154707       20.9950647670        5.6339539787
 Ca         5.9208423203       12.8393697108        4.3456018117
 Ca         0.0536870138       19.0802794954        3.2925208836
 Ca         0.3083113257       11.8153109516        1.8873237100
 Ca        -5.9529849191       19.0567805372        3.9645719826
  S         2.3588376135       13.9335597039        3.6141984608
  S        -3.4689434993       19.9826858521        6.5894499363
  S        -2.4577264648       24.3295122678        4.0472965448
  S         3.6444354393       17.9446752949        6.5815274916
  S         0.3871304002       16.1229241761        1.1539013729
  S        -6.1974648536       22.1496945499        4.5572320496
  S        -0.3918155234       22.0250555820        1.5873093674
  S         6.2876577933       15.9612120318        4.3601704941
  S         2.8882112114       19.8234145107        2.7249501609
  S         8.6547906606       13.4299501526        6.7755564135
  S        -2.7536022646       18.3821039673        2.7357758838
  S        -9.0185705899       24.4571069861        6.9573698008
  O         3.2100508834       12.7598540145        3.9483504824
  O        -2.9414365442       18.6669695963        6.9681125751
  O        20.7224249668        0.0380265010        4.3612340698
  O         3.1100652310       19.2207692191        7.1017296791
  O         0.9597720487       13.5744649530        3.2498233187
  O        -4.3888191218       19.8935247581        5.3961234004
  O        -1.1226067528       24.9630441677        3.8000789516
  O         4.5076679679       18.1970257739        5.3697472098
  O         2.9911703721       14.7627679126        2.5331387062
  O        -2.3538786780       20.9096245052        6.0800594362
  O        -2.9025641538       23.5196584432        2.8650724156
  O         2.5261454569       17.0699721811        6.0428821403
  O         2.2672031830       14.8339528431        4.8208827970
  O        -4.1231087426       20.7134148516        7.7021210070
  O        -2.2923799299       23.3695769574        5.1809781298
  O         4.3520602828       17.1237981956        7.5954950695
  O        -0.8006601910       15.2922881548        1.5213056671
  O        -6.9886385442       21.0985643568        5.2519386860
  O         0.6378112115       23.1934059325        1.7026884078
  O         7.0626098039       16.9316325342        5.1710475688
  O         7.1811994548       14.8786788908        3.8542843216
  O         0.0278165300       23.0714751159        7.3660701302
  O        -7.0895115710       23.2796871355        4.1383381263
  O        -0.1207402589       17.2015639810        4.7256214404
  O         0.9339648554       16.9142062056        2.3187117723
  O        -5.1155498001       22.7484011569        5.4067478451
  O        -0.6619109362       21.4156832152        3.0138005303
  O         5.1885756250       15.2600474216        5.1291399915
  O         1.8910660352       19.7422949419        1.6501761725
  O         9.1026226531       14.8216295404        6.6347062589
  O        -1.7428382257       18.5462095065        1.6700087303
  O        -8.8169684956       23.0419571559        6.6398593034
  O         3.1344708933       21.2282185604        3.1614104974
  O         7.3168872273       14.1363443285        0.8956462204
  O        -3.0087480519       16.9477448189        3.0480463028
  O        -7.3859535405       24.2858221867        1.2897013612
  O         4.1452631549       19.0784499305        2.4529693113
  O         9.6662171991       12.4726456542        6.2430487645
  O        -4.0086859414       19.1479213375        2.4774123071
  O       -10.1968850793       25.1014612869        6.3464593080
  O         2.2756312085       19.1559219943        3.9743492235
  O         7.2872082492       13.1762192904        6.3281219165
  O        -2.1638358834       18.9913391865        4.0138283451
  O        -7.8155292686       25.2947068349        6.7223484535
  O         5.6031607662       16.6979357751        3.2335400435
  O        -1.0770785412       22.7013497443        7.9162228508
  O        -5.5344209125       21.5093779627        3.3594644476
  O        -0.3466587617       17.6165753448        6.0333351759
  O         5.2634996144       13.2888548625        2.1166217636
  O         0.3031358867       20.1113075745        5.6328968696
  O         1.3888253634       22.9332141785        4.5428448447
  O         7.3676462036       15.6228494417        0.9270753777
  O        -1.5296661890       14.5933455775        4.2540053988
  O        -7.2887777164       22.8089595860        1.1534684092
  H         1.1384207622       23.6622672183        5.1583550195
  H         6.6359834804       15.8808546368        1.5260356107
  H        -1.5692574056       13.9008388878        4.9415485349
  H        -6.5573324955       22.5513293167        1.7561461975
  H         0.5401657412       22.6801750135        4.1172979686
  H         8.6497462920       13.2097039167        8.1086237285
  H        -0.5883234607       14.5821271304        3.9649896601
  H        -9.2247525684       24.4772802695        8.2937561032
  H         6.0655634473       13.6556712969        1.5485163594
  H         0.2180049089       19.1762839241        6.0128688527
  H        -6.1538090740       24.8452858659        1.8836615428
  H        -0.5468009461       20.5376064689        5.8971750138
     360
 i =        3, E =     -5732.6300316361
 Ca         2.8292332481        4.3073028566        3.2171726408
 Ca        -2.3192607890       10.1033963859        5.8645191415
 Ca        -3.5075703477        8.3634814616        2.7922459050
 Ca         2.7925593487        2.1757322421        6.3547131882
 Ca        -8.9105523815       10.4365846945        3.0916181713
 Ca        -2.4768386394        3.8098564726        6.0730678232
 Ca         8.4127950214        1.7797539465        2.5479837734
 Ca         2.3571351565        8.3319718620        6.3270489029
 Ca         6.1004635834        0.0330883534        4.8143102865
 Ca        -0.6460807605        6.5386648927        3.9411351505
 Ca        23.8915463101        0.0406716070        1.6939672984
 Ca        17.7918223589        6.4103428111        4.7164677915
  S         2.9707362295        1.2950157791        3.0428078467
  S        -3.1730462992        7.2876286582        6.3208818974
  S        -3.0742630121       11.3949536442        2.6069881442
  S         2.9187157816        5.2454920001        6.7144132195
  S         0.1621773098        3.8161471347        1.5835210006
  S        -5.9878749259        9.5519326748        4.8731624319
  S        -0.7261198233        8.5415965713        0.8832825739
  S         5.9817589380        3.2335204009        4.9301837336
  S         2.8842812045        7.3626952338        2.9525729631
  S         8.2962263156        0.6015585194        7.5978633812
  S        -3.3420900414        5.3100750916        2.7991641268
  S        -8.6910953557       11.9656764420        7.0234171589
  O         4.0560483160        0.4879813806        3.6715424392
  O        -2.4281230281        6.0797465702        6.7515148405
  O        -4.0508299940       12.3091132165        3.2578194682
  O         1.8600912930        6.1527227346        7.2486097795
  O         2.0018224303        0.2891380738        2.4693814836
  O        -4.6060638934        7.0124586497        6.1552959877
  O        -2.0244754292       12.2777627788        1.9723854977
  O         4.0506175434        6.1242120358        6.2786456804
  O         3.4354629695        2.2557795225        2.0167036092
  O        -2.6009066983        7.7964628661        4.9503752439
  O        -3.7053905971       10.4710702466        1.6299940050
  O         2.3668299148        4.5102014399        5.4820399941
  O         2.2624080760        2.1135617361        4.1003479781
  O        -2.9284079587        8.4100847543        7.2725239844
  O        -2.3873559463       10.4992884669        3.6237858362
  O         3.3232243288        4.1808077366        7.6588510805
  O         0.0872953404        2.3011014962        1.4879451196
  O        -6.8126583916        8.8164229074        5.8581049372
  O        -0.3334977643        9.9489586715        0.5346489961
  O         6.9301375617        4.1419304142        5.6318098571
  O         6.7566492220        2.2622395498        4.0716042722
  O         0.3316532213        8.0285012689        5.4688828412
  O        -6.8130546042       10.6297236014        4.1941931810
  O        -0.6320061828        2.5649841097        7.0272595775
  O         0.1429317764        4.2372003784        3.0803851377
  O        -4.7723034643       10.1853749284        5.4509603455
  O        -0.8855337300        8.3855323916        2.4063006012
  O         5.1674006325        2.3778480914        5.8542014491
  O         2.8278032036        8.2604513919        1.7942773071
  O         8.5989045703        1.8441088901        6.8820533061
  O        -2.4172644488        6.2614844095        2.0728349350
  O        -9.1333203844       10.7626412859        6.3006036891
  O         3.0830412648        8.2227131805        4.1836447389
  O         9.6610056921        0.3644341207        1.2720536765
  O        -3.6115464385        4.0825293832        2.0280702011
  O        -9.6514744114       11.7309244045        1.3544488582
  O         4.0233308256        6.3717823017        2.9119343302
  O       -14.7428705566       25.1063285009        7.9650465139
  O        -4.5894549569        6.1019360198        3.0650989633
  O        -9.7497302155       12.9428410418        7.3544745891
  O         1.6398514487        6.5159977629        3.0902593595
  O       -16.9344144828       25.1223278240        6.9292313601
  O        -2.6239319759        4.9877235950        4.0810386411
  O        -7.5091212093       12.6735727482        6.4575313011
  O         5.0706202194        4.0853290861        4.0901254904
  O         0.1037789397        9.4604947798        5.8102040980
  O        -5.5794208971        8.5711707164        3.7801472228
  O         0.4768149939        2.4682910891        6.3052776342
  O       -17.3535506070       25.2127539988        2.4080906772
  O        -0.3038605916        5.0540494940        5.7497559612
  O         0.8476843936       10.3528519233        3.5994141868
  O         9.4641231049        1.5377267424        0.3868942745
  O        -1.7472148176        2.3840910175        4.1646765195
  O        -8.3076843128       11.3152975634        1.0261156171
  H         0.4511255801        9.9411128621        4.9052730215
  H         8.9185011689        1.1449727537       -0.3181630685
  H        -1.3379237599        1.5494385815        4.4803169017
  H        -7.7437355390       12.1013016712        1.3005901869
  H         0.4687493661        9.5394961791        3.2106842641
  H         7.7329362489        1.0030286634        8.7592683557
  H        -0.9874526182        2.9336637917        3.8476079956
  H        -8.2393965958       11.5005200548        8.2124755147
  H       -16.6294029260       24.5679234748        2.2724234344
  H         0.5284125527        4.5248024272        5.6920327644
  H        -7.5119652607       13.9365611626        2.0761102260
  H        -0.1734180056        5.6190540945        6.5373127456
 Ca        -8.9417129392       16.8706271739        3.7467363409
 Ca       -15.3714385800       22.8988808526        7.1436544585
 Ca       -15.1138362944       21.3229735632        3.8684420680
 Ca        -8.5217725261       15.0237754178        6.7432554880
 Ca       -21.0103463250       23.5179517619        2.6116109515
 Ca       -14.3900599918       16.8405288739        5.4465625480
 Ca        -3.0698758410       14.6002636008        2.2674154079
 Ca        -9.4370323481       20.9997392519        5.6387651116
 Ca        -6.1193946683       12.8443806831        4.3620438225
 Ca       -11.9841725121       19.0813934820        3.2935529324
 Ca        12.3415931978       11.8154633448        1.8809979546
 Ca       -17.9872925890       19.0599527012        3.9661964589
  S        -9.6769664339       13.9306089665        3.6177063989
  S       -15.5048369556       19.9749050217        6.5957129815
  S       -14.4912285393       24.3348259256        4.0405889835
  S        -8.3894279768       17.9502252321        6.5904525697
  S       -11.6363169628       16.1099063466        1.1539331992
  S       -18.2322353043       22.1483309482        4.5609119323
  S       -12.4273808450       22.0142968346        1.5698022007
  S        -5.7447329619       15.9612565224        4.3613759054
  S        -9.1406495960       19.8245373149        2.7185482791
  S        -3.3793922640       13.4308791840        6.7864003956
  S       -14.7936135365       18.3828001481        2.7252499631
  S       -21.0481409770       24.4550555319        6.9615887413
  O        -8.8286055963       12.7509261093        3.9462196079
  O       -14.9748498662       18.6591742179        6.9748801179
  O         8.6907588538        0.0458030900        4.3626263106
  O        -8.9249135289       19.2276932020        7.1113398205
  O       -11.0764550737       13.5694393503        3.2482255710
  O       -16.4206231926       19.8840059392        5.3966121613
  O       -13.1550753761       24.9713848786        3.7924254010
  O        -7.5293238248       18.2071134291        5.3753382111
  O        -9.0453514000       14.7613631010        2.5325584704
  O       -14.3874100201       20.9095236298        6.0927898423
  O       -14.9416148667       23.5256576219        2.8559772554
  O        -9.5049170728       17.0635953930        6.0548596152
  O        -9.7691783552       14.8361127866        4.8247095296
  O       -16.1589706320       20.7114641621        7.7078582521
  O       -14.3218687810       23.3680717316        5.1715467861
  O        -7.6787692076       17.1248511501        7.6022964261
  O       -12.8460121524       15.2945561198        1.4959430516
  O       -19.0238540838       21.0942212431        5.2569558728
  O       -11.3944873559       23.1822641790        1.6986162445
  O        -4.9749773545       16.9354533484        5.1741379817
  O        -4.8504669948       14.8767528485        3.8543475442
  O       -12.0146489283       23.0537749248        7.3655788031
  O       -19.1216822502       23.2814666351        4.1362104131
  O       -12.1428204819       17.2095551187        4.7276994209
  O       -11.1111522390       16.9214055550        2.3184992803
  O       -17.1445749288       22.7505480759        5.4046257983
  O       -12.7027248843       21.4261987175        3.0057347989
  O        -6.8504634859       15.2546790084        5.1249797104
  O       -10.1437377736       19.7438251149        1.6464953111
  O        -2.9333992049       14.8257024090        6.6480715578
  O       -13.7713676280       18.5470693397        1.6672125546
  O       -20.8473969621       23.0352496418        6.6513938822
  O        -8.8949262774       21.2296787628        3.1622543877
  O        -4.7298395669       14.1354356768        0.8840596536
  O       -15.0505284774       16.9475351935        3.0437632412
  O       -19.4111888674       24.2893125405        1.2786536007
  O        -7.8840537743       19.0761614560        2.4428876136
  O        -2.3680822846       12.4688041547        6.2530896760
  O       -16.0490633753       19.1513738772        2.4652474115
  O       -22.2324079327       25.1009728618        6.3585894711
  O        -9.7563234573       19.1536644456        3.9681465537
  O        -4.7488838194       13.1745413790        6.3404446966
  O       -14.2036701073       18.9885221020        4.0084568605
  O       -19.8468769143       25.3029818232        6.7432351064
  O        -6.4231322034       16.6947136455        3.2235297289
  O       -13.1151336914       22.7058830420        7.9389528799
  O       -17.5727734211       21.5087778802        3.3555060604
  O       -12.3583194401       17.6421929255        6.0387298449
  O        -6.7692100817       13.2929911867        2.1060415260
  O       -11.7312088554       20.1076177117        5.6351411822
  O       -10.6576048510       22.9370391976        4.5463926380
  O        -4.6773312961       15.6219252975        0.9094542734
  O       -13.5609940903       14.5906911620        4.2547012095
  O       -19.3112997900       22.8133658968        1.1364106914
  H       -10.9014613381       23.6595132060        5.1690958901
  H        -5.4010627799       15.8770416696        1.5205147064
  H        10.4622454518       13.8950291339        4.9388719647
  H       -18.5913895980       22.5548824390        1.7528874798
  H       -11.4983780801       22.6786856126        4.1131465094
  H        -3.3893611690       13.2030650810        8.1182699493
  H       -12.6214320772       14.5876091078        3.9657200091
  H       -21.2626449027       24.4788849014        8.2967699579
  H        -5.9590960318       13.6673436657        1.5443720751
  H       -11.8286785101       19.1616014295        6.0033554857
  H       -18.1974856545       24.8384297955        1.8785365469
  H       -12.5794646406       20.5301704759        5.9076179611
 Ca        14.8647172122        4.3072335825        3.2176397802
 Ca         9.7145786871       10.1035460069        5.8645592669
 Ca         8.5265661001        8.3633259870        2.7923935383
 Ca        14.8269145542        2.1757029205        6.3553554582
 Ca         3.1240388008       10.4365762044        3.0916241090
 Ca         9.5578290301        3.8088759011        6.0722747194
 Ca        20.4455501935        1.7800220214        2.5480238874
 Ca        14.3915786800        8.3319772133        6.3272892469
 Ca        18.1349583860        0.0328754371        4.8153322035
 Ca        11.3878668294        6.5384127673        3.9417596539
 Ca        11.8569566531        0.0396586104        1.6942723249
 Ca         5.7572863384        6.4103224743        4.7162737656
  S        15.0055405358        1.2953456977        3.0426822800
  S         8.8613794351        7.2876094015        6.3207798143
  S         8.9601796039       11.3948677579        2.6069649778
  S        14.9534825489        5.2460551875        6.7146462169
  S        12.2063689417        3.8172491410        1.5858593498
  S         6.0465061834        9.5519180638        4.8731224029
  S        11.3086696264        8.5416673942        0.8832492977
  S        18.0160596198        3.2335818809        4.9302823130
  S        14.9187104554        7.3627904068        2.9527465953
  S        20.3305350175        0.6022730675        7.5972757524
  S         8.6924403880        5.3100964150        2.7991902480
  S         3.3432683742       11.9656798405        7.0232924047
  O        16.0902673371        0.4876742854        3.6714151359
  O         9.6064146169        6.0797073789        6.7512477886
  O         7.9839140930       12.3089781303        3.2581672742
  O        13.8946217148        6.1530016185        7.2487736057
  O        14.0357272422        0.2906088368        2.4682147323
  O         7.4283280391        7.0125206083        6.1552595851
  O        10.0100289636       12.2774291704        1.9721864318
  O        16.0853158078        6.1248454347        6.2788407851
  O        15.4706788446        2.2559673821        2.0167452442
  O         9.4334277576        7.7966011525        4.9502978822
  O         8.3288875900       10.4710016803        1.6300057176
  O        14.4007485113        4.5105879389        5.4829034547
  O        14.2968380819        2.1136444009        4.0999738572
  O         9.1060923981        8.4100340614        7.2724254967
  O         9.6471578249       10.4989215017        3.6235805936
  O        15.3579043283        4.1811233042        7.6587916019
  O        12.1113319429        2.3037782322        1.4862333172
  O         5.2216862337        8.8162639109        5.8579363666
  O        11.7008201101        9.9491559414        0.5346306620
  O        18.9642856740        4.1422704895        5.6316840884
  O        18.7907689559        2.2621540688        4.0717211108
  O        12.3662371968        8.0284601433        5.4686393747
  O         5.2214307305       10.6297925797        4.1941791393
  O        11.4027133694        2.5632882500        7.0270646981
  O        12.1752734499        4.2375423445        3.0827991920
  O         7.2620923724       10.1852876532        5.4509929753
  O        11.1486226032        8.3856935135        2.4062413569
  O        17.2017325213        2.3777587663        5.8542335795
  O        14.8619929982        8.2603608385        1.7943149040
  O        20.6306170397        1.8454285132        6.8814796558
  O         9.6173539598        6.2616931131        2.0730610507
  O         2.9010224732       10.7626484182        6.3005149820
  O        15.1174889515        8.2228953710        4.1837155407
  O        21.6919335884        0.3623375498        1.2721712863
  O         8.4229338246        4.0826250170        2.0280299706
  O         2.3830672055       11.7308703734        1.3545920021
  O        16.0577331292        6.3718406587        2.9120692191
  O        -2.7073646927       25.1082022589        7.9636762299
  O         7.4452005836        6.1021162478        3.0652412895
  O         2.2846984891       12.9429215918        7.3543892243
  O        13.6743078069        6.5159358143        3.0905923258
  O        -4.8999492977       25.1217817351        6.9297504332
  O         9.4109681116        4.9876351643        4.0808733554
  O         4.5253317232       12.6735228660        6.4575256425
  O        17.1049242350        4.0851981090        4.0900649935
  O        12.1379701628        9.4603260265        5.8101010479
  O         6.4550513311        8.5712861239        3.7800325215
  O        12.5100266511        2.4662338014        6.3032888273
  O        -5.3195671215       25.2126366629        2.4083893002
  O        11.7298727338        5.0538523725        5.7506244386
  O        12.8819238861       10.3530800886        3.5994789867
  O        21.4984067348        1.5370552345        0.3876344069
  O        10.2865502972        2.3843707318        4.1646622632
  O         3.7267538012       11.3153613419        1.0258951544
  H        12.4853631534        9.9410176028        4.9051986205
  H        20.9528955408        1.1467422724       -0.3188959328
  H        10.6966797810        1.5504239354        4.4810346232
  H         4.2907934305       12.1013807844        1.3003462625
  H        12.5031138509        9.5396687750        3.2106832487
  H        19.7675575347        1.0026586913        8.7593731958
  H        11.0462505632        2.9334568443        3.8465726799
  H         3.7949259686       11.5005473151        8.2123989123
  H        -4.5952337312       24.5681893973        2.2720628041
  H        12.5627991778        4.5259186969        5.6911739430
  H         4.5225043804       13.9364712780        2.0760254156
  H        11.8603804492        5.6192251184        6.5378389775
 Ca         3.0944257088       16.8708864060        3.7455977022
 Ca        -3.3363821100       22.8984503075        7.1443869561
 Ca        -3.0778558489       21.3220272637        3.8685117172
 Ca         3.5123449492       15.0237766103        6.7424476411
 Ca        -8.9755398239       23.5183098089        2.6118645212
 Ca        -2.3574407756       16.8412470197        5.4465658666
 Ca         8.9642958489       14.6010191493        2.2668367996
 Ca         2.5995086887       21.0003943866        5.6380951600
 Ca         5.9150371209       12.8443469999        4.3618167958
 Ca         0.0515695647       19.0786268195        3.2947615479
 Ca         0.3072440437       11.8153732641        1.8811722879
 Ca        -5.9520085534       19.0601072934        3.9667531986
  S         2.3571413796       13.9308400783        3.6173414629
  S        -3.4703363700       19.9750605691        6.5956605445
  S        -2.4569550934       24.3347584932        4.0410390170
  S         3.6446556208       17.9502176731        6.5902961082
  S         0.3961261179       16.1146926174        1.1510543582
  S        -6.1977053788       22.1482655223        4.5609527207
  S        -0.3967374407       22.0232082373        1.5666862054
  S         6.2898092137       15.9612933569        4.3613437854
  S         2.8925164839       19.8245899676        2.7189027801
  S         8.6550118075       13.4311465825        6.7861848903
  S        -2.7589992296       18.3826477075        2.7256653455
  S        -9.0130184944       24.4552203280        6.9609945240
  O         3.2053136071       12.7511774537        3.9463767295
  O        -2.9399017843       18.6593994502        6.9746453662
  O        20.7247892028        0.0456546897        4.3622439701
  O         3.1092524152       19.2277519371        7.1112765334
  O         0.9576077490       13.5693728269        3.2479853649
  O        -4.3862395434       19.8845629035        5.3967040261
  O        -1.1209426446       24.9714034017        3.7926992588
  O         4.5050187780       18.2073474452        5.3754775603
  O         2.9891983603       14.7609832341        2.5319859680
  O        -2.3531117052       20.9099513913        6.0925279391
  O        -2.9065290751       23.5246091046        2.8566555737
  O         2.5292669669       17.0636175021        6.0543181247
  O         2.2649134219       14.8367013024        4.8241911636
  O        -4.1246776962       20.7110545520        7.7079163398
  O        -2.2881121957       23.3682863701        5.1723642860
  O         4.3555527496       17.1248426756        7.6020002666
  O        -0.8083102948       15.2949002459        1.4987510922
  O        -6.9894616977       21.0941931009        5.2568968041
  O         0.6434044411       23.1847243149        1.6966740587
  O         7.0592942282       16.9354991753        5.1741757232
  O         7.1839811493       14.8769445563        3.8540438473
  O         0.0228059467       23.0458968057        7.3618741822
  O        -7.0872004136       23.2813605022        4.1362410776
  O        -0.1126164362       17.2071031368        4.7304090763
  O         0.9315953188       16.9188688715        2.3148175850
  O        -5.1099744119       22.7505659772        5.4045503806
  O        -0.6618146921       21.4212927180        2.9986591770
  O         5.1838876960       15.2545049654        5.1246802103
  O         1.8885863468       19.7441020792        1.6477863000
  O         9.1010833879       14.8258659150        6.6478714836
  O        -1.7358876039       18.5475864324        1.6687573862
  O        -8.8128486494       23.0353200570        6.6511352835
  O         3.1388209784       21.2297027588        3.1626159738
  O         7.3047864111       14.1351696022        0.8845676348
  O        -3.0154386053       16.9469756165        3.0432467633
  O        -7.3770526563       24.2893666770        1.2785251051
  O         4.1490203584       19.0762742161        2.4422378307
  O         9.6664687571       12.4689116864        6.2532882161
  O        -4.0149220809       19.1499512810        2.4642740857
  O       -10.1960847375       25.1018952212        6.3566348168
  O         2.2787035857       19.1536660974        3.9696852396
  O         7.2853912486       13.1746022797        6.3406243530
  O        -2.1712625841       18.9892337126        4.0097344027
  O        -7.8108537590       25.3022104035        6.7442748904
  O         5.6114488037       16.6948755508        3.2234397600
  O        -1.0785868635       22.7040660406        7.9397923491
  O        -5.5381571006       21.5087758829        3.3555052946
  O        -0.3259289603       17.6431106378        6.0406384901
  O         5.2652803032       13.2929019026        2.1059375907
  O         0.3027837373       20.1074466593        5.6363069259
  O         1.3773294465       22.9371330869        4.5470344868
  O         7.3566210617       15.6218870696        0.9088284545
  O        -1.5264827306       14.5904829439        4.2548133122
  O        -7.2769173452       22.8133957594        1.1365795267
  H         1.1333722613       23.6598916398        5.1692434316
  H         6.6334232388       15.8768796452        1.5205594711
  H        -1.5724439381       13.8950245572        4.9391432725
  H        -6.5568715446       22.5551191249        1.7529927562
  H         0.5370613758       22.6788330376        4.1129109193
  H         8.6450482067       13.2032171665        8.1180111022
  H        -0.5868671308       14.5871923571        3.9655922701
  H        -9.2292220084       24.4789253124        8.2960772357
  H         6.0756704506       13.6672905744        1.5444363067
  H         0.2061579290       19.1621931910        6.0059623914
  H        -6.1633037317       24.8383331853        1.8786258142
  H        -0.5454063130       20.5303359070        5.9088032252
