360
Lattice="24.0688 0.0 0.0 -24.185854652055536 25.348880266190136 0.0 0.0 0.0 21.72538446" Properties=species:S:1:pos:R:3:spacegroup_kinds:I:1:tags:I:1:forces:R:3 energy=-2867.88484945533 pbc="T T F"
Ca       2.83088858       4.31056267       3.22319796        0        1       0.00000290      -0.00001813       0.00001448
Ca      -2.31035684      10.09356674       5.84920325        0        1      -0.00000532       0.00002128       0.00003178
Ca      -3.48776763       8.34662003       2.79018942        0        1      -0.00000093       0.00001958       0.00001362
Ca       2.86700148       2.15730374       6.33989824        0        1       0.00000001      -0.00001880       0.00003098
Ca      -8.90135967      10.45518869       3.11676575        1        1      -0.00002324       0.00000173      -0.00001848
Ca      -2.56744877       3.84808477       6.03323172        1        1      -0.00000604      -0.00003802      -0.00001117
Ca       8.44307646       1.79258360       2.57049629        1        1       0.00002450      -0.00000148      -0.00001086
Ca       2.35414052       8.33507026       6.29120154        1        1       0.00000865       0.00004143      -0.00001029
Ca       6.07889187       0.03780760       4.82353646        2        1       0.00000116       0.00000056       0.00003981
Ca      -0.62823462       6.53235778       3.94368311        2        1       0.00000286       0.00000325      -0.00002368
Ca      23.88573285       0.04952165       1.73909235        3        1       0.00000103      -0.00000038       0.00000406
Ca      17.80115291       6.42540631       4.70654477        3        1       0.00000196      -0.00000134       0.00000321
S        2.95652106       1.30549620       3.05818137        4        1      -0.00000495      -0.00000023      -0.00000601
S       -3.18356224       7.29218981       6.29535345        4        1       0.00000640      -0.00001014      -0.00000796
S       -3.07323712      11.37793581       2.61576961        4        1       0.00001040       0.00000680      -0.00000440
S        2.92832642       5.24082319       6.67915057        4        1      -0.00000791       0.00000555      -0.00000443
S        0.17464446       3.78192810       1.61583188        5        1       0.00000532      -0.00000349       0.00000738
S       -5.98149616       9.54164839       4.86274638        5        1       0.00000253      -0.00000070      -0.00001102
S       -0.77432334       8.56266610       0.91748762        5        1      -0.00000016       0.00000667       0.00000812
S        5.98817810       3.23396939       4.91542752        5        1       0.00000151      -0.00000127      -0.00000514
S        2.86830228       7.36025847       2.97491492        6        1      -0.00001628      -0.00001479      -0.00002429
S        8.30329025       0.59883100       7.57290075        6        1       0.00002226       0.00001698       0.00004639
S       -3.34570238       5.31310530       2.81641384        6        1      -0.00000379       0.00002090      -0.00000371
S       -8.69282544      11.96938559       7.00355502        6        1      -0.00002345      -0.00001630       0.00004328
O        4.03858247       0.50350063       3.65724928        7        1      -0.00001648      -0.00000174      -0.00000364
O       -2.47122533       6.08609295       6.72111699        7        1      -0.00000301       0.00000352       0.00000280
O       -4.04234427      12.29114077       3.23940188        7        1       0.00001666       0.00000122      -0.00001119
O        1.90117202       6.15191672       7.20881179        7        1      -0.00000678       0.00000006       0.00000096
O        2.00377378       0.31160299       2.49388316        8        1       0.00000793      -0.00000074      -0.00001526
O       -4.59189606       7.01228187       6.12241205        8        1      -0.00000262       0.00000172      -0.00000114
O       -2.03902727      12.25431822       1.99928522        8        1      -0.00000739      -0.00000037      -0.00001391
O        4.05307750       6.08891185       6.24792451        8        1       0.00000541       0.00000278       0.00000353
O        3.40873685       2.26931864       2.06439239        9        1      -0.00001007      -0.00000229      -0.00000482
O       -2.61098604       7.78340044       4.94726438        9        1      -0.00000597      -0.00001516       0.00000384
O       -3.67934598      10.45671238       1.65745124        9        1       0.00001078      -0.00000184      -0.00001199
O        2.36646738       4.51665630       5.46716929        9        1       0.00000630       0.00001712      -0.00000135
O        2.27641973       2.09422320       4.12626343       10        1       0.00000776       0.00000850      -0.00000228
O       -2.93525118       8.39629831       7.22525038       10        1      -0.00000913       0.00000122       0.00001070
O       -2.41206137      10.51549792       3.63695926       10        1      -0.00001091      -0.00000841      -0.00000312
O        3.30201224       4.17528779       7.60041649       10        1      -0.00000149       0.00000595       0.00000968
O        0.08895729       2.28845052       1.55787023       11        1       0.00000466       0.00000045      -0.00001147
O       -6.79877862       8.80604551       5.81795973       11        1       0.00000535      -0.00000503      -0.00001082
O       -0.34167291       9.93980754       0.59438767       11        1       0.00000254       0.00000027      -0.00001004
O        6.92567022       4.11911370       5.61744790       11        1      -0.00000334       0.00000401      -0.00000963
O        6.74494007       2.27532308       4.06931523       12        1      -0.00001234      -0.00000598       0.00000422
O        0.32782707       8.01977432       5.42463804       12        1      -0.00003046      -0.00000341       0.00001054
O       -6.79519152      10.61317835       4.20417405       12        1       0.00000810       0.00000826      -0.00000298
O       -0.59264155       2.51911594       7.01343478       12        1       0.00002212       0.00000229       0.00000661
O        0.15128846       4.21012860       3.08377123       13        1       0.00001441      -0.00000410      -0.00001543
O       -4.79631988      10.17800217       5.44400999       13        1       0.00000015      -0.00001579      -0.00000454
O       -0.86107819       8.37944252       2.41670464       13        1      -0.00001498       0.00000683      -0.00001704
O        5.18616627       2.39520059       5.82714674       13        1       0.00000056       0.00001818       0.00000359
O        2.82391017       8.25931437       1.84614420       14        1       0.00002404      -0.00000220       0.00003074
O        8.64546013       1.80809416       6.85724728       14        1      -0.00001640      -0.00001376       0.00000536
O       -2.43825165       6.24947090       2.09935920       14        1      -0.00001612      -0.00000750       0.00000962
O       -9.13196319      10.78776170       6.28619191       14        1       0.00001951       0.00001174       0.00000605
O        3.04928381       8.21076737       4.18895243       15        1       0.00000513       0.00000800      -0.00001993
O        9.66792867       0.37471849       1.32488125       15        1      -0.00000424       0.00001205       0.00000134
O       -3.62754578       4.09859718       2.07537305       15        1      -0.00000488      -0.00000749      -0.00001965
O       -9.66445920      11.77232725       1.40534340       15        1       0.00000429      -0.00000937      -0.00000622
O        3.99710694       6.38785834       2.94802394       16        1       0.00000931      -0.00000438      -0.00000378
O      -14.77113051      25.06358328       7.89323226       16        1       0.00000517      -0.00003245      -0.00003738
O       -4.57188659       6.09043521       3.09461375       16        1       0.00000011       0.00000031      -0.00000707
O       -9.72793169      12.96061791       7.27562408       16        1      -0.00000492       0.00002797      -0.00004495
O        1.64446209       6.52345764       3.11075957       17        1      -0.00000690       0.00000750      -0.00000182
O      -16.90516814      25.14177165       6.88314683       17        1       0.00001876      -0.00001835      -0.00002252
O       -2.63860298       4.98931125       4.07783046       17        1       0.00001200      -0.00000349      -0.00000509
O       -7.54779672      12.67830930       6.41278928       17        1      -0.00001987       0.00001649      -0.00002756
O        5.09499032       4.07802711       4.09013665       18        1       0.00000075      -0.00001418       0.00000732
O        0.14226233       9.44623858       5.79130214       18        1       0.00000222      -0.00000576      -0.00001638
O       -5.56545692       8.58802061       3.78482413       18        1       0.00000003       0.00001266       0.00000233
O        0.47608592       2.46177810       6.27651494       18        1      -0.00000044      -0.00001222      -0.00001187
O      -17.34065875      25.21890496       2.40382233       19        1      -0.00000038      -0.00000061      -0.00000955
O       -0.31019927       5.03371634       5.77162323       19        1      -0.00001434       0.00000145      -0.00001295
O        0.86659161      10.35812157       3.59780747       20        1       0.00000477      -0.00000343      -0.00000414
O        9.44506718       1.55557693       0.42303590       20        1      -0.00001699       0.00000468       0.00001681
O       -1.73611552       2.39823596       4.19036185       20        1       0.00000184       0.00000386      -0.00000545
O       -8.30096560      11.33790386       1.07452155       20        1       0.00001801      -0.00000060       0.00001106
H        0.47922074       9.92228043       4.90377259       21        1      -0.00000400      -0.00000804      -0.00000257
H        8.95148158       1.12343927      -0.29179712       21        1      -0.00000092      -0.00000102       0.00000505
H       -1.36542491       1.53838257       4.46067409       21        1       0.00001258       0.00000867       0.00000411
H       -7.75194104      12.11726779       1.35771791       21        1      -0.00000238       0.00000610      -0.00000587
H        0.48452315       9.53912633       3.24324994       22        1      -0.00000150      -0.00000259      -0.00001567
H        7.74370260       1.00141193       8.74716154       22        1      -0.00002338       0.00005584       0.00000940
H       -0.99214366       2.93893763       3.84434965       22        1       0.00000250       0.00000351      -0.00001288
H       -8.23975408      11.51271427       8.20813435       22        1       0.00002007      -0.00005319       0.00000512
H      -16.63420878      24.56233370       2.26914559       23        1      -0.00002096      -0.00001023       0.00000262
H        0.54144507       4.56370234       5.67019866       23        1      -0.00001689       0.00001369       0.00001308
H       -7.50967829      13.93031989       2.08129920       23        1       0.00002245       0.00001109      -0.00000184
H       -0.18253615       5.63115497       6.52733367       23        1       0.00001378      -0.00000511       0.00001298
Ca      -8.92766275      16.88470332       3.73415200        0        1       0.00000141      -0.00001925       0.00001481
Ca     -15.49969325      22.92318203       7.07078077        0        1       0.00000085       0.00002101       0.00003428
Ca     -15.12408306      21.28855542       3.84424730        0        1      -0.00000211       0.00001789       0.00001725
Ca      -8.54764471      15.00927530       6.71768177        0        1       0.00000058      -0.00002136       0.00003033
Ca     -21.00835091      23.54140766       2.68832431        1        1      -0.00002222       0.00000128      -0.00001194
Ca     -14.50991444      16.84476405       5.46576359        1        1      -0.00001388      -0.00004075      -0.00000542
Ca      -3.03811873      14.58608209       2.33378568        1        1       0.00002342      -0.00000165      -0.00001465
Ca      -9.38529462      20.98519761       5.61701779        1        1       0.00000456       0.00004352      -0.00000544
Ca      -6.09413437      12.82721447       4.39538896        2        1       0.00000016      -0.00000113       0.00003607
Ca     -11.97513857      19.07708560       3.22179409        2        1      -0.00000251      -0.00000310      -0.00001389
Ca      12.31109374      11.80414191       1.92110511        3        1       0.00000105       0.00000119      -0.00000031
Ca     -17.99115126      19.06448643       3.97745177        3        1      -0.00000107       0.00000062       0.00000896
S       -9.67094273      13.94336398       3.60744454        4        1      -0.00000707      -0.00000129      -0.00000946
S      -15.49492643      19.99015876       6.57779884        4        1       0.00001684      -0.00002861      -0.00000582
S      -14.48358642      24.31196603       4.05409307        4        1       0.00000778       0.00000167      -0.00000369
S       -8.39638389      17.93688245       6.55668074        4        1       0.00000137      -0.00000758      -0.00000412
S      -11.68772757      16.15966445       1.18540504        5        1      -0.00000170      -0.00000251       0.00001190
S      -18.23455425      22.14345422       4.55602768        5        1      -0.00000131      -0.00000178      -0.00000602
S      -12.40513280      21.99823692       1.60567748        5        1      -0.00000293       0.00000357       0.00001326
S       -5.74942590      15.96786683       4.35873856        5        1      -0.00000591       0.00000287      -0.00000318
S       -9.15932530      19.82636163       2.73531195        6        1      -0.00000457      -0.00002150      -0.00000853
S       -3.36726421      13.43632846       6.76089659        6        1       0.00001851       0.00001236       0.00004993
S      -14.77535338      18.37690481       2.74902926        6        1       0.00000892       0.00001871      -0.00001488
S      -21.06381763      24.44871325       6.94641731        6        1      -0.00001591      -0.00001323       0.00005047
O       -8.84031442      12.77127006       3.91292103        7        1      -0.00001610      -0.00000202      -0.00001076
O      -14.99917746      18.67348461       6.92905075        7        1       0.00000011       0.00000841       0.00000102
O        8.71455392       0.01650110       4.34205821        7        1       0.00001806       0.00000030      -0.00000405
O       -8.89621450      19.21359814       7.05422086        7        1      -0.00000426       0.00000221       0.00000933
O      -11.04840625      13.56672178       3.25045239        8        1       0.00000822      -0.00000115      -0.00001650
O      -16.41289436      19.89962981       5.40920668        8        1      -0.00000601       0.00000005       0.00000804
O      -13.17172472      24.95015474       3.80065512        8        1      -0.00000702      -0.00000033      -0.00001451
O       -7.52823595      18.18702967       5.36995452        8        1       0.00000255       0.00000185       0.00000337
O       -9.05061746      14.77470120       2.54988646        9        1      -0.00001133      -0.00000084      -0.00001020
O      -14.38023264      20.90104156       6.08712223        9        1      -0.00000788      -0.00001416       0.00000340
O      -14.91732443      23.48650829       2.90761889        9        1       0.00001112       0.00000010      -0.00000323
O       -9.50899318      17.08219086       6.02694102        9        1       0.00000385       0.00001632       0.00000330
O       -9.75562326      14.82329755       4.79832533       10        1       0.00001007       0.00000776      -0.00000462
O      -16.12366863      20.72395372       7.67731630       10        1      -0.00000962       0.00000378       0.00001908
O      -14.32824901      23.39122211       5.19525964       10        1      -0.00000523      -0.00000908       0.00000033
O       -7.71379724      17.11147142       7.55395174       10        1      -0.00000102       0.00000482       0.00000711
O      -12.81037051      15.28108546       1.55221849       11        1      -0.00000098       0.00000098      -0.00000963
O      -19.01816902      21.11039504       5.23970692       11        1       0.00000247      -0.00000220      -0.00000567
O      -11.45472743      23.19945146       1.73316134       11        1      -0.00000258      -0.00000157      -0.00000713
O       -4.97348013      16.92098903       5.15372851       11        1      -0.00000608       0.00000352      -0.00000701
O       -4.87887249      14.90034856       3.82708664       12        1      -0.00000728      -0.00001061      -0.00000055
O      -12.00598059      23.13094862       7.38133003       12        1      -0.00001572      -0.00000052       0.00001311
O      -19.10012765      23.26767241       4.12598281       12        1       0.00001140       0.00000638       0.00000692
O      -12.14449839      17.21180974       4.71707993       12        1       0.00001441       0.00001021       0.00000864
O      -11.09583868      16.89557884       2.33870860       13        1       0.00001139      -0.00000883      -0.00000918
O      -17.18324111      22.74028976       5.40798477       13        1       0.00000100      -0.00001705       0.00000453
O      -12.67536017      21.46881298       3.03688429       13        1      -0.00001514       0.00000460      -0.00001054
O       -6.81146678      15.27130323       5.13776363       13        1       0.00000014       0.00001551      -0.00000027
O      -10.15052646      19.72845326       1.67988991       14        1       0.00001666       0.00000255       0.00002203
O       -2.93594932      14.80785564       6.58203585       14        1      -0.00002203      -0.00001682       0.00001392
O      -13.77703913      18.55161451       1.69912403       14        1      -0.00002171      -0.00000104       0.00002934
O      -20.88281503      23.05891744       6.59146557       14        1       0.00001618       0.00001482       0.00001537
O       -8.91092830      21.21727257       3.15434435       15        1       0.00000290       0.00000743      -0.00001805
O       -4.71714485      14.15174110       0.93671919       15        1      -0.00000077       0.00001062      -0.00000129
O      -15.03002028      16.95828612       3.05664585       15        1      -0.00000593      -0.00000902      -0.00001550
O      -19.40970100      24.27418510       1.32630985       15        1       0.00000537      -0.00001503       0.00000126
O       -7.91469898      19.08940730       2.47574318       16        1       0.00000023      -0.00000092      -0.00000111
O       -2.39465658      12.48222828       6.20476836       16        1      -0.00000031      -0.00003204      -0.00003810
O      -16.01984200      19.13373043       2.51262424       16        1      -0.00000765       0.00000202      -0.00000069
O      -22.22594905      25.09057833       6.32816043       16        1       0.00000200       0.00003742      -0.00002857
O       -9.77433892      19.16499201       3.96589823       17        1      -0.00001213       0.00000693       0.00000101
O       -4.70852322      13.19071153       6.29146320       17        1       0.00001756      -0.00002012      -0.00002479
O      -14.17874950      18.97468361       4.00974810       17        1       0.00000797      -0.00000767       0.00000279
O      -19.89287295      25.28711764       6.67960529       17        1      -0.00001184       0.00001660      -0.00002592
O       -6.41416516      16.69881021       3.24709156       18        1       0.00000011      -0.00001403       0.00000764
O      -13.05333105      22.68394266       7.86402067       18        1      -0.00000497       0.00000156      -0.00000018
O      -17.57595000      21.51959035       3.37633319       18        1      -0.00000135       0.00001442       0.00001001
O      -12.35820178      17.55180336       6.00392841       18        1       0.00000705      -0.00000381       0.00000231
O       -6.79232137      13.26568132       2.09724218       19        1       0.00000241       0.00000026      -0.00001485
O      -11.72993368      20.13265043       5.63363033       19        1       0.00001477       0.00000129      -0.00000544
O      -10.65684016      22.92247613       4.55506901       20        1       0.00000357       0.00000241      -0.00000082
O       -4.65330487      15.62732764       0.95924113       20        1      -0.00001389       0.00000507       0.00001411
O      -13.55345007      14.60500658       4.26495439       20        1      -0.00000694      -0.00000115       0.00000046
O      -19.34527079      22.79836128       1.19755691       20        1       0.00001594      -0.00000683       0.00001964
H      -10.84689080      23.68842230       5.13009453       21        1      -0.00000427      -0.00000187       0.00000348
H       -5.39963604      15.88921498       1.53100498       21        1       0.00000550      -0.00000236      -0.00000192
H       10.44436860      13.91537221       4.94645720       21        1       0.00000754       0.00000312      -0.00000265
H      -18.58895271      22.53814725       1.75657304       21        1      -0.00000224      -0.00000275       0.00000300
H      -11.48416375      22.66838933       4.10904598       22        1       0.00000078       0.00000523      -0.00000908
H       -3.38704503      13.22167065       8.10396363       22        1      -0.00002920       0.00004745       0.00000924
H      -12.63275130      14.56651375       3.94570956       22        1      -0.00000018       0.00000407      -0.00001149
H      -21.24098147      24.48703054       8.30078286       22        1       0.00003727      -0.00005158       0.00001365
H       -6.00601894      13.61334215       1.54474127       23        1      -0.00002105      -0.00001141       0.00000099
H      -11.80124683      19.22564907       6.03328006       23        1      -0.00001498       0.00000899       0.00002145
H      -18.16206802      24.88409333       1.87336992       23        1       0.00002407       0.00000715       0.00000277
H      -12.59069462      20.54291575       5.87229310       23        1       0.00001390      -0.00001056       0.00001577
Ca      14.86530985       4.31056968       3.22326776        0        1       0.00000253      -0.00001832       0.00001314
Ca       9.72399771      10.09356020       5.84919993        0        1      -0.00000445       0.00002145       0.00003174
Ca       8.54663968       8.34661948       2.79016214        0        1      -0.00000107       0.00001960       0.00001404
Ca      14.90138944       2.15731728       6.33996628        0        1       0.00000020      -0.00001908       0.00002968
Ca       3.13303918      10.45518226       3.11667822        1        1      -0.00002322       0.00000192      -0.00001692
Ca       9.46692571       3.84807474       6.03320188        1        1      -0.00000561      -0.00003786      -0.00001065
Ca      20.47744690       1.79258546       2.57055275        1        1       0.00002503      -0.00000151      -0.00001183
Ca      14.38846354       8.33508638       6.29127383        1        1       0.00001016       0.00004107      -0.00001178
Ca      18.11330815       0.03779691       4.82362378        2        1       0.00000082       0.00000078       0.00003819
Ca      11.40615988       6.53236074       3.94369861        2        1       0.00000300       0.00000318      -0.00002405
Ca      11.85137427       0.04952553       1.73911226        3        1       0.00000026      -0.00000045       0.00000364
Ca       5.76674614       6.42539016       4.70645511        3        1       0.00000209      -0.00000105       0.00000481
S       14.99094331       1.30550255       3.05825406        4        1      -0.00000526      -0.00000004      -0.00000756
S        8.85079083       7.29217971       6.29532607        4        1       0.00000725      -0.00000992      -0.00000753
S        8.96116152      11.37793363       2.61575588        4        1       0.00001031       0.00000660      -0.00000432
S       14.96271069       5.24083212       6.67922035        4        1      -0.00000773       0.00000580      -0.00000583
S       12.20909083       3.78193262       1.61585900        5        1       0.00000448      -0.00000357       0.00000683
S        6.05287815       9.54164278       4.86269748        5        1       0.00000337      -0.00000031      -0.00001026
S       11.26011663       8.56268094       0.91750963        5        1      -0.00000089       0.00000641       0.00000769
S       18.02258252       3.23397515       4.91551894        5        1       0.00000133      -0.00000147      -0.00000687
S       14.90270891       7.36026972       2.97500269        6        1      -0.00001599      -0.00001460      -0.00002566
S       20.33777631       0.59882527       7.57293871        6        1       0.00002047       0.00001743       0.00004561
S        8.68872419       5.31310552       2.81637363        6        1      -0.00000434       0.00002095      -0.00000294
S        3.34154753      11.96939456       7.00348189        6        1      -0.00002282      -0.00001649       0.00004457
O       16.07299442       0.50350293       3.65733403        7        1      -0.00001670      -0.00000183      -0.00000520
O        9.56312323       6.08608071       6.72109190        7        1      -0.00000201       0.00000373       0.00000323
O        7.99204216      12.29113370       3.23937418        7        1       0.00001688       0.00000142      -0.00001071
O       13.93555078       6.15193188       7.20886302        7        1      -0.00000648      -0.00000043      -0.00000000
O       14.03819581       0.31161397       2.49394823        8        1       0.00000751      -0.00000102      -0.00001647
O        7.44245872       7.01227298       6.12236677        8        1      -0.00000171       0.00000196      -0.00000032
O        9.99538046      12.25431947       1.99929091        8        1      -0.00000748      -0.00000034      -0.00001408
O       16.08747599       6.08890723       6.24801120        8        1       0.00000551       0.00000286       0.00000188
O       15.44317240       2.26932251       2.06446880        9        1      -0.00001076      -0.00000247      -0.00000612
O        9.42338297       7.78339640       4.94724642        9        1      -0.00000539      -0.00001507       0.00000411
O        8.35507139      10.45671083       1.65742483        9        1       0.00001053      -0.00000171      -0.00001141
O       14.40086245       4.51666532       5.46723334        9        1       0.00000640       0.00001690      -0.00000239
O       14.31083354       2.09423325       4.12632831       10        1       0.00000749       0.00000828      -0.00000343
O        9.09909110       8.39628312       7.22523178       10        1      -0.00000813       0.00000149       0.00001110
O        9.62232302      10.51549408       3.63695393       10        1      -0.00001059      -0.00000831      -0.00000306
O       15.33636980       4.17529580       7.60049667       10        1      -0.00000075       0.00000563       0.00000821
O       12.12339582       2.28845558       1.55789399       11        1       0.00000397       0.00000034      -0.00001193
O        5.23557438       8.80604335       5.81789713       11        1       0.00000609      -0.00000513      -0.00000959
O       11.69276265       9.93982674       0.59442270       11        1       0.00000191      -0.00000006      -0.00001073
O       18.96008116       4.11911732       5.61753378       11        1      -0.00000352       0.00000398      -0.00001114
O       18.77934102       2.27531837       4.06941373       12        1      -0.00001235      -0.00000587       0.00000242
O       12.36217224       8.01977592       5.42468714       12        1      -0.00002942      -0.00000341       0.00000959
O        5.23919868      10.61317624       4.20411268       12        1       0.00000826       0.00000822      -0.00000185
O       11.44171925       2.51910007       7.01342202       12        1       0.00002277       0.00000262       0.00000684
O       12.18570948       4.21013177       3.08379807       13        1       0.00001403      -0.00000416      -0.00001595
O        7.23804679      10.17798665       5.44398462       13        1       0.00000070      -0.00001556      -0.00000414
O       11.17334187       8.37945042       2.41672501       13        1      -0.00001534       0.00000664      -0.00001742
O       17.22056207       2.39522003       5.82724239       13        1       0.00000062       0.00001782       0.00000184
O       14.85832968       8.25933254       1.84623661       14        1       0.00002356      -0.00000273       0.00002868
O       20.67991759       1.80809263       6.85727910       14        1      -0.00001762      -0.00001392       0.00000487
O        9.59618218       6.24947817       2.09933833       14        1      -0.00001670      -0.00000764       0.00000994
O        2.90243053      10.78776319       6.28612045       14        1       0.00001963       0.00001170       0.00000731
O       15.08366966       8.21077187       4.18904844       15        1       0.00000542       0.00000785      -0.00002136
O       21.70227967       0.37472658       1.32490981       15        1      -0.00000333       0.00001189       0.00000085
O        8.40689811       4.09859904       2.07532401       15        1      -0.00000570      -0.00000753      -0.00001882
O        2.36992923      11.77232590       1.40526560       15        1       0.00000448      -0.00000939      -0.00000467
O       16.03151709       6.38787434       2.94811919       16        1       0.00000865      -0.00000458      -0.00000558
O       -2.73663136      25.06357645       7.89322417       16        1       0.00000352      -0.00003260      -0.00003715
O        7.46253115       6.09043009       3.09455480       16        1      -0.00000020       0.00000037      -0.00000602
O        2.30643133      12.96062195       7.27553037       16        1      -0.00000428       0.00002794      -0.00004317
O       13.67886974       6.52346448       3.11082404       17        1      -0.00000685       0.00000723      -0.00000319
O       -4.87070778      25.14176902       6.88321975       17        1       0.00001771      -0.00001816      -0.00002376
O        9.39580289       4.98931036       4.07780157       17        1       0.00001190      -0.00000345      -0.00000459
O        4.48657965      12.67832257       6.41272645       17        1      -0.00001945       0.00001621      -0.00002640
O       17.12940235       4.07803391       4.09022047       18        1       0.00000055      -0.00001432       0.00000583
O       12.17662375       9.44624439       5.79134560       18        1       0.00000292      -0.00000588      -0.00001716
O        6.46893228       8.58801475       3.78478041       18        1       0.00000014       0.00001275       0.00000314
O       12.51046498       2.46178124       6.27652808       18        1      -0.00000003      -0.00001230      -0.00001217
O       -5.30627437      25.21890837       2.40389510       19        1      -0.00000009      -0.00000068      -0.00001086
O       11.72418241       5.03372377       5.77164516       19        1      -0.00001399       0.00000134      -0.00001342
O       12.90098091      10.35812269       3.59786914       20        1       0.00000498      -0.00000350      -0.00000523
O       21.47939702       1.55558744       0.42307286       20        1      -0.00001571       0.00000445       0.00001616
O       10.29828605       2.39823359       4.19034295       20        1       0.00000180       0.00000388      -0.00000512
O        3.73342260      11.33790760       1.07443443       20        1       0.00001819      -0.00000067       0.00001270
H       12.51359154       9.92228369       4.90381058       21        1      -0.00000342      -0.00000807      -0.00000328
H       20.98579270       1.12345166      -0.29174842       21        1       0.00000069      -0.00000129       0.00000420
H       10.66897280       1.53837925       4.46065828       21        1       0.00001261       0.00000876       0.00000436
H        4.28244766      12.11727041       1.35763102       21        1      -0.00000213       0.00000603      -0.00000427
H       12.51892003       9.53913145       3.24329359       22        1      -0.00000141      -0.00000266      -0.00001662
H       19.77823343       1.00140036       8.74722282       22        1      -0.00002591       0.00005611       0.00000834
H       11.04226354       2.93893801       3.84434680       22        1       0.00000238       0.00000351      -0.00001287
H        3.79460595      11.51273572       8.20807088       22        1       0.00002086      -0.00005362       0.00000630
H       -4.59982281      24.56234202       2.26920232       23        1      -0.00002070      -0.00001039       0.00000161
H       12.57583481       4.56371951       5.67024104       23        1      -0.00001672       0.00001336       0.00001226
H        4.52473042      13.93032393       2.08121079       23        1       0.00002227       0.00001103      -0.00000022
H       11.85181725       5.63116623       6.52735692       23        1       0.00001464      -0.00000532       0.00001254
Ca       3.10674560      16.88470498       3.73407648        0        1       0.00000127      -0.00001927       0.00001623
Ca      -3.46523239      22.92317586       7.07080943        0        1      -0.00000033       0.00002113       0.00003379
Ca      -3.08967734      21.28854945       3.84426608        0        1      -0.00000222       0.00001801       0.00001695
Ca       3.48673794      15.00927868       6.71760802        0        1       0.00000096      -0.00002141       0.00003172
Ca      -8.97394496      23.54141341       2.68840598        1        1      -0.00002230       0.00000118      -0.00001347
Ca      -2.47549442      16.84475929       5.46577433        1        1      -0.00001426      -0.00004065      -0.00000555
Ca       8.99629703      14.58608316       2.33376481        1        1       0.00002312      -0.00000165      -0.00001433
Ca       2.64910380      20.98519807       5.61694961        1        1       0.00000462       0.00004353      -0.00000418
Ca       5.94023508      12.82722226       4.39531994        2        1       0.00000071      -0.00000126       0.00003730
Ca       0.05925260      19.07707775       3.22175686        2        1      -0.00000237      -0.00000295      -0.00001314
Ca       0.27668322      11.80413027       1.92104801        3        1       0.00000125       0.00000142       0.00000072
Ca      -5.95674714      19.06448207       3.97752450        3        1      -0.00000120       0.00000067       0.00000763
S        2.36345996      13.94336571       3.60736127        4        1      -0.00000713      -0.00000136      -0.00000789
S       -3.46048158      19.99015365       6.57782949        4        1       0.00001612      -0.00002874      -0.00000618
S       -2.44917802      24.31195843       4.05410936        4        1       0.00000758       0.00000194      -0.00000397
S        3.63801669      17.93688297       6.55660817        4        1       0.00000150      -0.00000786      -0.00000275
S        0.34663331      16.15966481       1.18536962        5        1      -0.00000099      -0.00000245       0.00001263
S       -6.20014595      22.14345378       4.55610402        5        1      -0.00000146      -0.00000168      -0.00000738
S       -0.37077522      21.99822686       1.60563634        5        1      -0.00000214       0.00000376       0.00001411
S        6.28496816      15.96787127       4.35867459        5        1      -0.00000584       0.00000275      -0.00000203
S        2.87506442      19.82635404       2.73523964        6        1      -0.00000451      -0.00002117      -0.00000715
S        8.66708357      13.43632764       6.76086555        6        1       0.00001923       0.00001227       0.00005045
S       -2.74097298      18.37690072       2.74904471        6        1       0.00000963       0.00001879      -0.00001531
S       -9.02936416      24.44871378       6.94650140        6        1      -0.00001674      -0.00001356       0.00004893
O        3.19409169      12.77127286       3.91283738        7        1      -0.00001620      -0.00000208      -0.00000923
O       -2.96472929      18.67347801       6.92907117        7        1      -0.00000086       0.00000865       0.00000063
O       20.74896749       0.01649052       4.34210179        7        1       0.00001781       0.00000047      -0.00000481
O        3.13818646      19.21359701       7.05415233        7        1      -0.00000432       0.00000237       0.00001067
O        0.98599743      13.56672079       3.25036975        8        1       0.00000816      -0.00000110      -0.00001496
O       -4.37846989      19.89962896       5.40925325        8        1      -0.00000651       0.00000013       0.00000716
O       -1.13732155      24.95014880       3.80065202        8        1      -0.00000710      -0.00000026      -0.00001439
O        4.50616464      18.18703381       5.36988307        8        1       0.00000253       0.00000177       0.00000470
O        2.98378507      14.77470470       2.54980478        9        1      -0.00001140      -0.00000085      -0.00000871
O       -2.34579455      20.90103424       6.08713393        9        1      -0.00000866      -0.00001399       0.00000319
O       -2.88293634      23.48650773       2.90763774        9        1       0.00001133       0.00000010      -0.00000354
O        2.52540704      17.08219349       6.02686482        9        1       0.00000386       0.00001632       0.00000472
O        2.27877572      14.82329824       4.79824273       10        1       0.00001010       0.00000776      -0.00000310
O       -4.08920225      20.72394896       7.67735889       10        1      -0.00001092       0.00000393       0.00001829
O       -2.29382069      23.39120458       5.19526595       10        1      -0.00000579      -0.00000879       0.00000030
O        4.32060204      17.11146783       7.55387678       10        1      -0.00000099       0.00000498       0.00000843
O       -0.77601068      15.28109463       1.55219910       11        1      -0.00000023       0.00000085      -0.00000923
O       -6.98375711      21.11039179       5.23978420       11        1       0.00000218      -0.00000219      -0.00000708
O        0.57962458      23.19944686       1.73310166       11        1      -0.00000171      -0.00000149      -0.00000597
O        7.06090934      16.92098769       5.15367477       11        1      -0.00000585       0.00000356      -0.00000604
O        7.15552028      14.90034824       3.82703091       12        1      -0.00000716      -0.00001060       0.00000042
O        0.02856812      23.13071101       7.38132977       12        1      -0.00001914       0.00000509       0.00001272
O       -7.06572413      23.26766960       4.12606244       12        1       0.00001132       0.00000640       0.00000545
O       -0.11009403      17.21180493       4.71704980       12        1       0.00001431       0.00001034       0.00000932
O        0.93854440      16.89557375       2.33866521       13        1       0.00001170      -0.00000875      -0.00000830
O       -5.14883327      22.74029318       5.40805913       13        1       0.00000076      -0.00001712       0.00000318
O       -0.64097300      21.46880260       3.03684909       13        1      -0.00001491       0.00000479      -0.00000983
O        5.22291290      15.27131263       5.13768529       13        1       0.00000054       0.00001537       0.00000112
O        1.88385342      19.72844206       1.67982720       14        1       0.00001704       0.00000274       0.00002327
O        9.09840446      14.80785416       6.58201276       14        1      -0.00002110      -0.00001687       0.00001427
O       -1.74267703      18.55160574       1.69912130       14        1      -0.00002115      -0.00000089       0.00002961
O       -8.84843673      23.05890951       6.59154460       14        1       0.00001652       0.00001515       0.00001396
O        3.12347543      21.21726600       3.15425800       15        1       0.00000283       0.00000748      -0.00001646
O        7.31728898      14.15173572       0.93667694       15        1      -0.00000141       0.00001074      -0.00000056
O       -2.99563523      16.95828312       3.05667077       15        1      -0.00000567      -0.00000899      -0.00001588
O       -7.37530919      24.27418921       1.32637615       15        1       0.00000552      -0.00001512       0.00000002
O        4.11968494      19.08938884       2.47566765       16        1       0.00000058      -0.00000062       0.00000026
O        9.63969937      12.48222504       6.20475562       16        1       0.00000062      -0.00003185      -0.00003793
O       -3.98546568      19.13372567       2.51265951       16        1      -0.00000732       0.00000218      -0.00000129
O      -10.19149454      25.09062309       6.32828704       16        1       0.00000071       0.00003664      -0.00003100
O        2.26005810      19.16499584       3.96583556       17        1      -0.00001205       0.00000686       0.00000224
O        7.32583295      13.19071355       6.29140747       17        1       0.00001835      -0.00002009      -0.00002384
O       -2.14434694      18.97468347       4.00975108       17        1       0.00000789      -0.00000764       0.00000283
O       -7.85839615      25.28706718       6.67964914       17        1      -0.00001343       0.00001751      -0.00002668
O        5.62024494      16.69881882       3.24702070       18        1      -0.00000007      -0.00001417       0.00000890
O       -1.01885778      22.68390152       7.86403907       18        1      -0.00000604       0.00000186      -0.00000025
O       -5.54154523      21.51959288       3.37640583       18        1      -0.00000143       0.00001438       0.00000869
O       -0.32377482      17.55179740       6.00390184       18        1       0.00000652      -0.00000368       0.00000289
O        5.24208261      13.26568063       2.09715942       19        1       0.00000233       0.00000028      -0.00001335
O        0.30447951      20.13264206       5.63358761       19        1       0.00001456       0.00000146      -0.00000457
O        1.37756582      22.92246060       4.55498751       20        1       0.00000344       0.00000265       0.00000067
O        7.38113316      15.62732199       0.95919086       20        1      -0.00001460       0.00000518       0.00001498
O       -1.51903617      14.60499993       4.26495099       20        1      -0.00000716      -0.00000103       0.00000054
O       -7.31086711      22.79836387       1.19763928       20        1       0.00001592      -0.00000689       0.00001814
H        1.18751929      23.68841709       5.13000396       21        1      -0.00000448      -0.00000171       0.00000526
H        6.63479364      15.88921402       1.53094148       21        1       0.00000493      -0.00000235      -0.00000080
H       -1.59000512      13.91536290       4.94645249       21        1       0.00000705       0.00000330      -0.00000249
H       -6.55454370      22.53816124       1.75665361       21        1      -0.00000238      -0.00000304       0.00000155
H        0.55023973      22.66836524       4.10897390       22        1       0.00000076       0.00000569      -0.00000766
H        8.64727826      13.22167013       8.10393230       22        1      -0.00002775       0.00004747       0.00000984
H       -0.59834319      14.56651132       3.94568980       22        1      -0.00000030       0.00000412      -0.00001110
H       -9.20647992      24.48703672       8.30087264       22        1       0.00003529      -0.00005169       0.00001191
H        6.02839414      13.61333838       1.54467159       23        1      -0.00002132      -0.00001136       0.00000223
H        0.23317658      19.22564130       6.03324033       23        1      -0.00001540       0.00000918       0.00002226
H       -6.12768751      24.88409958       1.87344450       23        1       0.00002447       0.00000702       0.00000142
H       -0.55627815      20.54290558       5.87226649       23        1       0.00001362      -0.00001035       0.00001635
