464
Lattice="24.0688 0.0 0.0 -24.185854652055536 25.348880266190136 0.0 0.0 0.0 36.8296146567733" Properties=species:S:1:pos:R:3:spacegroup_kinds:I:1:tags:I:1:forces:R:3 energy=-3451.2344195140968 stress="0.00203334282585376 -2.66803533065957e-05 -2.0053036847382438e-07 -2.66803533065957e-05 0.0020626860311387316 -9.35937494945346e-08 -2.0053036847382438e-07 -9.35937494945346e-08 6.156769100263294e-07" pbc="T T T"
Ca       1.76537242       5.21271512       6.44449378        0        1       0.00002429      -0.00007288       0.00000973
Ca      -3.50430085      11.63511934       9.18829142        0        1      -0.00005910      -0.00003658       0.00000460
Ca      -4.21734883       9.42965496       6.44707416        0        1       0.00000699      -0.00007846      -0.00003330
Ca       0.90498719       2.67687636       9.03809083        0        1      -0.00011020       0.00003913      -0.00008498
Ca      -9.43327864      12.71017756       6.83618490        1        1      -0.00009236       0.00004487       0.00016947
Ca      -4.02014435       4.55729649       8.58000513        1        1      -0.00015885       0.00005666       0.00015334
Ca       7.39671245       2.43958199       6.85447415        1        1       0.00002595      -0.00004555      -0.00011462
Ca       1.29704878       9.27596891       8.36405042        1        1      -0.00007109       0.00005283       0.00008735
Ca       4.24875336       0.71452089       8.01498634        2        1       0.00000517      -0.00010077       0.00000790
Ca      -1.12107792       7.46075016       4.79954808        2        1       0.00000400       0.00007815       0.00002813
Ca      22.93145914       1.09274030       5.70137902        3        1       0.00013570      -0.00000667      -0.00004573
Ca      16.83712251       7.38415349       6.76736086        3        1      -0.00009390       0.00002107      -0.00008169
S        1.62659238       2.15880697       5.74228994        4        1      -0.00009806      -0.00014106       0.00012973
S       -4.45877979       7.97933360       9.21667256        4        1       0.00001558       0.00014113       0.00012098
S       -3.88622671      12.39492121       5.97776012        4        1       0.00003707      -0.00008132      -0.00007264
S        1.69323993       6.31256656       9.31261833        4        1      -0.00002048       0.00009221       0.00002820
S       -0.69972052       4.26996706       4.03776846        5        1       0.00007650       0.00004706      -0.00001543
S       -6.77426805      10.47637570       7.77366300        5        1      -0.00001662       0.00000080      -0.00000496
S       -2.40354679      10.03483451       3.45868757        5        1      -0.00007106       0.00001082      -0.00005522
S        4.20840503       4.08075330       7.90485393        5        1       0.00000938      -0.00001972      -0.00007631
S        1.64555969       8.16770684       5.48906192        6        1      -0.00007657       0.00010123      -0.00003262
S        6.84496218       1.89432222      10.34937980        6        1       0.00010578       0.00000531      -0.00012850
S       -3.83529186       6.53701951       5.51289312        6        1      -0.00001185       0.00003188       0.00010235
S       -9.52223136      13.44769967       9.92798831        6        1      -0.00014553      -0.00007355      -0.00025452
O        2.54898904       1.25303621       6.43808295        7        1      -0.00002854      -0.00010349      -0.00018382
O       -3.95086425       6.71445176       9.69038397        7        1      -0.00002414      -0.00006148      -0.00017282
O       -4.70928946      13.35830806       6.72994628        7        1       0.00004474       0.00005695      -0.00003141
O        0.99922098       7.42858848       9.90461025        7        1      -0.00002475      -0.00003968      -0.00016718
O        0.92840403       1.34688399       4.71454092        8        1       0.00013654       0.00000183      -0.00004113
O       -5.29448718       7.82821530       8.02606563        8        1       0.00011542      -0.00007573       0.00019970
O       -3.03794982      13.21399510       5.07801462        8        1      -0.00001722       0.00009762      -0.00008268
O        2.58083838       6.75943504       8.22758567        8        1       0.00003957       0.00001115      -0.00009267
O        2.25697664       3.33492816       5.18217281        9        1      -0.00004096       0.00000020       0.00006122
O       -3.43241323       8.98548136       8.96526518        9        1       0.00009627       0.00006573      -0.00009774
O       -4.66823063      11.41457587       5.24167772        9        1       0.00009433       0.00008517       0.00004380
O        0.77152922       5.29513223       8.75962982        9        1       0.00006583       0.00001106       0.00002321
O        0.54008200       2.59743786       6.70938140       10        1      -0.00005467       0.00015480       0.00010565
O       -5.39369878       8.51146843      10.34636749       10        1      -0.00015064      -0.00000384       0.00023731
O       -3.00774396      11.63742238       6.92579150       10        1      -0.00005523      -0.00009736       0.00003612
O        2.56024952       5.63521961      10.37561076       10        1       0.00003472       0.00006294       0.00006651
O       -1.73927296       3.34265383       4.62266390       11        1       0.00015348      -0.00000314      -0.00002994
O       -7.52574744       9.74565964       8.81212619       11        1       0.00006237      -0.00003575       0.00000572
O       -1.68569832      11.32995246       3.24325734       11        1      -0.00005711       0.00002444       0.00002582
O        4.62588561       4.77652213       9.12220438       11        1      -0.00006063      -0.00012987       0.00008265
O        5.04466357       2.91574561       7.59843190       12        1       0.00000054       0.00009779       0.00002458
O       -0.67990229       9.86087397       9.55580440       12        1      -0.00000657      -0.00001599       0.00006540
O       -7.38606518      11.77460496       7.48635461       12        1      -0.00009966       0.00005380       0.00004307
O       -2.32287790       3.72373518      10.12925990       12        1       0.00009836      -0.00003024       0.00002116
O       -0.22968749       5.28163219       5.10297608       13        1      -0.00006426      -0.00000383       0.00005354
O       -5.38434848      10.70182418       8.23148662       13        1      -0.00002586      -0.00007063      -0.00000400
O       -2.20635294       9.55797547       4.92312341       13        1       0.00002165       0.00004885      -0.00005108
O        2.79854841       3.61508038       8.07511916       13        1       0.00005372      -0.00000530       0.00006465
O        0.96355754       8.31498638       4.20850827       14        1       0.00006160      -0.00007401      -0.00003628
O        7.52921376       2.71194211       9.25932310       14        1       0.00006663       0.00013764      -0.00010663
O       -3.14097749       6.37573033       4.23593775       14        1       0.00011946      -0.00002681       0.00006669
O      -10.00798302      12.16524859       9.23934238       14        1      -0.00010639      -0.00034539       0.00008250
O        2.17248869       9.42455906       6.02712437       15        1       0.00007173      -0.00000533       0.00015982
O        8.70888731       1.43460265       5.27281067       15        1       0.00004405       0.00005361       0.00013677
O       -4.11397741       5.23597595       6.14183828       15        1       0.00003517       0.00002680      -0.00003760
O      -10.65340832      12.80505026       4.91091948       15        1      -0.00007314       0.00008611      -0.00005196
O        2.72932176       7.16069072       5.44551634       16        1      -0.00005146       0.00003042       0.00004357
O        7.90258549       0.88591186      10.82924460       16        1      -0.00007965      -0.00012204      -0.00015406
O       -5.06537625       7.34714265       5.38066775       16        1       0.00000503      -0.00003226       0.00000266
O      -10.73909292      14.40059459       9.90275936       16        1      -0.00007223       0.00011056       0.00007858
O        0.59770350       7.65872804       6.47487801       17        1      -0.00001997      -0.00002593      -0.00007350
O        5.85685816       0.95243924       9.62974588       17        1      -0.00003190      -0.00005630       0.00008572
O       -2.89308797       7.31161965       6.41507542       17        1       0.00005470      -0.00001821       0.00010176
O       -8.56174077      14.02684293       8.89668176       17        1       0.00020159       0.00004470       0.00001513
O        4.18659834       5.00765962       6.74930115       18        1      -0.00006037       0.00010635      -0.00008096
O       -1.27486820      10.96591283       9.16073912       18        1       0.00006657       0.00000847      -0.00000100
O       -6.67845128       9.65682495       6.54133938       18        1      -0.00001747      -0.00005203       0.00009644
O       -1.11602173       3.43883037       9.72426535       18        1       0.00004984      -0.00005222      -0.00005900
O        5.73920261       0.59973708       5.97840532       19        1      -0.00000778       0.00001809       0.00003454
O       -1.84050340       5.24683736       7.86357427       19        1       0.00003154       0.00007234       0.00005560
O       -0.14716501      10.81598775       6.77259867       20        1       0.00003411       0.00003366      -0.00000964
O        7.84278522       2.35629494       4.48919853       20        1      -0.00003003      -0.00003057       0.00011973
O       21.46439580       2.62658281       7.12877884       20        1       0.00006705       0.00000384      -0.00002464
O       -9.65572510      11.73145155       4.74104967       20        1      -0.00010718       0.00000887      -0.00004921
H       -0.64439539      11.19736618       7.53577414       21        1      -0.00008219      -0.00003205      -0.00006147
H        7.21086580       1.71522155       4.12482666       21        1       0.00004501       0.00002339      -0.00012745
H       21.42382288       2.05891312       7.97656022       21        1       0.00015944      -0.00002174      -0.00003365
H      -10.15443252      10.90227236       4.59168792       21        1      -0.00000605      -0.00009768      -0.00000163
H       -0.82572726      10.54784051       6.13167559       22        1       0.00001752       0.00004364       0.00001805
H        3.43403488       5.27254169       9.93769743       22        1      -0.00000444       0.00012180       0.00002821
H       -1.99574371       3.38079290       7.25182550       22        1      -0.00001388       0.00005364       0.00003017
H       -6.17133893       8.97597102       9.95023159       22        1      -0.00004890       0.00010134       0.00000373
H      -17.76614324      25.24882141       5.90636442       23        1      -0.00000408       0.00001654       0.00002569
H       -1.09266320       5.36025609       8.47445842       23        1       0.00002843       0.00000486       0.00005846
H       -8.40662132      14.93967322       5.70292770       23        1      -0.00013758      -0.00001148       0.00011819
H       -1.99901741       6.08315891       7.38860408       23        1      -0.00003611       0.00004571      -0.00002108
Ca      -9.37362001      17.93348796       6.51115778        0        1      -0.00010154       0.00002523      -0.00000881
Ca     -16.87399656      24.19261965       9.78376384        0        1       0.00009809       0.00010041       0.00000057
Ca     -16.58915409      21.65197993       6.41347001        0        1       0.00005959      -0.00005641      -0.00006796
Ca     -11.87573854      15.97576232       8.77119778        0        1      -0.00000702      -0.00005067      -0.00000027
Ca     -22.22608052      24.50198300       5.14031777        1        1       0.00005629       0.00003563       0.00005281
Ca     -16.12758392      17.59722547       8.31092041        1        1      -0.00010057      -0.00018002      -0.00017779
Ca      -3.94669919      15.49174710       5.28598417        1        1      -0.00012216       0.00003145      -0.00010894
Ca     -11.08057317      22.07585797       8.85930574        1        1      -0.00013702       0.00006590       0.00011278
Ca      -6.45809386      14.18178466       8.12015271        2        1       0.00002960       0.00003422      -0.00009064
Ca     -13.19413599      18.74370081       6.74707617        2        1      -0.00002683      -0.00010506      -0.00000314
Ca      11.39209733      12.92448443       5.94802202        3        1      -0.00004721       0.00000642       0.00004322
Ca       4.35254293      19.89415584       6.92076579        3        1       0.00000917       0.00002553       0.00005185
S      -11.07470787      15.67074767       5.83826473        4        1      -0.00000795      -0.00005670       0.00003144
S      -17.25928798      20.53537486       9.65138657        4        1       0.00007120      -0.00019233       0.00005959
S      -15.59293915      24.38835701       7.05032691        4        1       0.00005683      -0.00010282      -0.00010112
S       -9.48601329      18.98676744       9.38430188        4        1       0.00005160      -0.00009193      -0.00001331
S      -14.20153203      17.04016709       3.78541846        5        1      -0.00012771      -0.00001595      -0.00002406
S      -19.68733410      23.00662979       7.41024936        5        1       0.00001867       0.00004810       0.00003091
S      -13.93117051      22.21530054       3.96217350        5        1       0.00005748      -0.00004287       0.00000382
S       -6.54668812      17.16971695       7.21189528        5        1       0.00003037       0.00000323       0.00001260
S      -10.10401100      20.77417986       5.91659695        6        1      -0.00007615       0.00000977       0.00002221
S       -4.11637678      14.37504282      10.19335224        6        1      -0.00005298      -0.00000894       0.00006225
S      -16.62693856      18.75540052       5.54107666        6        1      -0.00005292       0.00004646       0.00005729
S      -22.70808138      25.28748729      10.04304971        6        1       0.00005425      -0.00009101       0.00004595
O      -10.76746631      14.71595387       6.94709481        7        1       0.00002475      -0.00004517       0.00002144
O      -16.19463116      19.55124319       9.67256085        7        1       0.00007611       0.00004067      -0.00006931
O        7.93238416       0.11423024       7.81476607        7        1       0.00005998      -0.00010610      -0.00020906
O      -10.21391035      20.12583742       9.87520352        7        1       0.00003817      -0.00000710       0.00001194
O      -12.10815707      15.13016039       4.98899585        8        1      -0.00008311      -0.00009170       0.00000767
O      -17.78200988      20.70853852       8.28086654        8        1      -0.00001745       0.00009888       0.00009340
O      -14.23719593      24.80881316       6.68016465        8        1       0.00003239       0.00011072      -0.00000045
O       -8.51115993      19.33292966       8.36245301        8        1      -0.00003448      -0.00007164      -0.00000989
O       -9.83196345      16.05623650       5.15670387        9        1      -0.00004229       0.00001763       0.00011676
O      -16.91090393      21.80652520      10.23539164        9        1      -0.00007131       0.00005592      -0.00008133
O      -16.39688630      23.97981186       5.88603846        9        1      -0.00012702       0.00005291      -0.00005235
O      -10.31202022      17.86877280       8.96032035        9        1       0.00007159      -0.00009822      -0.00001450
O      -11.52803016      16.91147017       6.57531015       10        1       0.00009974      -0.00008988       0.00011106
O      -18.38147768      19.89386947      10.50093153       10        1      -0.00012935      -0.00002786       0.00005802
O      -15.51557532      23.18704593       7.94997869       10        1      -0.00000328       0.00003773       0.00015655
O       -8.70457148      18.36942150      10.59340470       10        1      -0.00004243       0.00003403       0.00012232
O      -14.82244665      15.99720006       4.58935890       11        1       0.00007990       0.00005070      -0.00000395
O      -20.44637640      21.93382586       8.11949039       11        1      -0.00006269       0.00003971       0.00002605
O      -13.55964224      23.64015885       4.01175038       11        1      -0.00010500      -0.00000101      -0.00000882
O       -5.87192965      18.20701358       8.02581257       11        1       0.00002977      -0.00004471      -0.00004729
O       -5.56446940      16.11433322       6.89683862       12        1       0.00010789       0.00003547       0.00005934
O      -11.66467137      22.79961933      10.97019144       12        1      -0.00003242      -0.00000389       0.00004503
O      -20.65015384      23.98969890       6.88919389       12        1       0.00001450      -0.00008770      -0.00005824
O      -13.78106337      17.40474258       8.56556997       12        1      -0.00004565       0.00005653       0.00011014
O      -13.34110929      17.95862805       4.51394876       13        1       0.00004712      -0.00002316       0.00004870
O      -18.79424345      23.70640140       8.33944751       13        1       0.00000974       0.00009964       0.00001815
O      -14.53314808      21.69388383       5.21039858       13        1      -0.00007298      -0.00009595      -0.00006073
O       -7.69831970      16.57386978       7.88587655       13        1      -0.00007221       0.00002004       0.00000174
O      -10.76807545      21.24436435       4.73471610       14        1       0.00002266      -0.00005763       0.00010076
O       -4.69152654      15.56848877       9.42114285       14        1      -0.00000913      -0.00008533      -0.00002782
O      -16.09432816      18.66092948       4.20630466       14        1      -0.00004013       0.00001407       0.00008198
O      -22.25301839      23.99185823       9.40062346       14        1      -0.00005365      -0.00011545      -0.00005718
O       -9.78433517      21.84986050       6.87821410       15        1       0.00004257       0.00006595      -0.00001646
O       -5.82107017      14.73769841       4.33585002       15        1      -0.00009996       0.00021954       0.00010275
O        7.04692905      17.45471499       6.11535179       15        1       0.00000800       0.00000982      -0.00007678
O      -20.27176583      25.19169702       4.29867367       15        1       0.00012160       0.00003101       0.00007468
O       -8.83238941      20.02889543       5.61373396       16        1      -0.00001541       0.00001768       0.00011764
O       -2.89586309      13.89064838       9.36679964       16        1      -0.00007350       0.00023168      -0.00004845
O      -17.78471107      19.70704485       5.58718660       16        1      -0.00010952       0.00005398      -0.00006111
O        0.23214564       0.40437109       9.22256244       16        1       0.00009082      -0.00003052       0.00009662
O      -10.96060659      19.74698461       6.63603161       17        1      -0.00007176      -0.00003933       0.00008098
O       -5.13516529      13.23248878       9.89106207       17        1       0.00000929      -0.00009876       0.00007222
O      -15.61873891      19.35181911       6.51578495       17        1       0.00010885      -0.00005050      -0.00009206
O        2.51809360       1.01813877       9.60593813       17        1      -0.00013477       0.00003013      -0.00002151
O       -7.03636268      17.83410117       5.96917003       18        1       0.00011334      -0.00002500      -0.00000682
O      -12.76033661      22.96758168      10.16965627       18        1       0.00001166       0.00000649      -0.00004388
O      -18.94954947      22.35253487       6.31277629       18        1      -0.00006634       0.00001613      -0.00001659
O      -14.28614180      16.81307510       7.25189613       18        1      -0.00007113       0.00020554      -0.00001569
O       -7.76172819      14.25442092       5.95790159       19        1      -0.00005987      -0.00003449      -0.00010112
O      -13.34251450      20.72032045       8.17184890       19        1       0.00003481       0.00011216      -0.00001025
O      -12.38742818      22.94367328       7.09455308       20        1       0.00004684       0.00008602       0.00005528
O       -5.73279603      16.15890958       3.94594265       20        1       0.00003804      -0.00016264       0.00006114
O      -13.41268285      14.47015751       7.75025702       20        1       0.00014172       0.00003815      -0.00000362
O      -20.33434280      23.74278829       3.99727469       20        1      -0.00010089       0.00001799       0.00010758
H      -13.05340560      23.66331297       7.08328351       21        1       0.00000515       0.00004515       0.00000289
H       -6.40635633      16.61560205       4.48628733       21        1      -0.00002984      -0.00010166      -0.00013172
H        9.90818469      14.08899220       8.29971381       21        1       0.00014329       0.00003661      -0.00009227
H      -19.69206999      23.34736308       4.61446663       21        1       0.00004264       0.00010548      -0.00001039
H      -11.88925192      23.05762025       6.24684998       22        1       0.00000151      -0.00003525       0.00000681
H       -8.04035853      18.99711392      10.92207696       22        1      -0.00010054       0.00011027       0.00011833
H      -13.83872200      15.33458390       7.38913577       22        1      -0.00000652      -0.00008528       0.00004398
H      -19.10810611      20.55458293      10.70085501       22        1      -0.00009363       0.00008689      -0.00004043
H       -7.03940808      14.33132847       5.24937418       23        1       0.00004665       0.00000472       0.00002855
H      -14.01353274      20.81288639       8.86341363       23        1      -0.00004203       0.00002313      -0.00004575
H        5.06194964       0.36713080       5.25913053       23        1      -0.00005552       0.00009638       0.00003229
H      -13.32596361      21.56219366       7.65742179       23        1      -0.00004611       0.00004876      -0.00010280
Ca      14.15781517       5.19968629       5.78686940        0        1       0.00007697      -0.00014967       0.00003870
Ca       7.72092500      11.50801683       9.90744687        0        1      -0.00001301      -0.00009916      -0.00011508
Ca       7.84255017       8.96335621       7.08748575        0        1       0.00004445       0.00017012       0.00004948
Ca      13.97136802       2.81786809       9.60322661        0        1      -0.00000614       0.00003130       0.00006767
Ca       1.97842631      11.91937510       6.17865426        1        1      -0.00005582       0.00005655      -0.00006718
Ca       8.78252338       4.81085841       9.24073794        1        1      -0.00008287      -0.00000787       0.00004990
Ca      19.83713338       2.95663706       5.17917326        1        1      -0.00001657      -0.00005004      -0.00013678
Ca      13.90106657       9.88368066       8.95069844        1        1       0.00000567      -0.00000285      -0.00008861
Ca      17.66997502       1.10417678       7.99954226        2        1      -0.00014534       0.00006395      -0.00000124
Ca      11.05689230       7.25763880       7.50811626        2        1      -0.00013727      -0.00000821      -0.00018701
Ca      10.79132410       0.63410762       4.83566790        3        1       0.00010814       0.00005147       0.00006899
Ca       4.74706936       7.24554706       7.16460761        3        1      -0.00009496      -0.00002670      -0.00004962
S       13.06517640       2.64893259       6.60510857        4        1      -0.00001495       0.00002516      -0.00002588
S        7.09178926       7.84779211       9.91591528        4        1       0.00003949      -0.00010706       0.00009959
S        7.99377956      11.93253728       6.36675603        4        1      -0.00003286      -0.00006168       0.00006676
S       14.76492750       6.36148440       9.26733669        4        1      -0.00003175      -0.00013362       0.00007115
S       10.98363491       4.16959976       3.69826337        5        1       0.00004168      -0.00002214       0.00006561
S        4.72149073      10.27558298       7.84769169        5        1      -0.00003347      -0.00002988      -0.00000993
S        9.99330832       9.66612842       4.46330891        5        1       0.00007162      -0.00004360      -0.00005965
S       17.15181660       4.16772696       7.37068625        5        1       0.00005496      -0.00000092       0.00001830
S       13.99263384       8.19258339       5.74015622        6        1      -0.00004441       0.00002028      -0.00009809
S       20.01040324       1.35425041      10.04074566        6        1       0.00003685      -0.00001621       0.00005825
S        7.86279088       5.98269024       6.35226821        6        1       0.00013188      -0.00004955      -0.00016775
S        2.12825932      12.30031204       9.89195203        6        1      -0.00008118       0.00004217      -0.00009548
O       13.58499577       1.60262315       7.51087830        7        1      -0.00004800      -0.00000879      -0.00005332
O        8.00908101       6.75993546      10.28268297        7        1       0.00012606      -0.00008604      -0.00011604
O        6.76194474      12.70082245       6.64257499        7        1       0.00008739       0.00002946      -0.00002997
O       14.00443290       7.54411357       9.54362134        7        1      -0.00004367       0.00016727      -0.00012848
O       11.73822654       2.28796323       6.11814601        8        1       0.00005833      -0.00010160       0.00002753
O        6.33866164       7.44346690       8.70722158        8        1       0.00014375       0.00000576      -0.00000397
O        8.98588711      12.94415989       5.90304510        8        1      -0.00017739       0.00002591       0.00005599
O       15.03016404       6.17568294       7.82847596        8        1      -0.00003317       0.00001320       0.00014756
O       14.02147473       2.86079796       5.49300545        9        1       0.00001428      -0.00003575      -0.00002608
O        7.90155086       9.04300588       9.47631093        9        1      -0.00015081      -0.00007578       0.00010248
O        7.79367517      10.87391755       5.37679893        9        1      -0.00001745       0.00002055      -0.00010971
O       14.26558369       5.15631119       9.86972288        9        1       0.00002425      -0.00009999      -0.00009683
O       13.00541959       3.91925005       7.37077315       10        1       0.00011639       0.00004741      -0.00000957
O        6.19835716       8.17953515      11.00309158       10        1      -0.00004724       0.00016705       0.00005155
O        8.46916489      11.25849330       7.60169912       10        1       0.00002014      -0.00001545       0.00014722
O       16.18300737       6.68935608       9.87777330       10        1       0.00000067       0.00002368      -0.00008072
O       11.14444743       2.74054244       3.44264268       11        1       0.00000532      -0.00010322       0.00003233
O        3.74531349       9.32600081       8.41900468       11        1      -0.00013557       0.00007803       0.00012262
O       10.75331601      10.85196722       4.83187738       11        1       0.00000413      -0.00002951       0.00006794
O       17.73669054       5.24479578       8.21741087       11        1       0.00004504      -0.00000613      -0.00004416
O       18.26957941       3.28712573       6.95713964       12        1      -0.00008975      -0.00004497      -0.00015015
O       11.83561011       8.88768947       8.80152509       12        1       0.00001101       0.00014596       0.00000688
O        4.05251827      11.33421587       7.07290195       12        1       0.00003376      -0.00003478       0.00001851
O       10.41732571       2.89293954       9.56018566       12        1       0.00010164       0.00003820      -0.00001760
O       12.06864332       4.81083391       4.44998795       13        1      -0.00000097       0.00007927      -0.00006579
O        5.52336537      10.95441573       8.87133351       13        1      -0.00004176      -0.00005897      -0.00007508
O        9.82872574       8.68447657       5.55207754       13        1       0.00005477      -0.00004251      -0.00004032
O       16.17790789       3.37346209       8.10411992       13        1      -0.00011076      -0.00008319       0.00001934
O       13.42306664       9.14005759       4.81656677       14        1      -0.00003193       0.00006967      -0.00009217
O       19.25437154       2.50227287       9.33996334       14        1       0.00003083      -0.00008235       0.00002718
O        8.58654935       5.47960200       5.22432940       14        1      -0.00000020      -0.00010698       0.00007523
O        1.68171671      11.52357092       8.63264106       14        1      -0.00004889      -0.00008908      -0.00005308
O       14.61204303       8.85493011       6.90524999       15        1       0.00001785      -0.00010338      -0.00004050
O       17.94532034       2.32963623       4.20538121       15        1       0.00001926       0.00004841      -0.00002480
O        7.21399629       4.91499359       7.14968502       15        1      -0.00002667       0.00008930      -0.00001023
O        1.02934922      12.89527870       4.37894888       15        1       0.00009956       0.00001249       0.00004652
O       15.06974792       7.32441702       5.15025368       16        1      -0.00002312      -0.00010019       0.00018119
O       21.26807325       1.07890532       9.16957477       16        1      -0.00000662       0.00020727      -0.00000928
O        6.84363535       7.01556301       5.99497502       16        1      -0.00013119      -0.00008336       0.00012092
O        0.94565728      13.15465907      10.31395941       16        1       0.00001082       0.00008871       0.00012814
O       12.94042962       7.21890659       6.18028271       17        1       0.00013021      -0.00013660      -0.00006184
O       19.13583712       0.12740678       9.67660767       17        1       0.00008757       0.00000096      -0.00007490
O        8.80516784       6.70012363       7.31129898       17        1      -0.00014553       0.00007346       0.00011860
O        3.12340559      13.38568594       9.35316236       17        1       0.00001634       0.00012583       0.00011753
O       16.57420287       4.80800090       6.15755681       18        1      -0.00004211      -0.00006957       0.00014133
O       10.81229365       9.64511344       8.04995189       18        1      -0.00005936       0.00008790       0.00011908
O        5.57586197       9.48791167       6.92824686       18        1       0.00008992      -0.00003531       0.00000970
O       11.69725710       3.48331956       9.81797509       18        1      -0.00019099       0.00033619      -0.00003940
O       16.18320928       1.30276044       5.90931378       19        1       0.00001338      -0.00001988      -0.00005279
O       10.93464899       5.75082758       9.14746585       19        1       0.00012102      -0.00024993       0.00016005
O       12.62488781      11.19788863       7.10911520       20        1       0.00002836       0.00005863      -0.00001299
O       18.01881529       3.78414267       3.98220522       20        1       0.00003172       0.00005651       0.00001658
O        9.52638465       3.41030821       7.35922870       20        1       0.00004728      -0.00007634      -0.00000752
O        2.00006566      11.94682295       3.77165981       20        1       0.00005189      -0.00009921       0.00003816
H       11.43570993      10.31828125       7.57779839       21        1      -0.00004008      -0.00009160       0.00001777
H       17.39133352       4.14200985       4.64149376       21        1      -0.00000929       0.00001255       0.00000752
H       10.05050721       3.00033367       8.14429448       21        1      -0.00003252      -0.00005027      -0.00005962
H        2.70410503      12.57769364       3.55108721       21        1      -0.00016565       0.00009380      -0.00003004
H       12.78461365      10.66585137       6.31109252       22        1       0.00001324      -0.00001424       0.00003347
H       16.82223146       6.01441989       9.55314182       22        1       0.00003443      -0.00004685      -0.00000291
H       10.14876349       3.41239449       6.62109865       22        1      -0.00000281      -0.00000541      -0.00005639
H        6.40076320       9.67878738      11.66631609       22        1       0.00000893      -0.00002789      -0.00002562
H       16.83758451       1.57113750       5.20160771       23        1       0.00009146      -0.00007824      -0.00001107
H       11.51269420       4.50162720       9.55078868       23        1       0.00005774      -0.00018494       0.00003687
H        3.15073161      14.45155969       5.61200575       23        1       0.00005830       0.00002544      -0.00000404
H       11.04230560       6.31009778       9.94217971       23        1      -0.00001650      -0.00005291       0.00001625
Ca       0.83597481      18.03441130       6.75862123        0        1       0.00006687       0.00004799       0.00004895
Ca      -3.21917112      24.11512234       8.85761812        0        1      -0.00000177       0.00007359      -0.00003312
Ca      -3.69433568      22.12503086       6.02037683        0        1       0.00009014      -0.00003225       0.00000281
Ca       1.49307082      15.13041702       9.40058214        0        1       0.00005019      -0.00006567      -0.00010846
Ca      -9.52264251      24.93054146       6.68585547        1        1       0.00009176      -0.00012306       0.00006941
Ca      -3.64957218      17.48192040       8.41287457        1        1      -0.00004376       0.00000267      -0.00001843
Ca       7.49330188      15.00699290       5.80625300        1        1      -0.00002656       0.00010246       0.00004232
Ca       1.13819229      22.24958576       8.11986957        1        1       0.00003426      -0.00005934       0.00001330
Ca       4.89132888      13.42833385       7.87619596        2        1       0.00000583       0.00006719       0.00004083
Ca      -1.07480961      19.97703013       4.01110838        2        1       0.00003373      -0.00007025      -0.00011127
Ca      -1.05859983      13.41144304       3.98902188        3        1      -0.00001922      -0.00000540      -0.00003932
Ca      -6.73388535      20.14792891       6.76144337        3        1      -0.00005509      -0.00007096      -0.00000111
S        0.62506065      15.06738711       6.53914680        4        1      -0.00002766      -0.00007482       0.00005076
S       -4.17149714      20.70268446       9.30021384        4        1      -0.00003965      -0.00011593      -0.00008576
S       -3.93833862      25.28665369       5.54507665        4        1       0.00003995      -0.00009446      -0.00001154
S        1.65224502      19.49475823       9.41361760        4        1      -0.00003399      -0.00042591      -0.00008207
S       -0.83159505      16.70774234       3.59910351        5        1       0.00002990      -0.00006020       0.00006656
S       -6.40636511      23.02700346       7.32312772        5        1       0.00000066      -0.00006767      -0.00003035
S       -1.44099072      23.41738381       3.44977504        5        1      -0.00002600      -0.00005485       0.00003326
S        4.10785059      16.99916425       7.80812503        5        1      -0.00005934      -0.00015474      -0.00004234
S        1.49041945      20.92019185       5.05543288        6        1      -0.00003010       0.00007753      -0.00001999
S        7.55112961      14.62534853       9.47603049        6        1      -0.00005415       0.00014879       0.00007386
S       -3.63930191      19.15796301       5.14466700        6        1      -0.00006090      -0.00002127       0.00010037
S       -9.40027542      25.06587943       9.87642127        6        1      -0.00000650       0.00008025      -0.00007835
O        1.43274446      14.06057907       7.25280811        7        1      -0.00004567      -0.00005664       0.00013120
O       -3.51954208      19.47564206       9.71547670        7        1      -0.00004325       0.00000212       0.00001909
O       19.18220138       0.70599509       6.20109116        7        1       0.00013658       0.00009458      -0.00003818
O        1.21089588      20.69787708      10.08467182        7        1      -0.00005085       0.00013213       0.00009742
O       -0.52507507      14.44226059       5.90773043        8        1      -0.00005437       0.00002964      -0.00002654
O       -4.42165260      20.70599460       7.84805780        8        1       0.00010510       0.00010558      -0.00009894
O       20.93046269       0.88187420       4.60651241        8        1       0.00001846       0.00000747       0.00011068
O        1.97684806      19.83709199       8.00386488        8        1      -0.00012464       0.00000342       0.00000589
O        1.43084418      15.88592061       5.64296017        9        1      -0.00011489       0.00002843       0.00002001
O       -3.52439599      21.91575545       9.75128272        9        1      -0.00009716      -0.00001049       0.00000520
O       -4.38066399      24.08416243       4.87214320        9        1       0.00000696      -0.00007632      -0.00006721
O        0.76328930      18.34810799       9.41854917        9        1       0.00010892       0.00012892      -0.00007671
O        0.10804075      15.98361252       7.63029616       10        1       0.00002998       0.00006610      -0.00012380
O       -5.58140218      20.63398797       9.97248126       10        1       0.00002770       0.00011615       0.00007289
O       -2.88663164      24.91600473       6.55425412       10        1       0.00002156       0.00010184       0.00009121
O        2.97758253      19.09508754      10.11343357       10        1       0.00006831       0.00002677       0.00006502
O       -1.96881870      15.71145185       3.84041421       11        1      -0.00006013       0.00002088      -0.00004780
O       -6.96063401      22.10300801       8.33274094       11        1      -0.00005396       0.00006917       0.00001773
O       -0.57389591      24.34199116       4.24961847       11        1      -0.00008260      -0.00004675       0.00006376
O        5.20249957      17.89473051       8.21894106       11        1      -0.00007430       0.00009719      -0.00002857
O        4.55545879      15.74286159       7.22462115       12        1      -0.00000838       0.00006285      -0.00006806
O       -1.09470536      21.71740176       7.95585196       12        1       0.00006374       0.00001770      -0.00001787
O       -7.24467344      24.21959107       7.18369488       12        1      -0.00003919      -0.00004097       0.00008461
O       -1.58780290      16.86722869      10.06242376       12        1       0.00003697       0.00004937      -0.00002448
O       -0.69715827      17.66864896       4.78567637       13        1      -0.00008587      -0.00002802       0.00002930
O       -5.02976049      23.44426799       7.68251219       13        1       0.00000374      -0.00006461      -0.00000666
O       -1.87595890      22.21177982       4.26999598       13        1       0.00010100      -0.00000473       0.00015479
O        3.24413936      16.71082528       9.00511407       13        1      -0.00007358       0.00001703      -0.00003413
O        1.02587585      21.06180548       3.67491711       14        1       0.00005289      -0.00013313       0.00003240
O        7.19330377      15.33996953       8.14625928       14        1       0.00004039       0.00012192      -0.00000321
O       -3.20254751      18.94371106       3.76670177       14        1       0.00001600       0.00003802      -0.00005544
O       -9.96659053      24.10962191       8.79993941       14        1       0.00000736      -0.00010149       0.00003073
O        1.45110594      22.22830754       5.75843275       15        1      -0.00000055       0.00007621       0.00008301
O        5.78147899      14.24681024       4.63842420       15        1      -0.00007274       0.00002263       0.00004675
O       -3.74836748      17.90223387       5.89775825       15        1       0.00007468       0.00001215       0.00003501
O      -11.26174100      25.23212306       5.23536582       15        1       0.00007203      -0.00002192      -0.00006458
O        2.81019720      20.31690230       5.19102063       16        1       0.00001409      -0.00007598      -0.00013165
O        8.65228114      13.64280682       9.12431552       16        1      -0.00039442      -0.00011862       0.00006876
O       -4.87342190      19.95741636       5.22112329       16        1       0.00001383       0.00001250      -0.00006123
O       13.62638843       0.58971947      10.29556785       16        1       0.00001099       0.00006796       0.00004717
O        0.46679730      20.04196303       5.72790951       17        1       0.00000555       0.00005235      -0.00005802
O        6.34176911      13.71428737       9.73894461       17        1       0.00029820      -0.00020645       0.00000011
O       -2.55954578      20.01220487       5.78740969       17        1      -0.00014292       0.00002792       0.00008258
O       15.67825528       0.66788586       9.06059767       17        1       0.00007286       0.00017851       0.00004254
O        3.28831658      17.75231207       6.81928871       18        1      -0.00001945       0.00003531       0.00003820
O       -1.84028332      22.75884318       7.41321657       18        1       0.00000460      -0.00002535      -0.00000717
O       -6.29450947      22.28562856       6.04941537       18        1      -0.00005174       0.00004577      -0.00009508
O       -0.83342493      15.90022213      10.27416628       18        1      -0.00003509       0.00010162      -0.00006115
O        3.63320300      13.61257441       5.67243976       19        1      -0.00002615      -0.00001441       0.00007339
O       -1.46031982      18.62085783       7.74727651       19        1      -0.00005589      -0.00002577      -0.00002178
O        0.06392366      24.58290590       6.93495163       20        1      -0.00002096       0.00003951      -0.00002137
O        5.65416324      15.70353517       4.41516339       20        1       0.00007973       0.00001621       0.00001225
O       -2.67218913      15.60198432       7.37312560       20        1       0.00002895      -0.00001935       0.00000294
O      -10.89924088      23.81127533       5.10638278       20        1      -0.00006303      -0.00005772      -0.00003222
H        0.10154254      25.01280966       7.85396487       21        1       0.00000006       0.00010077      -0.00006838
H        5.04179324      15.98297947       5.12310512       21        1       0.00005058       0.00000666       0.00000046
H       -2.77074028      14.86269254       8.04124631       21        1       0.00003266      -0.00008020      -0.00003655
H      -11.11932176      23.49724138       4.21952292       21        1       0.00000512       0.00003175      -0.00006591
H       -0.70470866      23.93864911       6.94677145       22        1      -0.00003609       0.00006155       0.00005573
H        3.21301230      18.15581105       9.84010452       22        1       0.00002367      -0.00000289      -0.00010260
H       -1.70889004      15.70618330       7.27445280       22        1       0.00002618       0.00010708       0.00001115
H       -6.15582906      21.32146348       9.52476382       22        1      -0.00003792      -0.00000129      -0.00000944
H        4.51350282      13.76912921       5.14104210       23        1      -0.00005046       0.00001350       0.00004181
H       -1.26054995      19.07873067       8.57948422       23        1       0.00006350      -0.00001486      -0.00004890
H       15.46532385       1.96618671       5.80137077       23        1       0.00010115       0.00008172      -0.00000427
H       -1.81311920      19.31280424       7.13595160       23        1       0.00001023       0.00000990       0.00000636
O       12.43375704      11.68188071      12.87608716        0        0       0.00003152       0.00003153       0.00000716
H       11.86718705      11.29229168      13.57916433        0        0       0.00001653      -0.00004276      -0.00004419
H       12.66552472      10.93237154      12.28686047        0        0      -0.00005058       0.00007056      -0.00007398
O       11.21609741      13.19060079      11.14989566        0        0      -0.00005316       0.00000539      -0.00000199
H       11.66155215      12.68823201      11.90049229        0        0       0.00015018       0.00013994      -0.00006362
H      -12.11852552      13.65680172      10.70019570        0        0      -0.00001052      -0.00010212       0.00002306
O       12.94670938       9.60700461      11.12384278        0        0      -0.00003814      -0.00007154       0.00002009
H       13.16344607       8.75261530      11.65151170        0        0       0.00010385      -0.00008196       0.00004819
H       12.14933546       9.32965729      10.62543806        0        0      -0.00001200       0.00001633      -0.00009133
O        9.44561421       4.77985530      11.59851467        0        0       0.00003948       0.00004003      -0.00006478
H       10.44590265       4.86867006      11.69247728        0        0       0.00006666      -0.00007232      -0.00002739
H        9.11602906       5.67571211      11.78870765        0        0      -0.00001340      -0.00000611       0.00009421
O        7.71204350      13.22121801      14.32791583        0        0      -0.00003215      -0.00003887       0.00004199
H        8.09380751      12.51092047      14.91490371        0        0       0.00003304      -0.00002753       0.00000055
H        7.86532449      14.05027829      14.79064447        0        0      -0.00003537      -0.00004982       0.00007397
O       10.04090625      11.00607028      10.15209081        0        0      -0.00003734       0.00000763       0.00003441
H       10.61018399      11.79494437      10.33366822        0        0       0.00007583      -0.00008232      -0.00003872
H       10.35419636      10.50947844       9.35263470        0        0      -0.00006793       0.00004819       0.00001590
O        9.72530448       3.01569754      13.62705046        0        0       0.00009327       0.00008183       0.00009476
H       10.60450952       2.64873929      13.32102942        0        0      -0.00004374       0.00001145      -0.00009814
H        9.45953006       3.65230024      12.92532780        0        0       0.00000600      -0.00014722      -0.00004493
O      -14.99239214      23.72866706      11.19175022        0        0       0.00007168       0.00004027       0.00000466
H      -15.31809178      23.33847269      12.02636237        0        0      -0.00002672       0.00003319      -0.00003840
H      -14.16321738      23.26118085      10.88980566        0        0       0.00002090      -0.00003364      -0.00007605
O      -13.18411547      24.91078676      13.82706151        0        0       0.00016861      -0.00005304      -0.00008270
H       11.43813960       0.42705983      13.59625424        0        0      -0.00004197       0.00006902      -0.00001854
H      -12.73283618      24.63651634      14.65044155        0        0       0.00004591       0.00004634       0.00002055
O        6.87407222      10.51982312      11.88898899        0        0      -0.00004288      -0.00001458       0.00002041
H        8.55830504       9.73322162      12.42260935        0        0      -0.00006964       0.00001329      -0.00000338
H        6.25389763      11.20687228      12.23994035        0        0       0.00000306       0.00003231       0.00004373
O      -11.23496098      24.33774654      15.65654497        0        0      -0.00003148       0.00001373      -0.00006799
H      -11.22289292      23.72795084      16.39928880        0        0      -0.00000439       0.00009533       0.00010042
H      -10.64410909      25.15081763      15.91618777        0        0      -0.00014778      -0.00000008      -0.00000249
O      -16.68757408      23.27879389      13.30410896        0        0       0.00007460       0.00001567       0.00000298
H      -16.85357608      22.46146407      13.78242866        0        0       0.00002898       0.00001612      -0.00004326
H      -17.48027663      23.43669193      12.75074344        0        0       0.00000558      -0.00008459       0.00007341
O        8.57248596      12.90011267      11.73180831        0        0      -0.00002850       0.00000222      -0.00000509
H        8.39114703      13.01887812      12.68491962        0        0       0.00010565       0.00006856      -0.00000592
H        9.46095522      13.26548365      11.53702486        0        0      -0.00009320       0.00009726      -0.00002902
O      -18.61890586      23.95097737      11.44787253        0        0      -0.00000090       0.00000664       0.00008844
H      -19.25298367      23.21076888      11.27418891        0        0      -0.00002659       0.00009603      -0.00005570
H      -19.13127114      24.77138117      11.40698923        0        0      -0.00002495       0.00000456       0.00000891
O        8.78171360      11.29464294      15.76945965        0        0       0.00004951      -0.00005756      -0.00003062
H        8.78864732      11.30945744      16.72955152        0        0       0.00007771      -0.00007305      -0.00002184
H        9.65229722      10.90411877      15.46242793        0        0       0.00002433      -0.00014831       0.00002339
O        5.57251892      12.79010935      12.46575058        0        0      -0.00000526       0.00002778      -0.00003374
H        6.17649446      13.10205094      13.15973824        0        0       0.00002998      -0.00008190      -0.00001929
H        5.78683465      13.29838873      11.66466558        0        0       0.00001837       0.00004732      -0.00002250
O      -20.16360363      21.85867824      10.80770870        0        0      -0.00000746       0.00003218       0.00007717
H        3.02191853      21.65230722      11.14897260        0        0       0.00001898      -0.00001472       0.00003574
H      -20.30493922      22.01855692       9.84813750        0        0      -0.00000426      -0.00002103       0.00005944
O       17.02013786       5.63397901      20.47377038        0        0      -0.00004569      -0.00003354       0.00018391
H       16.63876226       5.55763770      19.59077828        0        0       0.00000430       0.00005415       0.00015186
H       17.61239916       6.39750345      20.44045920        0        0      -0.00021209      -0.00033380      -0.00003129
O       10.88783421      10.27121359      14.62763111        0        0      -0.00001939      -0.00000976       0.00004768
H       11.66535142       9.65711262      14.89175662        0        0       0.00004621       0.00004457      -0.00009523
H       10.40380519       9.82860211      13.90133418        0        0       0.00007619       0.00004519      -0.00004858
O        9.51156316       9.52881541      12.35247287        0        0      -0.00003881       0.00007494       0.00008951
H        9.80976346      10.09306067      11.59738650        0        0       0.00007257      -0.00009518       0.00000832
H       10.27492037       8.06445178      11.86308341        0        0       0.00016089      -0.00001341       0.00003601
N       11.36059570       4.60834270      15.26080169        0        0       0.00006456       0.00007834      -0.00014510
H       10.56235218       4.05009967      14.92125260        0        0       0.00010110       0.00007322       0.00016145
H       12.23992637       4.07908375      14.98751075        0        0      -0.00007321       0.00007820       0.00010258
H       11.31582809       4.73017228      16.26177156        0        0      -0.00001097      -0.00007778      -0.00027213
N      -10.39464981      24.12891917      12.91426400        0        0      -0.00000142       0.00019164      -0.00000654
H       -9.52227915      23.64359150      12.74874498        0        0      -0.00018105       0.00017244       0.00017049
H      -11.08999475      23.78944231      12.21161556        0        0       0.00020210       0.00000661       0.00031121
H      -10.72619183      23.93646594      13.86813918        0        0       0.00006441       0.00003503      -0.00027938
N       13.03223642       8.80379432      15.09693456        0        0       0.00004819       0.00001750      -0.00002547
H       13.21283467       8.33485807      14.19881317        0        0       0.00008746      -0.00007066       0.00004023
H       12.87080376       8.07757345      15.78286940        0        0      -0.00002820      -0.00001639      -0.00007083
H       13.84865639       9.33524884      15.37171787        0        0       0.00006719      -0.00001718      -0.00001284
N        8.52014150       0.62162439      13.46068107        0        0       0.00012445       0.00000222      -0.00012421
H        8.81788688       1.60052962      13.69165358        0        0      -0.00016892      -0.00064379      -0.00016855
H        8.23985477       0.63403800      12.45590299        0        0       0.00010500       0.00009258       0.00051102
H        7.75915671       0.27217555      14.03262440        0        0       0.00050878       0.00009945      -0.00030559
H        9.35707939       0.01717383      13.61043541        0        0      -0.00039806       0.00032639      -0.00002621
N       14.48925745       1.07091297      16.10101224        0        0      -0.00005324      -0.00004702      -0.00003169
H       15.31697873       0.87155540      15.54950569        0        0       0.00000732       0.00003518       0.00001101
H       14.77767998       1.30079361      17.04332971        0        0       0.00005887       0.00009222      -0.00011638
H      -10.19774532      25.20161297      12.87454595        0        0      -0.00006841      -0.00028619       0.00011440
H       14.06281094       1.89878923      15.65950845        0        0      -0.00003730      -0.00006635      -0.00005016
N       10.92833372       0.64085837      10.76540720        0        0       0.00001712      -0.00005613      -0.00007545
H      -13.96951475      25.31001748      11.04807149        0        0      -0.00011801      -0.00000019       0.00005456
H       11.66776418       0.18639302      10.22600311        0        0       0.00017688      -0.00002327      -0.00008705
H       11.38849481       1.08462613      11.59584217        0        0       0.00003541      -0.00004356       0.00001943
H       10.51317096       1.44144179      10.21466448        0        0      -0.00007673       0.00006969      -0.00007644
N       16.31591276       3.95975688      22.18406543        0        0       0.00014426       0.00015999      -0.00005445
H       16.68037429       4.75335382      21.45316678        0        0      -0.00007264       0.00004792      -0.00023157
H       15.63674654       3.38694336      21.68081772        0        0       0.00006361       0.00009778      -0.00013767
H       15.86312352       4.39707597      22.98792843        0        0       0.00007198      -0.00007782      -0.00020821
H       17.09417385       3.37476608      22.49172742        0        0      -0.00008154       0.00014264       0.00006525
P       11.91793427       6.71032155      12.60771043        0        0      -0.00000022       0.00000908      -0.00004806
O       11.26589338       6.81799709      13.97653494        0        0      -0.00005423      -0.00003589      -0.00012420
O       10.85496705       7.33156991      11.53994299        0        0       0.00001718      -0.00007630       0.00005759
O       12.00345174       5.26551667      12.12080302        0        0      -0.00005792       0.00001033      -0.00003051
O       13.19711619       7.50367685      12.50286441        0        0       0.00001514       0.00000620      -0.00010210
H       11.32848129       5.57833103      14.75263398        0        0       0.00000923      -0.00017253      -0.00000504
P       13.39637480       2.38051756      13.17219993        0        0       0.00020602       0.00003708       0.00002501
O       14.41304845       1.27093436      13.09984247        0        0      -0.00004072      -0.00011239      -0.00004166
O       13.67712476       3.36080550      11.93470337        0        0      -0.00001901      -0.00001480      -0.00016284
O       13.45017964       3.17618177      14.46026749        0        0      -0.00024445       0.00003020       0.00009052
O       11.95997672       1.83348692      12.94874888        0        0       0.00023436       0.00010215       0.00007448
H       13.10029218       4.20995650      11.99129525        0        0       0.00013775       0.00012428      -0.00006331
