     384
 i =        0, time =        0.000, E =     -5880.6492021477
  S         0.0002641208       -0.0001455013       -0.0000403377
  S         0.0001041185       -0.0000590781       -0.0000734147
  S        -0.0000475986       -0.0001008709       -0.0001551953
  S         0.0003369171       -0.0002265381        0.0001188040
  S         0.0003148209       -0.0001128955        0.0000483434
  S         0.0001173882       -0.0001065070        0.0002238403
  S         0.0000175882       -0.0001042212        0.0001413925
  S        -0.0002250000       -0.0001790906       -0.0001175308
  S        -0.0001677405        0.0001600100       -0.0001456494
  S        -0.0000159812        0.0003313893       -0.0001005992
  S        -0.0000518665        0.0002718264       -0.0001040656
  S         0.0001339051       -0.0000458159        0.0002040338
 Ca         0.0000176905        0.0000595398       -0.0001691205
 Ca        -0.0000860142       -0.0000273283        0.0001339302
 Ca        -0.0000031845        0.0002635208        0.0000091379
 Ca         0.0002963631        0.0000923651        0.0000460564
 Ca         0.0000035336       -0.0002035962        0.0001634366
 Ca        -0.0000310612        0.0000656068        0.0000570055
 Ca         0.0000981676        0.0000095171       -0.0000269159
 Ca        -0.0000796840        0.0001351066        0.0000729004
 Ca         0.0001002466       -0.0000108628        0.0003005242
 Ca        -0.0001472098        0.0000088426       -0.0000586410
 Ca         0.0002266517        0.0000099068       -0.0000789524
 Ca        -0.0003843278       -0.0000307732        0.0000251463
  O        -0.0002250052        0.0001911389       -0.0001378178
  O         0.0003543419        0.0002370650        0.0003032262
  O         0.0001364287       -0.0003374744        0.0001159743
  O         0.0000961660        0.0000224462        0.0000125416
  O        -0.0003638957       -0.0000433719        0.0001444843
  O        -0.0002737730        0.0000174591       -0.0000819490
  O        -0.0000041798        0.0002994051        0.0002162996
  O        -0.0001393428        0.0001440429        0.0002360300
  O         0.0004828711        0.0002657086        0.0002796395
  O         0.0000947490       -0.0002055047       -0.0001608324
  O         0.0004466863        0.0001695852       -0.0001473046
  O        -0.0002667660       -0.0002412675        0.0000418861
  O        -0.0003756099        0.0001962461       -0.0000996550
  O        -0.0000905273        0.0004137452        0.0001251787
  O         0.0000214978       -0.0000609964       -0.0000056795
  O        -0.0003220819       -0.0000049867        0.0000354886
  O         0.0000580791        0.0000366353       -0.0003602336
  O        -0.0001005650       -0.0002368473       -0.0001229526
  O        -0.0001098690       -0.0000998482       -0.0000889441
  O         0.0000772395       -0.0001366456       -0.0000176950
  O        -0.0003605903       -0.0003701114       -0.0000141279
  O        -0.0000451531       -0.0001113647       -0.0002195324
  O         0.0001547062        0.0000648860       -0.0004636314
  O         0.0001247488        0.0003406633        0.0000015920
  O        -0.0003345504       -0.0000520068       -0.0000834107
  O         0.0001619811       -0.0001067350        0.0000763384
  O         0.0001464940       -0.0000069557       -0.0000085507
  O         0.0002751464       -0.0002258405        0.0002638654
  O         0.0001370264        0.0004836836        0.0002321804
  O         0.0000313812        0.0000317268        0.0000532425
  O        -0.0003382108       -0.0000590242       -0.0003850678
  O        -0.0001736579       -0.0002094372       -0.0000459343
  O         0.0002978715       -0.0000418614       -0.0001216161
  O         0.0004252084       -0.0001007111        0.0003073646
  O         0.0000662100       -0.0000227503        0.0003175015
  O         0.0000877384       -0.0000984011       -0.0000830276
  O        -0.0000968800        0.0001632542        0.0002485902
  O         0.0001269712       -0.0002431770        0.0000321468
  O        -0.0000268804        0.0000456789       -0.0000842075
  O         0.0002449721       -0.0001790624        0.0001816791
  O        -0.0001984186        0.0002151099       -0.0003107492
  O         0.0000413257       -0.0001867216        0.0003035221
  O        -0.0001536942        0.0001778884        0.0002870132
  O         0.0002967489        0.0001685813        0.0003673241
  O         0.0001320842        0.0000588865        0.0000421983
  O         0.0002425295        0.0000725088       -0.0005311422
  O         0.0001808542        0.0002197340        0.0005105782
  O        -0.0000041058       -0.0002069247       -0.0001172856
  O         0.0001549728       -0.0003970652        0.0001509099
  O        -0.0001340642        0.0003275302       -0.0001820291
  O        -0.0001803496       -0.0001339281       -0.0001061267
  O        -0.0001654880       -0.0004144515       -0.0000844560
  O        -0.0002074883       -0.0003324278        0.0004189693
  O        -0.0001228689        0.0000233314       -0.0003319421
  O         0.0000995869       -0.0000661305       -0.0002680422
  O         0.0000555902        0.0004701176       -0.0001250725
  H        -0.0004436748        0.0007910864        0.0017706245
  H        -0.0017408975        0.0003834432       -0.0008892171
  H        -0.0001187290       -0.0015749330       -0.0000236034
  H        -0.0005426516        0.0010727553        0.0007858866
  H        -0.0009145064       -0.0003520713       -0.0004671224
  H        -0.0003414309        0.0004534843        0.0008903746
  H        -0.0000944397        0.0014441412       -0.0001310491
  H         0.0007777228       -0.0007057228        0.0005604697
  H         0.0015440901        0.0010248204       -0.0009405584
  H        -0.0002252135        0.0005391034       -0.0002247956
  H        -0.0005879080       -0.0000125698       -0.0009476083
  H         0.0004479845        0.0001571711        0.0000766187
  H        -0.0003157209        0.0000382781       -0.0017679866
  H        -0.0002910734        0.0006112170       -0.0008486544
  H        -0.0009328378        0.0002074404        0.0012157816
  H         0.0003501618        0.0002260309       -0.0001869238
  S         0.0001394201        0.0000813449       -0.0002385078
  S         0.0000767279        0.0001174968       -0.0001430860
  S         0.0000018466        0.0001006425       -0.0000022125
  S         0.0000116373       -0.0001474757        0.0000289000
  S        -0.0001639164       -0.0001334943       -0.0000711700
  S         0.0001879239       -0.0001240163       -0.0000627151
  S         0.0000545438       -0.0001734800       -0.0000618893
  S         0.0000774730       -0.0000556011       -0.0000170654
  S         0.0004565230        0.0001556210        0.0000043988
  S        -0.0002591818        0.0000862674        0.0002337865
  S         0.0001718127       -0.0003272365        0.0002209792
  S        -0.0002434159        0.0001655973       -0.0000279607
 Ca        -0.0000108857        0.0000088908        0.0001117763
 Ca         0.0001855635       -0.0000629378        0.0001604552
 Ca         0.0001675790       -0.0001874052       -0.0000734127
 Ca         0.0002164645        0.0001999688        0.0001088016
 Ca        -0.0003806057       -0.0000938786       -0.0000052099
 Ca         0.0000690910       -0.0000291837        0.0001375877
 Ca        -0.0003094868        0.0001611152       -0.0003129488
 Ca         0.0001294220       -0.0000235415       -0.0002070231
 Ca         0.0000130516       -0.0001445276       -0.0000514164
 Ca         0.0001160611        0.0001244859        0.0000340346
 Ca         0.0000066790        0.0001019762       -0.0002449648
 Ca         0.0002167620       -0.0001257853        0.0000436033
  O         0.0001059655       -0.0001122851        0.0001419997
  O        -0.0000113112       -0.0002199492        0.0000982559
  O         0.0000416287       -0.0002160082       -0.0000435429
  O         0.0001171834        0.0004166564       -0.0001583341
  O        -0.0001748202        0.0000651119       -0.0001389304
  O         0.0002793730       -0.0001031379        0.0002672025
  O        -0.0002063888       -0.0003198572       -0.0002535673
  O         0.0001208225       -0.0000650921        0.0000462544
  O         0.0002611221       -0.0003285472       -0.0002405377
  O        -0.0000955791       -0.0002563758        0.0001560709
  O        -0.0002330968        0.0003320961        0.0000350191
  O        -0.0000111548       -0.0000758792       -0.0000069071
  O         0.0004600531        0.0002447205       -0.0002434580
  O        -0.0000620946        0.0002389226        0.0002163420
  O        -0.0000416448        0.0000514661       -0.0000433994
  O        -0.0002108130       -0.0001167387        0.0002142442
  O        -0.0000331649        0.0001505414       -0.0000098071
  O         0.0001383362        0.0003557302        0.0000334212
  O        -0.0000134906        0.0000623833        0.0000617244
  O         0.0003887649        0.0001615210        0.0001929221
  O         0.0001511566        0.0000535362        0.0004767846
  O        -0.0000420162        0.0001052858       -0.0001079852
  O         0.0003982499        0.0001265475        0.0000082562
  O         0.0001758879       -0.0000340039       -0.0002534037
  O        -0.0003353288       -0.0001146086       -0.0001568441
  O        -0.0001824012        0.0000244997       -0.0000849514
  O         0.0000199286        0.0000398520        0.0000783942
  O        -0.0003507787       -0.0001681084       -0.0001638834
  O         0.0001465596       -0.0000882312        0.0002240433
  O         0.0000381851       -0.0001380308       -0.0000391670
  O         0.0002278211        0.0003661979       -0.0004730958
  O         0.0002507487        0.0001608994        0.0000459568
  O        -0.0000996008       -0.0002170057       -0.0000613217
  O        -0.0002534284       -0.0003131688       -0.0001182282
  O        -0.0001097044       -0.0002674009        0.0003885468
  O        -0.0000997374       -0.0004615866        0.0003009999
  O         0.0000165608        0.0003237416       -0.0001810827
  O        -0.0001437261       -0.0002996677       -0.0000068487
  O         0.0000243638       -0.0005712598       -0.0000685352
  O         0.0001341129       -0.0002264310        0.0000372141
  O         0.0005511520        0.0000187294        0.0001957213
  O        -0.0001262023        0.0002091483        0.0002558405
  O         0.0000154133        0.0001783494       -0.0001840556
  O        -0.0002301301        0.0002237058        0.0001233621
  O        -0.0002881032       -0.0000345703       -0.0002434989
  O        -0.0002674627       -0.0002400132       -0.0003239909
  O         0.0002763003        0.0000026574       -0.0000124278
  O         0.0000424446       -0.0000225286        0.0000421800
  O        -0.0000965184        0.0000416010       -0.0002645626
  O        -0.0002459772       -0.0001578187       -0.0000028939
  O         0.0001063115       -0.0001151721       -0.0002543233
  O        -0.0003254770        0.0000189360        0.0002774209
  O        -0.0001048418        0.0006339654       -0.0000264727
  O        -0.0000347942       -0.0001013787        0.0002256754
  O         0.0003189961        0.0002071388       -0.0002356059
  O        -0.0002235499       -0.0003586005       -0.0000294118
  H         0.0018430334        0.0002749880        0.0012099457
  H         0.0001121786        0.0009685372        0.0000700164
  H        -0.0006729846        0.0007687007       -0.0009327950
  H        -0.0004311304        0.0007413392        0.0002605237
  H        -0.0006441327        0.0006769271       -0.0005925001
  H         0.0010648306        0.0000187998       -0.0002670619
  H         0.0003082038        0.0001253098       -0.0002843682
  H        -0.0014696892       -0.0006543639       -0.0003854829
  H         0.0004038129        0.0004074572       -0.0004291426
  H        -0.0008050889        0.0011148742        0.0003423353
  H         0.0035232320       -0.0008641731       -0.0001666587
  H         0.0012753745       -0.0006158303        0.0012079069
  H         0.0010906471        0.0005701422        0.0003288673
  H        -0.0002178363        0.0002497435        0.0010172573
  H         0.0012073806        0.0012604098       -0.0010959821
  H        -0.0002777309        0.0010166826        0.0000395117
  S        -0.0001497052        0.0000384626        0.0000873320
  S         0.0000593383        0.0001341525       -0.0003797239
  S        -0.0003401896        0.0000526253        0.0002673419
  S        -0.0000421054        0.0000125090       -0.0002083307
  S         0.0003008968        0.0000852634       -0.0001198908
  S         0.0000141300       -0.0003507300        0.0002443579
  S         0.0001228583       -0.0000012649        0.0003745913
  S        -0.0000377910        0.0000828031       -0.0001266332
  S         0.0000392831       -0.0002457389       -0.0001910528
  S         0.0001531577       -0.0000596592        0.0002706170
  S        -0.0001790251        0.0000105370       -0.0004516197
  S        -0.0003744616        0.0000642192       -0.0000227585
 Ca        -0.0002034132       -0.0001982226        0.0001442052
 Ca         0.0000238277       -0.0002658808        0.0002756265
 Ca        -0.0000044966       -0.0000975282        0.0000430975
 Ca         0.0000050110        0.0001951120        0.0001206836
 Ca        -0.0001856989       -0.0000223884       -0.0001470099
 Ca         0.0002711390        0.0000686193       -0.0001582127
 Ca        -0.0002036391        0.0001795267        0.0001232357
 Ca        -0.0000490657       -0.0000823046       -0.0002217677
 Ca        -0.0001204852        0.0000289911       -0.0000556733
 Ca        -0.0000460741       -0.0001210766        0.0000720641
 Ca         0.0000263326        0.0001288882       -0.0000878524
 Ca         0.0000346588       -0.0001321110        0.0001327320
  O        -0.0001779449        0.0003052082        0.0000626318
  O         0.0001396679        0.0001634501       -0.0000387496
  O        -0.0002983516        0.0003123858        0.0000408675
  O        -0.0000381952        0.0000826952       -0.0001379550
  O         0.0002882230       -0.0000736523       -0.0003170132
  O        -0.0001690769        0.0000282472       -0.0001529093
  O         0.0003886676        0.0000415963        0.0001786291
  O        -0.0001510028        0.0001250267        0.0003109078
  O         0.0000585814        0.0000086282        0.0001649345
  O         0.0002007168       -0.0001516826        0.0001832375
  O         0.0000173912        0.0001160279       -0.0001969661
  O        -0.0000886166        0.0000746595        0.0001072865
  O        -0.0004761050        0.0000114079        0.0000452844
  O         0.0004482899       -0.0001146679       -0.0001229223
  O        -0.0001077336       -0.0001251645       -0.0001947222
  O        -0.0000382720       -0.0001419829       -0.0000402091
  O        -0.0000873995        0.0001630155       -0.0000278241
  O         0.0001025613        0.0001284200        0.0000502714
  O         0.0002999728       -0.0000927606       -0.0000492271
  O         0.0002680425       -0.0000227495        0.0001517606
  O        -0.0000314894       -0.0001373428        0.0003219028
  O         0.0002241969        0.0000187649       -0.0001863838
  O         0.0004365450       -0.0002180051        0.0001761710
  O         0.0001698413        0.0001880394        0.0000537748
  O        -0.0002750753        0.0002309456       -0.0000270311
  O        -0.0002361171        0.0000704345       -0.0001149086
  O         0.0000744467       -0.0000403741        0.0000920100
  O        -0.0002256449       -0.0000093772       -0.0003282665
  O        -0.0003122824        0.0002426896       -0.0000016036
  O        -0.0000007727        0.0001903848       -0.0000037492
  O         0.0000489087       -0.0000246185       -0.0001087354
  O        -0.0002554747        0.0001164725       -0.0000089222
  O        -0.0002789382       -0.0004370552       -0.0002881882
  O         0.0001163781       -0.0003729681        0.0000529711
  O        -0.0001750018       -0.0000819777        0.0001672104
  O         0.0000531933        0.0001523557        0.0003852874
  O         0.0003655128        0.0000985696       -0.0001763214
  O        -0.0000495708       -0.0001392877        0.0003686336
  O         0.0000491923        0.0003265958        0.0000745300
  O         0.0000001209        0.0002811312        0.0000713840
  O        -0.0000675480        0.0001203497        0.0004581398
  O         0.0000319693        0.0001339232       -0.0000189767
  O        -0.0000866501       -0.0001626438       -0.0001414191
  O         0.0003458889       -0.0001453388       -0.0004642989
  O         0.0003926267        0.0001336714        0.0000785420
  O        -0.0000805592       -0.0001213665        0.0000438387
  O         0.0000895764        0.0001546917        0.0002766261
  O         0.0001647168        0.0000730933       -0.0000736610
  O        -0.0001947056        0.0001604572        0.0003329787
  O         0.0002573869       -0.0001259174       -0.0002725402
  O        -0.0001505759        0.0004236097       -0.0000931113
  O        -0.0002173556        0.0002993263       -0.0001816604
  O        -0.0004614046       -0.0002327062       -0.0000436860
  O        -0.0000143313       -0.0001383695       -0.0001022614
  O         0.0000659482       -0.0001100064       -0.0002617914
  O        -0.0001025568        0.0000245698        0.0000159298
  H         0.0010591993       -0.0013759647        0.0001437553
  H        -0.0004506938        0.0019368404        0.0008137560
  H        -0.0002148759       -0.0004431573        0.0013359535
  H        -0.0002339954       -0.0003108190       -0.0010259820
  H        -0.0012428894        0.0005293048       -0.0001328762
  H         0.0000270062       -0.0004722474       -0.0004859112
  H         0.0013109318       -0.0004587160        0.0011824486
  H         0.0002710392       -0.0004602758       -0.0006580333
  H         0.0009017938       -0.0004695374        0.0009297658
  H        -0.0009326436       -0.0004421084       -0.0002545165
  H        -0.0009510298       -0.0000751262       -0.0002138054
  H         0.0008423790       -0.0007083963       -0.0005188121
  H         0.0000824007        0.0011290971       -0.0002077233
  H        -0.0003840915       -0.0007926725       -0.0002885846
  H        -0.0011221876       -0.0002722618       -0.0015937201
  H        -0.0007839626       -0.0010509586       -0.0008517407
  S         0.0000180558        0.0001199726        0.0000172431
  S        -0.0002560243       -0.0000108744       -0.0000731262
  S         0.0004511740       -0.0000956514       -0.0000870015
  S        -0.0000742383        0.0000897455       -0.0000172507
  S         0.0004314058        0.0000804548        0.0002415837
  S        -0.0002419166       -0.0001095000       -0.0000956293
  S        -0.0002238227        0.0003140500        0.0001108161
  S        -0.0001884313        0.0001104941       -0.0002808103
  S        -0.0000588178       -0.0000128264        0.0000600636
  S        -0.0000659150        0.0001854705        0.0000480301
  S        -0.0001386428       -0.0001320652       -0.0000208391
  S         0.0000307130       -0.0000326813        0.0001078575
 Ca         0.0000537216        0.0000446404        0.0000042079
 Ca         0.0001462380        0.0000779922       -0.0002245189
 Ca         0.0000235044        0.0001985605       -0.0000272401
 Ca         0.0001200183       -0.0000157533        0.0001418566
 Ca        -0.0001353971       -0.0002025965        0.0000512069
 Ca        -0.0000315373       -0.0000743415       -0.0000577409
 Ca         0.0000461656        0.0000576658       -0.0000487049
 Ca        -0.0002082429       -0.0002256703       -0.0000330876
 Ca         0.0000260303       -0.0001327850       -0.0003277826
 Ca         0.0000317257        0.0000116848        0.0000167701
 Ca        -0.0000963854       -0.0000604521       -0.0000986045
 Ca        -0.0000191870        0.0001621412        0.0001584100
  O        -0.0000948000        0.0002100316        0.0001938778
  O         0.0000245441       -0.0000043061        0.0000765411
  O         0.0000365442        0.0000907395       -0.0000977392
  O         0.0001587358       -0.0000547060        0.0001081444
  O         0.0001614302       -0.0001091735        0.0000558938
  O         0.0003571865        0.0004540496       -0.0000281188
  O        -0.0002488097        0.0001531396       -0.0000700351
  O        -0.0001211807       -0.0001378216       -0.0004790627
  O        -0.0001006566        0.0000341380       -0.0002918931
  O        -0.0000050704        0.0003308874       -0.0004162505
  O        -0.0005026185        0.0001870043       -0.0000673441
  O         0.0001208324       -0.0000781929       -0.0000490206
  O        -0.0003817458       -0.0000250937        0.0003469531
  O        -0.0000969410       -0.0002366295       -0.0001600785
  O         0.0004689470        0.0000675049        0.0001398036
  O        -0.0002132528        0.0002426087        0.0000035304
  O        -0.0001702730        0.0003673274        0.0003403189
  O        -0.0000148638       -0.0002297277        0.0004119441
  O        -0.0003616501       -0.0000161381        0.0000344641
  O        -0.0000993537       -0.0000982191       -0.0002228025
  O         0.0002237615       -0.0000914876       -0.0001259314
  O         0.0002889478        0.0001645405        0.0004101469
  O         0.0001749146       -0.0001001047       -0.0000176736
  O        -0.0000954283       -0.0002754903        0.0001442975
  O         0.0000746487       -0.0000420402        0.0002200602
  O        -0.0002601163       -0.0001582541       -0.0005387306
  O         0.0000458025       -0.0000968250        0.0003234840
  O        -0.0000026794       -0.0001675626       -0.0000216068
  O        -0.0001973482        0.0001308406        0.0001860225
  O         0.0001465314       -0.0000378392       -0.0000142883
  O        -0.0002290554        0.0000047006       -0.0000030419
  O        -0.0002501412       -0.0003428425       -0.0005880705
  O         0.0002458716        0.0002130592        0.0000517248
  O        -0.0000120158       -0.0003678134       -0.0003428974
  O        -0.0004203897       -0.0002871766        0.0001302038
  O         0.0000282869        0.0003116520        0.0000030334
  O         0.0003010524       -0.0000701481        0.0000727508
  O        -0.0002427888       -0.0005628459       -0.0002093880
  O        -0.0000323991        0.0000293228        0.0002096663
  O         0.0002368193        0.0001708182       -0.0002318616
  O         0.0005341903       -0.0003402315        0.0001731763
  O        -0.0001626227        0.0001024447       -0.0002538204
  O         0.0000182491       -0.0001062875       -0.0005059991
  O        -0.0001478652        0.0000396453        0.0000840883
  O         0.0000456827       -0.0003243075        0.0002808766
  O        -0.0002189440        0.0001785013        0.0001906091
  O        -0.0000887315       -0.0002154296        0.0002949022
  O        -0.0002413178       -0.0002328181        0.0002596730
  O        -0.0002494346        0.0001957295        0.0003697595
  O         0.0003137544       -0.0003575184        0.0000642997
  O        -0.0002947096        0.0001103460       -0.0001398185
  O        -0.0001100285        0.0001183674       -0.0002327889
  O         0.0003870608        0.0000652596        0.0004999572
  O        -0.0002747189       -0.0002268821       -0.0000257801
  O         0.0000914061        0.0005481969       -0.0002046365
  O        -0.0001017390        0.0004329741        0.0001050884
  H         0.0002815892        0.0008653423        0.0017993046
  H        -0.0011560556       -0.0006491516       -0.0003625667
  H        -0.0005473860        0.0004258734        0.0005563643
  H        -0.0013252813       -0.0001782353        0.0010926871
  H         0.0011118530        0.0000198020       -0.0007009811
  H        -0.0018268818        0.0004690543       -0.0005206220
  H        -0.0020710139        0.0000055508        0.0003672180
  H         0.0000104113        0.0006173862       -0.0004058757
  H        -0.0010258903        0.0005336749        0.0001466035
  H        -0.0000453801       -0.0008236583        0.0010010449
  H         0.0013314175        0.0009570694        0.0006262668
  H         0.0002006048       -0.0009099854        0.0007648831
  H         0.0011778857       -0.0001570664       -0.0005427629
  H         0.0005481842        0.0005617297       -0.0011651538
  H         0.0001102098        0.0007755341       -0.0004268242
  H        -0.0011443034        0.0002261755        0.0015150251
