     384
 i =        0, time =        0.000, E =     -5880.6492021477
  S         3.0566074106       12.0034267168        1.0140088835
  S         9.6224316872        5.9758242123        4.3330555069
  S         9.6596530536       -0.1028396948        0.9443290509
  S         3.2059445805        6.0191775605        4.3484007638
  S         5.1735531711        8.6323479489        1.8621673174
  S        11.5995927037        2.7671438391        5.7237318154
  S         7.5564979611        3.3682327041        1.7995671346
  S         1.0690554905        9.2731423528        5.7286543477
  S         1.0951684539        3.3188430986        1.8360673794
  S         7.4715698336        9.3049676784        5.5930869019
  S        11.6630634222        8.6186342495        1.7935485836
  S         5.3535133594        2.7093572891        5.5974196176
 Ca         6.3547544009        0.0409872347        2.6480907461
 Ca         0.0153275460        5.9855099521        4.1736711315
 Ca         1.9108058737        8.8415247523        2.4649485026
 Ca         8.4200273377        2.6735930219        5.5427271334
 Ca        10.8096651267        3.1153797343        2.3889279562
 Ca         4.4021285516        9.3301485436        5.5489469250
 Ca         4.4248985218        3.2564426651        2.3051989682
 Ca        10.6471441401        9.0877697703        5.5607116288
 Ca         8.3119456273        8.7733129491        2.3107379096
 Ca         2.2160482671        2.9350251318        5.6505850772
 Ca         0.0266014371       -0.0291496426        2.8028939705
 Ca         6.4229468363        6.0053722372        4.2534597849
  O         4.2579903073        0.8549652115        1.6159726674
  O        10.6427654172        6.7387888811        5.1087533923
  O         8.4602541180       11.1753815548        1.6193498613
  O         2.2165154158        5.2212216275        5.1244492575
  O         2.3241050404        1.5584517584        7.6914051467
  O         8.6147789618        6.9053126115        3.7283482911
  O        10.5408217394       10.3888205397        7.6180040252
  O         4.2428464848        5.1267266936        3.7315535365
  O         2.3047753386       11.2630232793        2.1835747333
  O         8.8427215791        5.0344716217        5.1697985548
  O        10.4656566947        0.6844942537        2.0484740364
  O         3.9449089203        6.9935588334        5.1721647458
  O         4.2279161861       10.5441297122        7.6209697503
  O        10.4017386397        5.2865351762        3.2397027338
  O         8.5712002619        1.4665268359        7.6244199841
  O         2.3853684688        6.6653469586        3.2482993584
  O         4.1935676637        8.9238288139        3.0226733598
  O        10.5633380525        3.1984578055        6.6662585703
  O         8.5344254012        3.0161868910        2.9405282628
  O         2.2078713820        8.8801638741        6.5661227781
  O         6.0983397399        7.4523815561        2.2858564582
  O        12.4472787893        1.6455377909        6.1576302148
  O         6.6799771896        4.5642898347        2.2725924459
  O         0.1933335710       10.2966297670        6.3441782255
  O         6.1899152050        9.8223532435        1.8797573378
  O        12.5140668613        3.8958440154        5.3306885546
  O         6.5165403661        2.1981214898        1.8015410446
  O         0.1984170309        8.1070420100        5.3480768264
  O         4.6674453112        9.3776355614        7.8702639397
  O        10.8067794634        2.2860277024        4.4750471815
  O         8.0458378099        2.5747397187        7.9343389884
  O         1.6645722033        9.8920145462        4.4542552564
  O         2.1456889345        3.0298815944        2.9284419745
  O         8.4648477510        8.8044892736        6.5553510833
  O        10.6451356991        8.9162845990        2.9177126248
  O         4.4066865535        3.1408532108        6.6310304178
  O         0.1194829639        4.3885327415        2.4208452451
  O         6.6122167556       10.4250098176        6.0082091130
  O        12.6638215654        7.5565901371        2.3478143336
  O         6.2158594653        1.5586863772        5.9158016853
  O         0.1344614326        2.0639755563        1.8026319754
  O         6.5301620606        8.1925126672        5.1732100106
  O        12.6134806110        9.8776808369        1.7284823006
  O         6.2802952307        3.8347014143        5.1878963915
  O         1.9466454430        2.7238664449        8.0202224187
  O         8.2992040970        9.8010264401        4.3830839049
  O        10.9161397573        9.2199709132        7.9369975623
  O         4.4731648629        2.2836867823        4.3968514902
  O         4.0498469435        5.2668373968        0.9799068972
  O        11.3090568935       11.4126503929        4.5587086388
  O         8.7347372616        6.7639467725        0.9793072095
  O         1.3972784632        0.6966763527        4.7247476611
  O         2.3446798003        6.2953128372        7.9470393053
  O         8.2829117157        0.5072115163        4.1959332785
  O        10.0351030511        5.8144132729        8.0224286615
  O         4.4261851892       11.4377864955        4.2007099677
  H         4.8555122592        5.7673248276        1.2079829667
  H        11.7447510186       -0.3146305478        5.4500529098
  H         7.9443804665        6.2370634160        1.2010847539
  H         0.5978210843       12.8652334549        5.4543578815
  H         2.1160722539        6.3474250025        8.8822995580
  H        10.9201925358       12.3061835244        4.6873603475
  H         9.2846533341        6.1852669850        7.5458208304
  H         1.7600395126       -0.1929557519        4.9123330829
  H         3.3647182529        5.7097039158        1.5114303184
  H         8.3465572649       -0.4045634683        4.5631133342
  H         9.4335583156        6.3367113811        1.5034972424
  H         4.3579228341        0.4816636927        4.5326605689
  H         2.2532854303        7.2032745121        7.6275915543
  H         8.9746812229        0.5376704027        3.5051526296
  H        10.2419916906        4.9989868805        7.5454556545
  H         3.6848767180       11.3640474871        3.5614578710
  S         3.0812443703       24.0721555339        0.9415878022
  S         9.5856795761       17.9542048765        4.3584998574
  S         9.6235151965       11.9195488805        0.9020409056
  S         3.2067630670       17.9964589611        4.3537862924
  S         5.1755428838       20.6545635135        1.8846442106
  S        11.6125648121       14.6708076674        5.7100207347
  S         7.5523600517       15.3398953038        1.7895881653
  S         1.0715687719       21.2768134387        5.6932882206
  S         1.0892788421       15.2639996067        1.8379076924
  S         7.5182340219       21.2569865769        5.6120380772
  S        11.6839965538       20.6576253879        1.8094575612
  S         5.2938286286       14.6658194849        5.5584203061
 Ca         6.3440153376       11.9894232772        2.6424247742
 Ca         0.0117145359       17.9816053137        4.0980300775
 Ca         1.9158612868       20.8696435827        2.4726808027
 Ca         8.3786055232       14.6550644976        5.5464424129
 Ca        10.8221968669       15.1209431241        2.4162567663
 Ca         4.4775971708       21.3354777761        5.5664180886
 Ca         4.4178670533       15.1882625494        2.2919142288
 Ca        10.6492455131       21.1073525477        5.5634181732
 Ca         8.3199994985       20.7345277887        2.2995089734
 Ca         2.1592503899       14.8847782591        5.5594210775
 Ca        -0.0262122533       11.9186841483        2.7906575006
 Ca         6.3731171833       17.9763580731        4.2384695283
  O         4.2521973629       12.7949311687        1.6185571946
  O        10.5719779056       18.7359233969        5.1570781260
  O         8.4642983744       23.1271299599        1.6194213579
  O         2.2249983355       17.2331075519        5.1828441265
  O         2.2415968906       13.5073260816        7.5399273810
  O         8.5528869013       18.8459828474        3.7324498146
  O        10.5501960952       22.5105124608        7.5363195672
  O         4.1674510787       17.0770684998        3.6616965402
  O         2.3013166642       23.2767805766        2.0411159042
  O         8.8412746192       16.9713888681        5.1681664287
  O        10.4697909627       12.7081057136        1.9647060199
  O         4.0349147907       18.9196848081        5.1648505769
  O         4.3032237519       22.4099099622        7.7058388730
  O        10.4040463928       17.3089446985        3.2513291114
  O         8.4946637562       13.4991473324        7.6291118751
  O         2.3734862400       18.7006717637        3.3135204100
  O         4.2301555290       20.9572969641        3.0709385811
  O        10.5648307000       15.1046575731        6.6380183996
  O         8.5458356388       15.0477694041        2.9348541034
  O         2.2381950888       20.8381860510        6.4723066046
  O         6.1014198218       19.4709372903        2.2880866619
  O        12.4524022188       13.5742767193        6.2384867140
  O         6.6839496644       16.5652508983        2.2053509975
  O         0.2028152414       22.2430136684        6.4042271194
  O         6.1949228775       21.8393483380        1.8753646993
  O        12.5164934600       15.7840176709        5.2654924413
  O         6.5169071778       14.1629850479        1.8698048323
  O         0.2010055491       20.1274200895        5.2690159412
  O         4.7464862723       21.2440620936        7.9389045851
  O        10.8603289503       14.1315655679        4.4697048387
  O         8.1104242549       14.6699624733        7.9348123030
  O         1.6412763067       21.9749214322        4.4443747604
  O         2.1343755992       14.9859214924        2.9396442769
  O         8.4770728615       20.8334809267        6.6341956338
  O        10.6476525956       20.9397431898        2.9211713782
  O         4.3365071436       15.1631159751        6.5565458099
  O         0.1166217713       16.3347075630        2.4218232791
  O         6.6549016636       22.4174241215        5.9187770155
  O        12.6640507421       19.5734762427        2.3501329531
  O         6.1718346045       13.5451690848        5.9345778977
  O         0.1297573293       14.0128093333        1.8050514197
  O         6.5744495876       20.1290622630        5.2529303188
  O        12.6554096060       21.9043511197        1.8038743861
  O         6.2120407098       15.7784601295        5.0965473667
  O         1.8731618273       14.6636338138        7.9318091958
  O         8.3766584961       21.6727790377        4.3926024246
  O        11.0087604366       21.3951725220        7.9322265940
  O         4.4143152024       14.1692993932        4.3829772017
  O         4.0516648696       17.1950249720        0.8989739772
  O        11.2015424809       23.5379624631        4.6443896353
  O         8.8109016367       18.7061842296        0.9848594436
  O         1.2706008702       12.6900328306        4.7267086138
  O         2.8364347790       18.6400322868        8.1102827115
  O         8.2407528583       12.5406306578        4.1571949966
  O        10.2827392105       17.5884318500        8.1079678745
  O         4.4180053182       23.5186032479        4.2120445377
  H         4.8675878146       17.6789090021        1.1236384769
  H        11.9479324765       11.3172894867        5.3076764979
  H         8.0196326726       18.1734269377        1.1908763595
  H         0.7144713245       24.8179506985        5.4419459765
  H         3.2881506812       18.0590920668        7.4870666653
  H        10.7360326128       24.4010401270        4.6001217042
  H        10.4604110422       16.7203157788        7.7209320386
  H         1.6763872063       11.8332350751        4.9607974500
  H         3.3736739254       17.6575175371        1.4176400316
  H         8.3357770575       11.6201028943        4.5052365624
  H         9.4906014151       18.3015883805        1.5534131730
  H         4.3610961976       12.3613763535        4.5423343278
  H         2.5031309930       19.3612642509        7.5581611262
  H         8.9568979792       12.6196078459        3.4973557671
  H        10.3193110057       17.4366406046        9.0586406242
  H         3.6919762880       23.4385328908        3.5613039556
  S        15.8885329857       12.0330205887        0.9063344038
  S        22.3030954777        5.9768951136        4.3569419153
  S        22.4528874520       -0.1047737549        0.9888622962
  S        15.9393987114        6.0037208657        4.3865632142
  S        17.9402365338        8.6633223498        1.8579575908
  S        24.3977598696        2.7232288832        5.7289592507
  S        20.3564994528        3.3278099048        1.8831896474
  S        13.8842713710        9.2749657006        5.7081883134
  S        13.8439152661        3.3107101058        1.7906952762
  S        20.2277877945        9.2905565612        5.5989274299
  S        24.4003161196        8.6602369991        1.8464810534
  S        17.9923387414        2.7322018594        5.6158840546
 Ca        19.1526293724       -0.0491376154        2.6376339453
 Ca        12.7932962744        5.9678204014        4.1209499945
 Ca        14.6831681712        8.8402650947        2.4641049999
 Ca        21.0949874176        2.6477936398        5.5498234224
 Ca        23.6005675969        3.1067668059        2.4831754506
 Ca        17.1375319781        9.3171308002        5.5522405398
 Ca        17.1997814364        3.2518851046        2.3056292364
 Ca        23.3562585363        9.0899081852        5.7034251783
 Ca        21.1012592146        8.7859879614        2.3024217027
 Ca        14.8139968132        2.8206699027        5.5934345041
 Ca        12.7268316162        0.0103372455        2.7496103012
 Ca        19.1408831331        6.0062962398        4.2630443321
  O        17.0458598613        0.7754607871        1.7113898780
  O        23.2777114282        6.7445346684        5.1864311529
  O        21.2444999585       11.1715269012        1.6207677325
  O        14.9580571545        5.2065951407        5.1760382856
  O        14.8876981853        1.4764846804        7.6186170518
  O        21.3382629166        6.8892661626        3.6603386610
  O        23.2423162919       10.4670446537        7.7018842327
  O        16.9586416564        5.1217148275        3.7281993638
  O        15.0280324096       11.2576143627        1.9628983881
  O        21.4712353314        5.0549274173        5.1687142827
  O        23.1992359619        0.6892612551        2.1108641571
  O        16.7125735287        6.9791937298        5.1791742382
  O        16.9696390372       10.4131742128        7.6343743451
  O        23.1440683031        5.2637909382        3.3284436109
  O        21.1856786604        1.5442558369        7.6348290564
  O        15.0991567527        6.6701548053        3.3101620259
  O        16.9687830519        8.9844865644        3.0195225052
  O        23.2800460654        3.2055558739        6.5519052355
  O        21.3091410961        3.0145962087        3.0626140850
  O        14.9447754757        8.8822386258        6.6387399638
  O        18.8231101647        7.4542053272        2.2779339929
  O        25.2359456097        1.7051567130        6.3979942775
  O        19.4673930612        4.5415717899        2.2866597426
  O        12.9703218998       10.3107961969        6.2350304271
  O        18.9834804890        9.8294356058        1.8837688818
  O        25.3036857175        3.8344905140        5.2725313564
  O        19.3160740716        2.1549264086        1.8865683851
  O        13.0481643232        8.1138150593        5.2548405156
  O        17.4619935172        9.2858836090        7.9351047331
  O        23.7519517579        2.0766851505        4.4871463602
  O        20.8206872048        2.7218724062        7.9343029664
  O        14.6121241864        9.8730389760        4.4792439898
  O        14.8595543515        3.0220008368        2.9163049282
  O        21.1637686761        8.8104381680        6.6290447904
  O        23.4182657993        9.0144892733        2.9796667672
  O        17.0342353414        3.1388129433        6.6417060916
  O        12.8461422468        4.3679160154        2.3517808432
  O        19.3800770960       10.4510139123        5.9260943916
  O        25.3882219369        7.6029060706        2.4239307124
  O        18.8480510772        1.5575254466        5.9222967078
  O        12.8904876889        2.0533303175        1.7264076422
  O        19.2900645886        8.1814910250        5.1780767797
  O        25.3809381188        9.8909067790        1.7141084247
  O        18.9643368658        3.8338146412        5.2556896521
  O        14.5087667093        2.6446667786        7.9416624411
  O        21.1160988109        9.7220748094        4.4089060889
  O        23.5548051705        9.2993414269        8.0924873298
  O        17.1213749585        2.3546429364        4.3963915146
  O        16.7705717809        5.2737016885        0.9866647432
  O        24.0619580331       11.4213851841        4.7219281109
  O        21.4493207808        6.7754616875        0.8999353139
  O        14.3085528246        0.4573093401        4.6400919139
  O        15.7832464926        6.5475155285        8.1086753886
  O        21.0848516298        0.4471396955        4.2152070572
  O        22.7454171463        5.4122664094        8.1886786923
  O        17.2038878547       11.4984413040        4.2156560338
  H        17.5594953149        5.8042454951        1.2083158374
  H        24.7125996332       -0.8826911290        5.3995604910
  H        20.6701326908        6.2570033678        1.1756880057
  H        13.4826889304       12.7399292416        5.2943815071
  H        15.2863432784        7.2987428409        7.7557098108
  H        23.6846124803       12.3124571769        4.8811032859
  H        22.2061337043        5.8457066684        7.5171550706
  H        14.9654183739       -0.1947053426        4.3327381829
  H        16.0798814996        5.6837775130        1.5358395181
  H        21.1784760239       -0.4837957533        4.5322705586
  H        22.1743702749        6.3442514098        1.3800619871
  H        18.0936132267       -0.0883769917        5.2414286809
  H        15.6496556605        6.6000454325        9.0628631914
  H        21.8152123435        0.5508366708        3.5716656411
  H        23.0964744036        4.6377609365        7.7286271667
  H        16.4863283147       11.4205461843        3.5582891806
  S        15.9021125529       23.9533428850        1.0270603680
  S        22.3128242886       17.9395767264        4.3132977523
  S        22.4245905986       11.9759750506        1.0073683634
  S        15.8914742633       17.9793744109        4.3614875317
  S        17.9275343433       20.6015061408        1.8445070197
  S        24.3257622697       14.7584130486        5.7985712126
  S        20.3201790185       15.3238149100        1.8796548465
  S        13.9054876777       21.2357606405        5.7193492241
  S        13.8452853434       15.3233983063        1.7876139738
  S        20.1590630903       21.2574130704        5.5777286721
  S        24.4668910364       20.6182249789        1.7142350472
  S        18.0515197707       14.6784971563        5.6052100204
 Ca        19.1511353097       11.9844563727        2.7199733709
 Ca        12.7435302801       17.9640830167        4.1087403979
 Ca        14.7101394509       20.8355605928        2.4557299432
 Ca        21.1470208101       14.6436325445        5.5570180972
 Ca        23.5770722019       15.0663112571        2.4830408579
 Ca        17.0535005818       21.2651334819        5.5620686440
 Ca        17.1925264208       15.2040812128        2.3085065384
 Ca        23.3700675565       20.8614966639        6.1124072111
 Ca        21.0790349719       20.7143349372        2.2842207538
 Ca        14.9318370852       14.8896541629        5.5660173764
 Ca        12.7498799298       11.9777869078        2.6297717486
 Ca        19.1271115851       17.9607049296        4.2500082941
  O        17.0386835579       12.7918164806        1.6211811611
  O        23.3414421785       18.6919003809        5.0928176574
  O        21.2485332989       23.1188676659        1.6158439656
  O        14.8824485008       17.2263828326        5.1649833986
  O        14.9585762411       13.5066668105        7.5445968503
  O        21.3268052945       18.8493560844        3.6573093535
  O        23.0900411732       22.8204812891        7.4743096078
  O        16.8985485258       17.0580033587        3.7451875307
  O        14.9979511325       23.2787801317        2.0970057062
  O        21.4998065194       17.0461400865        5.1724837430
  O        23.1953676661       12.6993771997        2.1812811678
  O        16.6555425226       18.9458003372        5.1701334753
  O        17.0110932312       22.4848614929        7.6968673314
  O        23.1144907156       17.2274324391        3.2493347910
  O        21.2735201325       13.4316805413        7.6252418296
  O        15.0887506764       18.6281347692        3.2519116169
  O        16.9863015071       20.9452442144        3.0196755166
  O        23.2736976577       15.3233674393        6.6422539007
  O        21.2677668889       15.0311978184        3.0615478476
  O        14.8563028447       20.8118825891        6.7491342160
  O        18.8231354993       19.4028708386        2.2745917517
  O        25.0833007149       13.6461506319        6.4130771663
  O        19.3938459677       16.5106340926        2.2787719437
  O        13.0614047321       22.3937793565        6.0929159134
  O        18.9723101958       21.7679423934        1.8040322251
  O        25.3146419009       15.7953801519        5.3323092449
  O        19.3024938803       14.1354719509        1.8827771537
  O        12.9862894674       20.1334975702        5.2688570541
  O        17.4561127075       21.3212455819        7.9385335403
  O        23.6019034436       14.1692217069        4.5575105010
  O        20.8317275834       14.5853714118        7.9341940628
  O        14.7793994522       21.6738282203        4.5318102008
  O        14.8598998515       15.0484442667        2.9157168130
  O        21.0850861829       20.8278605901        6.6330623072
  O        23.3533420242       20.8368224299        2.7353183693
  O        17.1148269669       15.1572533947        6.6286151783
  O        12.8326685686       16.3690648370        2.3438985773
  O        19.2967104990       22.4019110718        5.9279295563
  O        25.4570928401       19.5711535183        2.3441539838
  O        18.9052863649       13.5180466784        5.9226658462
  O        12.8963659549       14.0652763112        1.7230281536
  O        19.2236550731       20.1323767846        5.1883516465
  O        25.3842693952       21.9080363866        1.7826773166
  O        18.9938622625       15.7840305946        5.1798940028
  O        14.5842483314       14.6619115283        7.9306030022
  O        21.0114528158       21.6756226987        4.3780438672
  O        23.6245610116       21.8925377272        8.1815419777
  O        17.1534694521       14.2422221795        4.4114974157
  O        16.7704563021       17.2176673224        0.9847406785
  O        24.1007998384       23.2825471299        4.6414784174
  O        21.5258849692       18.7125412246        0.8998311153
  O        14.1369844466       12.5698345170        4.5619144723
  O        15.4592526441       18.4021652034        8.1927019131
  O        21.0870502833       12.4716378597        4.2177410394
  O        23.0747617063       19.1204235944        7.7274255923
  O        17.5195294317       23.6272674532        4.4802324132
  H        17.5644573975       17.7419748204        1.2033735039
  H        24.7053130937       11.2805698327        5.4636858010
  H        20.7372837524       18.1853027008        1.1228151414
  H        13.9151161539       23.9779797415        5.4225559927
  H        15.0904698949       19.2046846075        7.7980306928
  H        23.7113689276       24.1484360200        4.8704051880
  H        22.8849148684       19.2197238688        8.6675320989
  H        14.5048794781       11.6797304117        4.7525702218
  H        16.0778464753       17.6440414953        1.5187838816
  H        21.1624876824       11.5555427517        4.5727385966
  H        22.2176230307       18.3062510673        1.4483817191
  H        17.1217651707       12.4219368752        4.5549695884
  H        15.2466437869       18.4788698001        9.1294381377
  H        21.8229896112       12.5396365404        3.5737288973
  H        22.9356677231       18.1901339466        7.5079362604
  H        17.0495394072       24.4773730784        4.3277722084
