     384
 i =        0, time =        0.000, E =     -5880.6492021477
  S         0.0000289649        0.0000158898        0.0002073649
  S        -0.0001842446        0.0000336122       -0.0001002468
  S        -0.0001655994        0.0000767012        0.0000924808
  S         0.0001751412        0.0000567953        0.0000236266
  S         0.0001626854       -0.0000094365        0.0001097064
  S        -0.0000265895       -0.0001856232        0.0003528014
  S        -0.0000823474        0.0000211409        0.0000167296
  S         0.0000262681        0.0002442570        0.0004965222
  S         0.0001356524        0.0000415525       -0.0001397341
  S        -0.0000345774        0.0002232300        0.0004445619
  S         0.0001815170        0.0001191135        0.0000474618
  S        -0.0000947373       -0.0003676475        0.0004815188
 Ca        -0.0001865715       -0.0000044927       -0.0004375355
 Ca        -0.0000140165       -0.0000992989        0.0000747847
 Ca         0.0000830878        0.0000081870        0.0001132189
 Ca        -0.0001297411        0.0004011470       -0.0011878958
 Ca        -0.0000154798        0.0001456694        0.0000200011
 Ca         0.0001828732       -0.0002325316       -0.0005912629
 Ca        -0.0000360004       -0.0000902857       -0.0000701749
 Ca        -0.0002599523       -0.0007285676       -0.0013901643
 Ca        -0.0000744785        0.0003059770        0.0000226182
 Ca        -0.0000017773        0.0007330932       -0.0014870279
 Ca         0.0001218850        0.0000082942        0.0003630626
 Ca         0.0000446944        0.0001063004        0.0000608781
  O         0.0003697781        0.0004372240        0.0005430572
  O         0.0001192096        0.0001111982        0.0000341828
  O        -0.0001621337       -0.0002350120        0.0001428093
  O        -0.0000784806       -0.0001454303        0.0000759234
  O         0.0004932775       -0.0008773799        0.0003840400
  O         0.0002802431       -0.0000933639       -0.0000623093
  O        -0.0011916590        0.0010008880        0.0000225389
  O        -0.0001167721        0.0000198876       -0.0000350292
  O         0.0002152106       -0.0001103287       -0.0003499953
  O         0.0000276130       -0.0001509927       -0.0000153855
  O         0.0002955923       -0.0001215241        0.0001721835
  O        -0.0000517015       -0.0000035951       -0.0000782175
  O        -0.0006737637        0.0008038859       -0.0002350205
  O        -0.0001228106       -0.0001613039        0.0000513055
  O         0.0005096296       -0.0005135867        0.0003599638
  O         0.0000502358       -0.0000040201       -0.0000184891
  O        -0.0001243887        0.0000144170       -0.0000439776
  O        -0.0000504339        0.0000742819       -0.0002565913
  O         0.0001352951        0.0000328535        0.0001691713
  O        -0.0000316118       -0.0001228016       -0.0002545307
  O        -0.0001154616        0.0000327197       -0.0001643709
  O        -0.0000016525        0.0001724522       -0.0002843526
  O        -0.0000152903       -0.0000129673       -0.0000161472
  O        -0.0001868164       -0.0000027805       -0.0006317197
  O        -0.0001555182       -0.0001329540       -0.0000989689
  O         0.0001106657        0.0000234623       -0.0001119335
  O         0.0000479072       -0.0000259977       -0.0000584104
  O        -0.0002622061        0.0001424766        0.0000519902
  O         0.0005379724       -0.0004846477        0.0009091750
  O        -0.0000751043       -0.0000148946       -0.0000618847
  O        -0.0002099967       -0.0000477632        0.0003851009
  O         0.0000648454        0.0000065871       -0.0002478098
  O        -0.0001134776       -0.0000021718        0.0001140377
  O         0.0000469476        0.0000140355       -0.0004333400
  O         0.0000110494       -0.0000251479        0.0000987217
  O        -0.0000523922        0.0003851731       -0.0002230882
  O        -0.0000569517       -0.0000362949       -0.0000267502
  O         0.0000233630       -0.0000999714       -0.0002184591
  O        -0.0000354023       -0.0000234184       -0.0000137090
  O         0.0000775452        0.0001221683       -0.0002443758
  O        -0.0000003741       -0.0000069217        0.0000273173
  O        -0.0000942983       -0.0001771679        0.0002815261
  O         0.0000100313       -0.0001536266       -0.0001183375
  O         0.0000864457        0.0000692945       -0.0001027033
  O        -0.0000196006        0.0005892445        0.0000062388
  O         0.0002615490        0.0001128633       -0.0001197176
  O         0.0010737171       -0.0007769768        0.0002852777
  O        -0.0000766590        0.0000589199       -0.0001287220
  O        -0.0004115699        0.0002122913        0.0001704702
  O        -0.0000650670        0.0000885205        0.0002606618
  O         0.0001479880       -0.0000919569       -0.0000193017
  O         0.0003823295       -0.0000792806        0.0000085268
  O        -0.0000503651       -0.0004606239        0.0004321030
  O         0.0002230188        0.0001667375        0.0000832841
  O        -0.0000140630        0.0001470041        0.0001525538
  O        -0.0000695159        0.0000154241       -0.0000499739
  H         0.0000804092        0.0000337503        0.0000213548
  H         0.0000370549       -0.0000561655        0.0000626139
  H        -0.0001148233       -0.0000476871        0.0000044772
  H         0.0001106086       -0.0001041060       -0.0000479749
  H         0.0000727034        0.0000027635       -0.0002557636
  H         0.0000905715       -0.0001549182       -0.0000301815
  H        -0.0001331407        0.0001292791       -0.0000652883
  H        -0.0000473195        0.0000918801       -0.0000439458
  H         0.0002814874       -0.0002002089       -0.0002237584
  H        -0.0000288914       -0.0001521236        0.0001210851
  H         0.0000019056        0.0000327748       -0.0000356600
  H         0.0000150992        0.0000199005       -0.0000122276
  H         0.0000336048        0.0004013766       -0.0001995170
  H        -0.0000217260        0.0000501786        0.0000096669
  H         0.0000431792       -0.0001711409        0.0000055234
  H         0.0000431020       -0.0000146287        0.0000820439
  S         0.0001726558       -0.0001806855       -0.0008800693
  S         0.0000939923        0.0000723850        0.0000117380
  S         0.0001239288        0.0000802288       -0.0003399125
  S         0.0001796982        0.0001852664       -0.0001386881
  S        -0.0001107607        0.0000137294       -0.0000693579
  S        -0.0004227285        0.0002216826        0.0003479472
  S        -0.0000079179        0.0000010142        0.0000444373
  S         0.0000948404        0.0001535287        0.0002719519
  S        -0.0000747916        0.0000518825       -0.0000797778
  S        -0.0000566549        0.0001272877        0.0004571339
  S         0.0001046908       -0.0001098585       -0.0000050053
  S         0.0006782912       -0.0003527449        0.0002641901
 Ca         0.0002832273        0.0000012243        0.0003256418
 Ca         0.0000651264        0.0001718130        0.0000679440
 Ca         0.0001960928        0.0001719769        0.0000205963
 Ca         0.0001402038        0.0003364358       -0.0009234992
 Ca        -0.0000610640       -0.0001278361       -0.0000068411
 Ca         0.0002860284       -0.0002099681       -0.0010973436
 Ca         0.0002674159        0.0000885787        0.0000697796
 Ca        -0.0000780029       -0.0005348844       -0.0008179835
 Ca         0.0000617863       -0.0000668165       -0.0000025963
 Ca         0.0001378970        0.0005325702       -0.0011560858
 Ca        -0.0000414672       -0.0001569844       -0.0000328477
 Ca         0.0000379623        0.0000642568        0.0000661234
  O        -0.0000625940       -0.0001583813       -0.0003430215
  O        -0.0000591571        0.0000486687        0.0000028014
  O         0.0003255458       -0.0001028527        0.0001423848
  O        -0.0001563823       -0.0002279626        0.0001615976
  O        -0.0002192011        0.0006280942        0.0011095077
  O         0.0000125558       -0.0000430524       -0.0000737953
  O        -0.0005129215        0.0004419838        0.0001917272
  O        -0.0000417779       -0.0001055829       -0.0000216059
  O        -0.0003312749       -0.0003476660        0.0005337388
  O        -0.0000649620       -0.0000787136        0.0000413735
  O         0.0003853145        0.0001194881        0.0003146998
  O        -0.0000867195        0.0001002883       -0.0000659212
  O        -0.0010283782        0.0008580870        0.0002400849
  O        -0.0000740946        0.0000175339       -0.0000142984
  O         0.0009181991       -0.0019956898        0.0007318773
  O         0.0000109760       -0.0000533993        0.0000744440
  O         0.0000308843        0.0000171704        0.0000795107
  O         0.0001813399       -0.0001475506       -0.0002528798
  O        -0.0000202708        0.0000288774        0.0000683707
  O        -0.0000566040        0.0002244472       -0.0003248753
  O         0.0000373476       -0.0000314588        0.0000028706
  O         0.0002231133        0.0001858779        0.0002233595
  O        -0.0000254875       -0.0000226935       -0.0000664504
  O         0.0000876600       -0.0000783173       -0.0001473317
  O         0.0000333899        0.0000446983        0.0000383705
  O         0.0002959224       -0.0001073027        0.0000135783
  O        -0.0001489680        0.0001078277        0.0000029345
  O        -0.0001575677       -0.0000972419       -0.0001376480
  O         0.0006833404       -0.0007293424        0.0004781975
  O        -0.0000462120       -0.0001181143       -0.0000453086
  O        -0.0012013883        0.0012401842       -0.0001557921
  O         0.0000291434        0.0000776678       -0.0002125037
  O        -0.0000130767       -0.0001601811        0.0001891986
  O         0.0000931988        0.0000463179       -0.0001497462
  O        -0.0000020296        0.0001046781        0.0000170684
  O        -0.0003301712        0.0000479652       -0.0002601684
  O         0.0000123460       -0.0000962515       -0.0000940959
  O         0.0000859851       -0.0001181299       -0.0002315872
  O         0.0000651493        0.0000600806       -0.0000113389
  O        -0.0002288252        0.0002405647       -0.0002203337
  O         0.0000164703       -0.0000356370        0.0002042022
  O        -0.0000968841       -0.0000634151       -0.0003205443
  O        -0.0000503919       -0.0000359507       -0.0000412726
  O         0.0000384203        0.0002011900        0.0000935179
  O         0.0002960673       -0.0006790067       -0.0001222687
  O         0.0000607141        0.0000835141       -0.0002110472
  O        -0.0000397012       -0.0002828145        0.0001855636
  O        -0.0002851450        0.0000031813       -0.0000450286
  O         0.0000298413       -0.0000347485       -0.0000027569
  O        -0.0000494089       -0.0000476531        0.0000707323
  O         0.0001925368        0.0000225753       -0.0000243304
  O        -0.0003239948        0.0003919968        0.0000505376
  O        -0.0002409256       -0.0000247514       -0.0005404740
  O        -0.0000649479       -0.0000286841        0.0000454599
  O         0.0004384943        0.0004427061       -0.0002532492
  O         0.0000689210       -0.0002212282        0.0001768724
  H         0.0000514033        0.0000120701       -0.0000090594
  H         0.0000462185        0.0000195664       -0.0000179782
  H        -0.0000410030       -0.0000685575        0.0000589794
  H        -0.0001780037        0.0000671669        0.0001948397
  H        -0.0002478224        0.0002597425        0.0001474891
  H         0.0001166762       -0.0000401311        0.0000689487
  H        -0.0001538195       -0.0001497390       -0.0000039012
  H         0.0000431953       -0.0002197523        0.0000552528
  H        -0.0000748119        0.0000561263        0.0000349889
  H        -0.0000430960        0.0000767173       -0.0000382716
  H        -0.0001191763        0.0000306219       -0.0000574238
  H         0.0000906985       -0.0000079452        0.0000060809
  H         0.0002553425       -0.0004290659        0.0003841507
  H         0.0000443378       -0.0000518005       -0.0000515678
  H        -0.0000741108       -0.0000848832        0.0002446510
  H        -0.0000179424        0.0000102507       -0.0000442535
  S        -0.0000156789       -0.0001513252       -0.0001675053
  S        -0.0000720313       -0.0001701917        0.0000947996
  S        -0.0001345361        0.0001613076        0.0005808722
  S         0.0000416914        0.0000521150        0.0000598933
  S        -0.0000698765       -0.0000871472       -0.0000484941
  S        -0.0000664638       -0.0002925232        0.0006196408
  S        -0.0001095079        0.0000083369        0.0002478543
  S         0.0003056825        0.0001560833        0.0004983733
  S        -0.0001725760       -0.0000882312        0.0000939159
  S         0.0000962004       -0.0001854929        0.0003726487
  S         0.0000369078        0.0000154106        0.0000682793
  S         0.0001860907       -0.0001517618        0.0004319735
 Ca         0.0000799373        0.0000860920        0.0000842812
 Ca         0.0000102550        0.0000382608        0.0000211670
 Ca        -0.0000606177        0.0000418644        0.0000267648
 Ca        -0.0003092237        0.0000040381       -0.0003088822
 Ca         0.0000876924       -0.0000249227        0.0000192827
 Ca        -0.0005163088       -0.0003698885       -0.0004606448
 Ca         0.0000100192        0.0000243548        0.0000999667
 Ca         0.0001590081       -0.0009518106       -0.0017749965
 Ca         0.0000375669       -0.0000663657       -0.0000577559
 Ca         0.0004296575        0.0004522891       -0.0006527886
 Ca        -0.0001039003        0.0000789638       -0.0004819707
 Ca        -0.0001156225       -0.0001735188        0.0000960731
  O         0.0000496420        0.0002134416       -0.0000110512
  O         0.0000678556        0.0002160273       -0.0000045084
  O         0.0000185959       -0.0001528900        0.0000164818
  O         0.0001237156       -0.0000502166        0.0000075051
  O         0.0003991571       -0.0009071067        0.0003100039
  O        -0.0000201031        0.0000189663        0.0000458831
  O        -0.0005043973        0.0018298910       -0.0000702130
  O        -0.0000624896        0.0000803732       -0.0000902839
  O        -0.0001124073       -0.0000807635        0.0000551573
  O         0.0000693318        0.0000704871       -0.0001808451
  O        -0.0003522752       -0.0002996494       -0.0005217101
  O         0.0000190549        0.0001263991        0.0001481445
  O         0.0005197682        0.0006767697        0.0003470538
  O        -0.0000224394        0.0000633478        0.0000382093
  O         0.0009926200       -0.0006273150       -0.0002830832
  O        -0.0000449213       -0.0001296973       -0.0001919914
  O        -0.0001021887       -0.0000169850        0.0003748201
  O        -0.0000149035        0.0000665085       -0.0000583717
  O         0.0000513632        0.0000176904       -0.0001168732
  O        -0.0001262165       -0.0000202166       -0.0001990841
  O         0.0000645825        0.0000557068       -0.0000411792
  O        -0.0001132208        0.0001529564       -0.0002018405
  O         0.0000543182       -0.0000305556       -0.0001691929
  O        -0.0001606566       -0.0000217077       -0.0003290108
  O         0.0000822488       -0.0000601149        0.0000525514
  O         0.0002546842        0.0001802969       -0.0002401951
  O         0.0000741277        0.0000691642       -0.0002298078
  O        -0.0001796116       -0.0000292466       -0.0001511852
  O         0.0004766902       -0.0002051738        0.0002366724
  O        -0.0000815902       -0.0000256184       -0.0002173785
  O        -0.0006214903        0.0008755819        0.0002249276
  O         0.0000089193       -0.0001335097       -0.0004357389
  O        -0.0000014240       -0.0000349927        0.0000429742
  O         0.0001396559        0.0002669499       -0.0002680656
  O        -0.0001074865       -0.0000406177        0.0000770604
  O        -0.0001201720       -0.0001240123       -0.0001214197
  O         0.0000199750        0.0000068940       -0.0000457223
  O        -0.0000984079       -0.0000404763       -0.0001141576
  O        -0.0000541484        0.0000184754       -0.0001377970
  O        -0.0000173120        0.0002315036       -0.0000720433
  O        -0.0000199399        0.0001443700       -0.0001740214
  O        -0.0000770606        0.0000885343       -0.0001718614
  O         0.0001575322        0.0000305015       -0.0000098407
  O         0.0000594767        0.0001486922       -0.0000849056
  O        -0.0007988395        0.0003487018        0.0000474747
  O         0.0001408122        0.0001303263       -0.0000761970
  O        -0.0000422026       -0.0011881892        0.0015637082
  O        -0.0002477970       -0.0001821551       -0.0003745953
  O         0.0001564427       -0.0000219218        0.0000603317
  O        -0.0001475986       -0.0000404046        0.0001397795
  O         0.0000172284       -0.0000026074        0.0001053050
  O         0.0000743170        0.0003316049       -0.0000145969
  O        -0.0001593668        0.0000314857        0.0003368504
  O        -0.0000960325        0.0000988840       -0.0000910421
  O        -0.0000918242        0.0003797038       -0.0000098435
  O        -0.0000423358        0.0000326341        0.0000383628
  H        -0.0001305323       -0.0000768579       -0.0000193259
  H         0.0000019164        0.0000587432        0.0001134958
  H        -0.0000080779        0.0000338789       -0.0000165462
  H         0.0000216655       -0.0000547068       -0.0000333441
  H         0.0001077654       -0.0000770590        0.0001767303
  H         0.0000214299       -0.0000241146        0.0000012629
  H         0.0000469391       -0.0000458439        0.0000351029
  H         0.0000577382       -0.0000728715       -0.0000790947
  H        -0.0000321719        0.0000243399        0.0000318551
  H        -0.0000155537        0.0000737929       -0.0000194164
  H        -0.0000263741        0.0000212162       -0.0000132473
  H         0.0002164601        0.0001255506        0.0002948749
  H         0.0000703477       -0.0000395924       -0.0005044409
  H        -0.0000670976       -0.0000414819        0.0000652536
  H         0.0000415864       -0.0000606760        0.0000530502
  H         0.0000146776        0.0000022742       -0.0000041057
  S        -0.0000948914        0.0000523190       -0.0000774968
  S         0.0000404517        0.0001776128       -0.0000458997
  S        -0.0001526636        0.0000721038       -0.0001211865
  S        -0.0003648150       -0.0000935588       -0.0000000315
  S         0.0001176035       -0.0000513720        0.0001693751
  S         0.0003438770       -0.0004259656        0.0001605191
  S        -0.0000435781        0.0000192273       -0.0001544802
  S         0.0000316543       -0.0000553181        0.0009691779
  S        -0.0002514172       -0.0001658900        0.0001501997
  S        -0.0001163727        0.0004292782        0.0005887622
  S        -0.0000130338        0.0000508021       -0.0000902174
  S        -0.0003592106       -0.0001564049        0.0001729538
 Ca        -0.0001503356        0.0000501987       -0.0001986883
 Ca        -0.0000814426        0.0000776916        0.0000592295
 Ca        -0.0000987403       -0.0001504825       -0.0000038897
 Ca         0.0000557978        0.0003220063       -0.0009725987
 Ca        -0.0000425312        0.0000106879       -0.0001634722
 Ca        -0.0005416433       -0.0010266517       -0.0021355570
 Ca        -0.0001353917       -0.0000104321       -0.0000885222
 Ca         0.0000753942       -0.0003549686       -0.0004147275
 Ca         0.0000359972       -0.0000210383        0.0000519270
 Ca         0.0001133923        0.0001120275       -0.0002952637
 Ca        -0.0001684646        0.0001782997       -0.0001952425
 Ca         0.0000107184        0.0001971842       -0.0000221793
  O         0.0001900231        0.0002198565        0.0002105922
  O        -0.0001241540        0.0000235956        0.0000812603
  O         0.0002273185        0.0001261573       -0.0001519285
  O         0.0000677983       -0.0001073180        0.0000306181
  O        -0.0004570090        0.0010657249        0.0004202974
  O         0.0000069812       -0.0000390516       -0.0000593329
  O        -0.0005499235        0.0003828855        0.0005028749
  O         0.0001521007        0.0000155482       -0.0001070525
  O        -0.0001467889       -0.0000887622        0.0003184202
  O        -0.0000122810       -0.0001216238       -0.0000286628
  O         0.0001256892        0.0001468730        0.0000047932
  O         0.0001168368        0.0002501144       -0.0001225671
  O        -0.0008865279        0.0025040682        0.0000212624
  O        -0.0001267790       -0.0001870869       -0.0000594331
  O        -0.0003296060       -0.0003551538        0.0009648832
  O         0.0001447087        0.0000519137       -0.0000343363
  O        -0.0000394836        0.0000556033        0.0000390978
  O        -0.0002152407        0.0000728299       -0.0000928080
  O        -0.0000464020       -0.0000134231        0.0001824082
  O        -0.0001154232        0.0000107492       -0.0006536902
  O        -0.0000081815       -0.0000324821       -0.0000658400
  O        -0.0000036160       -0.0000082053       -0.0000874602
  O        -0.0000271737       -0.0000478302        0.0001103783
  O        -0.0000183746        0.0000710032       -0.0003504866
  O        -0.0000545668        0.0000922584       -0.0002153723
  O         0.0000757813        0.0001724200        0.0000408249
  O         0.0000643000        0.0000290789        0.0000214588
  O        -0.0000834235       -0.0001433191       -0.0000462365
  O         0.0017097970       -0.0006757107        0.0003021117
  O        -0.0001063884       -0.0000067690        0.0001414074
  O        -0.0000065140       -0.0001595912        0.0000941569
  O         0.0003873802        0.0000542056       -0.0000424794
  O         0.0002196075        0.0000081438        0.0000469405
  O         0.0002079546       -0.0000207691       -0.0002904503
  O        -0.0001029948       -0.0001603193        0.0001736021
  O         0.0001431137        0.0004110641        0.0002192116
  O         0.0000952737        0.0000403192       -0.0000917486
  O         0.0000231861       -0.0001254483       -0.0004578404
  O        -0.0000532336       -0.0000604792       -0.0000322689
  O         0.0000432807        0.0000891484       -0.0001031824
  O         0.0001274297        0.0001942654       -0.0000881992
  O        -0.0003561511       -0.0002868086       -0.0001347588
  O         0.0000001909       -0.0001828444        0.0000516328
  O         0.0000585429       -0.0000354335        0.0000548643
  O         0.0000529242       -0.0011185012       -0.0002222644
  O        -0.0000202848       -0.0001518102       -0.0001301592
  O         0.0006050491       -0.0002011102        0.0004200253
  O         0.0000724777        0.0000165749       -0.0000290239
  O         0.0003680614        0.0000877466        0.0002596742
  O         0.0001702888       -0.0001314030       -0.0002579865
  O        -0.0000838701        0.0001370490        0.0003364131
  O         0.0000433863        0.0000221377        0.0000626423
  O        -0.0002121853       -0.0002789109       -0.0002305583
  O        -0.0000679743       -0.0001028986        0.0001693269
  O        -0.0002925301        0.0001123198       -0.0000939739
  O        -0.0001862503       -0.0004383233       -0.0000150022
  H        -0.0002251830       -0.0001823916       -0.0001048455
  H         0.0001227156       -0.0000381720        0.0002474806
  H        -0.0001178652       -0.0000260768       -0.0000722171
  H        -0.0001250476       -0.0001922776        0.0002810154
  H         0.0001312994       -0.0000566728        0.0001843892
  H        -0.0000607440        0.0000161289        0.0000348785
  H         0.0000716578        0.0001205370        0.0001130423
  H        -0.0000842167        0.0000681029       -0.0000234861
  H        -0.0001152622        0.0000326370        0.0000562829
  H        -0.0000515377        0.0000554930       -0.0000182879
  H         0.0001161615        0.0000004270        0.0000160090
  H        -0.0000015425       -0.0000271484       -0.0000403391
  H         0.0000191779        0.0000770789        0.0000429311
  H         0.0000922553        0.0000167707       -0.0001236019
  H         0.0000636293       -0.0000926258       -0.0000261557
  H        -0.0000503594        0.0001265620       -0.0000352337
