     360
Lattice="24.0688000000        0.0000000000        0.0000000000      -24.1858546521       25.3488802662        0.0000000000        0.0000000000        0.0000000000       21.7253844600" Properties=species:S:1:pos:R:3 pbc="T T F" Converged=F
 Ca         2.9457088040        4.2256056040        3.1593403847
 Ca        -2.9821437939       10.8661475191        6.2757936766
 Ca        -2.9751116411        8.4574715793        3.0352589225
 Ca         2.8864987508        2.0506378406        6.3294046783
 Ca        -9.3350944630       10.5511724898        3.6499820790
 Ca        -2.0446891244        4.1848415907        6.7370275161
 Ca         9.2396332670        2.0316476461        3.6885153489
 Ca         1.2197823261        8.9319728711        6.3831873990
 Ca         5.9782444789        0.1054211377        4.7711467200
 Ca         0.2017740608        6.6767210172        1.7185810434
 Ca         0.0058824621        0.0742669873        1.0908877130
 Ca        -6.0559271209        6.3328269787        4.4655338009
  S         2.6978323061        1.2035268242        3.0866575680
  S        -3.3549170342        7.3244771395        6.5910639674
  S        -2.7551760993       11.4498240182        3.0998985700
  S         3.2648789797        5.3487550062        6.6487312961
  S         0.7416309119        3.5804077521        0.2017119905
  S        -6.0357573102        9.4005669100        4.5966740615
  S        -0.2221444274        9.4753366698        0.5875197485
  S         5.9944810175        3.3190146413        4.5978202463
  S         2.5663770099        7.2850864726        3.4047277536
  S         8.8362905976        1.2122405528        7.0770047430
  S        -2.6934477506        5.3603880042        3.3009776557
  S        -8.9179783319       11.5290758857        7.0968553350
  O         3.6282979157        0.3243128871        3.8281244544
  O        -2.4568038864        6.4839920929        7.3855986439
  O        -3.6655361234       12.3247171349        3.8750011497
  O         2.2809737943        6.1809890995        7.3031036853
  O         1.6144596797        0.2960685155        2.5813182800
  O        -4.6308761314        6.6918621684        6.2905710392
  O        -1.6617516099       12.3296243154        2.5819478168
  O         4.5433334330        5.9975470391        6.3598373779
  O         3.2988440223        2.0412930330        2.0329322880
  O        -2.6860488014        7.9546421026        5.4308013709
  O        -3.3926452521       10.6432365826        2.0462792903
  O         2.7499353601        4.5412897041        5.5085807589
  O         2.0720617480        2.1979763214        4.0748392092
  O        -3.7453319959        8.6031995550        7.5460057768
  O        -2.1253239784       10.4522452295        4.0900613810
  O         3.6769139820        4.1333301340        7.7123391658
  O         0.1005116459        2.3126879872        0.7753271207
  O        -6.7160583218        8.4899127585        5.5337556239
  O         0.7054089941       10.4863177060        1.3584664912
  O         6.6948668112        4.2110940612        5.5334128139
  O         6.9118029797        2.4308991539        3.8061288247
  O        -0.5830886297        9.2407034763        7.8577215732
  O        -6.9835445465       10.2601385589        3.8094020368
  O        -0.1288280693        3.0301527019        6.6710481315
  O         1.1736673799        4.5507456164        1.3575232666
  O        -5.1059250294       10.3370869038        5.3076330649
  O        -1.0326543301        8.5940132820        1.6532595213
  O         5.0351918187        2.4044680403        5.2995523226
  O         2.1486065963        8.0322891956        2.1811784375
  O         9.1642771464        2.3768855367        6.0530764297
  O        -2.6148831938        4.3071180783        2.2838467020
  O        -9.2745545341       10.3562321232        6.0797882582
  O         2.6024009935        8.1924682806        4.5596252374
  O         8.6916848119        1.7598501682        1.4559333747
  O        -2.5523601613        4.7545002376        4.6526376512
  O        -8.7577218137       11.1727340053        1.4731852990
  O         3.8642461075        6.5643720590        3.2229315703
  O        10.0048481650        0.2291201925        6.9227942957
  O        -3.9629413753        6.1655891278        3.2216691845
  O       -10.0901390092       12.5261654582        6.9890697192
  O         1.5092873634        6.1857284441        3.5747663449
  O         7.6569729055        0.4036613625        6.4317516346
  O        -1.5942191029        6.3977658733        3.1205346646
  O        -7.7472653939       12.3214465544        6.4470630872
  O         5.2266478563        4.2122264951        3.6323261070
  O        -0.8704376060        9.8333120493        6.6674542633
  O        -5.2420315540        8.5357468767        3.6353877787
  O         1.0328400352        3.1681995331        7.3352247401
  O         5.9661179980        0.0508175279        2.3311124286
  O        -0.0414257527        7.0128532802        5.7006033218
  O         0.6744648416       10.5923561295        4.4166228061
  O         7.4865587938        2.2623076433        0.9811064452
  O        -0.6824802345        2.1082680950        4.2458142507
  O        -7.6197537835       10.5202508728        0.9740433486
  H         0.8247544598       11.3072205900        5.0634069853
  H         6.8783613927        2.1573380499        1.7473470014
  H        -0.4696030281        2.2040520048        5.2084978018
  H        -7.1144366323       10.2867587809        1.7836740445
  H        -0.2711742142       10.6390959891        4.1734325151
  H         4.6385214188        4.2267504827        7.8262137102
  H         0.2010474433        2.1156966492        3.8438339089
  H        -4.7215192250        8.6066827638        7.5533948053
  H         6.6915818438       -0.4286173927        1.9099083228
  H         0.3665848740        6.5175122002        4.9666306008
  H        -6.7430329928       12.5837788929        1.6972888665
  H        -0.9429543415        7.2455788037        5.4212499831
 Ca        -9.1874044427       16.7711028849        3.1922707302
 Ca       -15.1489357502       23.6343933121        6.3186392994
 Ca       -15.0600646569       21.1221688593        3.1070053259
 Ca        -9.2611813772       14.5359163374        6.4194624453
 Ca       -21.2788892164       23.2956157473        3.4056874010
 Ca       -13.3487181066       16.6238129882        6.4122391732
 Ca        -2.9057378155       14.6169586316        3.2520386426
 Ca       -10.4601542867       21.1554197599        6.3447999693
 Ca        -6.1106439418       12.6092422111        4.7123972893
 Ca       -11.8664814938       19.3851984911        1.6281748727
 Ca       -12.0831044078       12.6759845994        1.1172967095
 Ca       -18.1706986914       19.0616095198        4.5920725627
  S        -9.4488402083       13.7491856900        3.1587155483
  S       -15.3182702511       19.9861953457        6.6106534219
  S       -14.9094629495       24.1779398141        3.1070496615
  S        -8.7512970773       17.9722921924        6.6183571681
  S       -11.5704508991       16.1827619165        0.4288549322
  S       -18.1093268777       22.1292373542        4.6418490311
  S       -12.2133582430       22.2212092935        0.7873006372
  S        -6.1544712968       15.8077893904        4.6428138466
  S        -9.4143476384       19.8703426042        3.2182524171
  S        -3.2736363596       13.7845667847        6.8687776969
  S       -14.7679192717       18.0185368418        3.2525896649
  S       -21.0372946878       24.4562522907        6.9660061207
  O        -8.4753570324       12.8841078429        3.8577434777
  O       -14.4523314527       19.1011982471        7.3708008082
  O       -15.8263964804       25.0867628773        3.8505861875
  O        -9.6069077867       18.9902956050        7.2217704537
  O       -10.5300300265       12.8431754192        2.6672549735
  O       -16.6220487747       19.4274960648        6.2878698552
  O       -13.8125500265       25.0602743859        2.5914234722
  O        -7.4298693159       18.4894375886        6.2741555271
  O        -8.8755855387       14.6159727646        2.1065343821
  O       -14.6267719174       20.6622518534        5.4775314231
  O       -15.5500216269       23.3824228965        2.0436574484
  O        -9.3697365423       17.1396510480        5.5670924758
  O       -10.0693556417       14.7232726542        4.1773847608
  O       -15.6881100216       21.2998511530        7.5533665807
  O       -14.3271205436       23.1791459624        4.1038827136
  O        -8.4997537063       16.8031712838        7.7338392177
  O       -12.1218268424       14.9658085647        1.1890408310
  O       -18.7789437634       21.2431552857        5.6025561092
  O       -11.2947417989       23.1327506884        1.7031776406
  O        -5.4043417311       16.6624496128        5.6113437579
  O        -5.2756159555       14.8973067835        3.8777073329
  O       -12.3874174090       21.9016294648        7.3113377394
  O       -19.0407015658       22.9361224711        3.7914188055
  O       -11.4071497976       16.6662216916        7.5731865002
  O       -10.8958436462       17.1864245462        1.4356425235
  O       -17.2195007147       23.1288724617        5.3204230048
  O       -13.1207473981       21.3089670569        1.7599656751
  O        -7.1810858540       14.9685246236        5.3233046203
  O        -9.7753672717       20.5246392366        1.9416686552
  O        -3.0621807961       14.7609598863        5.6508146714
  O       -14.7891269770       16.9844499995        2.2056249217
  O       -21.2586039150       23.3672819276        5.8577007610
  O        -9.3259358040       20.8652573411        4.3101213154
  O        -3.8797021480       13.8675016180        1.3828025696
  O       -14.4820223494       17.3726778510        4.5655717762
  O       -20.3654986878       24.0585064001        1.4512573011
  O        -8.1519368936       19.0698841343        3.1334043614
  O        -2.0621213171       12.8500130875        6.8408940447
  O       -16.0289348689       18.8314046764        3.3061429258
  O       -22.2678681274       25.3877868097        6.8188925493
  O       -10.5191216754       18.8566751604        3.5151066686
  O        -4.4511825050       12.8454511645        6.4511643573
  O       -13.6864688346       19.0574893111        2.9748079490
  O       -19.8635585739       25.3490201936        6.4578451984
  O        -6.8516994480       16.7784297774        3.7035939992
  O       -12.9406199017       23.0166906164        6.8139855680
  O       -17.2855887279       21.2451963002        3.7162916413
  O       -11.4233247161       15.4660898704        6.9044312235
  O        -6.0205021609       12.6749544955        2.3308697133
  O       -12.0744881567       19.4266675294        5.6953070148
  O       -11.5641882918       22.7337058378        4.6499341440
  O        -4.0971686875       15.3323511101        1.3015196489
  O       -12.8254295629       14.6259112006        4.6022082195
  O       -19.5838523106       22.9807899440        0.9049696009
  H       -12.0289735029       23.1515069158        5.4487617436
  H        -5.0204047388       15.4052000566        1.5979622055
  H       -13.0007556665       13.9717476626        5.3207809388
  H       -19.0627620220       22.6920663876        1.6814846376
  H       -12.2927333274       22.6505185024        4.0123435037
  H        -7.9790148322       17.1740330609        8.4635372818
  H       -11.8867891310       14.5174908679        4.3534934847
  H       -16.5821689343       21.1235652048        7.8905956282
  H        -5.2379545174       13.1157943177        1.8640876662
  H       -11.7703944565       19.1541484763        4.8102458134
  H       -19.0547848499       25.0063744337        1.9422722102
  H       -12.9435650559       19.8565083368        5.5726204003
 Ca        14.9464540718        4.2227597349        3.0922689187
 Ca         9.0413213045       10.9102881781        6.3853737409
 Ca         9.0297029140        8.6129816193        3.1924059711
 Ca        14.8515830208        1.7571624264        6.3089045506
 Ca         2.7544867911       10.5960608808        3.0267995485
 Ca        10.2485882798        4.3900203543        6.4899608334
 Ca        21.1689858231        2.1063663906        3.4959780866
 Ca        13.6990659652        8.3876554867        6.7014732606
 Ca        17.9718746031        0.0171040044        4.7584111433
 Ca        11.7969367688        6.2073337447        1.6624524112
 Ca        12.0364750634       -0.1849061992        1.1633311042
 Ca         5.9775261474        6.4026724013        4.5468029199
  S        14.7650326526        1.1897462648        3.0884402113
  S         8.6959176125        7.4741345105        6.6633732861
  S         9.2535775237       11.6288755447        3.1181921356
  S        15.2776847835        5.3158605577        6.6260394124
  S        12.4993654073        3.2590111594        0.4065882298
  S         5.9886364077        9.4923134860        4.6505722105
  S        11.3767204487        9.1940851481        0.3133590871
  S        17.9365069130        3.2467831418        4.6366039666
  S        14.6656746018        7.3178374201        3.2956503574
  S        20.7748450323        1.1734698097        7.0234719519
  S         9.3982634210        5.5308736876        3.2433685736
  S         3.0960641151       11.7211653314        7.0601856371
  O        15.6755814187        0.2992758993        3.8572643973
  O         9.6764756552        6.7246580575        7.4461551248
  O         8.3056528917       12.5326632163        3.7993244960
  O        14.4056063995        6.1395824173        7.4648863162
  O        13.6892537457        0.2800016209        2.5843592117
  O         7.5705277743        6.6345147559        6.2584948873
  O        10.3485556978       12.5020399836        2.5852182201
  O        16.5244888878        5.9704145969        6.2649169473
  O        15.3926308534        1.9986931801        2.0292601688
  O         9.2752339543        8.2848399888        5.5656841882
  O         8.6758279946       10.7464667954        2.0868333870
  O        14.5539741169        4.6695829967        5.5020529082
  O        14.1490291222        2.1979845689        4.0664185236
  O         8.0551087641        8.6201670037        7.6375541465
  O         9.8546311315       10.6718782315        4.1619242093
  O        15.7389265999        4.0422421496        7.5505448463
  O        11.7790160352        2.1057159855        1.1136957851
  O         5.4084624882        8.5494475269        5.6263021504
  O        12.0620825412       10.4200258179        0.9381048706
  O        18.6215591331        4.1386116940        5.5942781842
  O        18.8575715287        2.3442544338        3.8813997064
  O        11.9326806410        9.7424133503        6.9213464402
  O         4.9842542097       10.3279783095        3.9505492760
  O        12.2378544539        3.6090824990        7.2902717186
  O        13.0836573765        4.2546810235        1.4800188719
  O         6.9527165163       10.4458737419        5.3061941466
  O        10.7486270051        8.2793217758        1.4388673269
  O        16.9412720554        2.3611672772        5.3201062226
  O        14.5905205769        8.3742109225        2.2822197225
  O        21.0432410498        2.2902566107        5.9398034562
  O         9.8040861821        4.9314205494        1.9478219182
  O         2.7609256190       10.6430893926        5.9941548690
  O        14.4998659661        7.9160647148        4.6502214216
  O        20.3115737747        1.3883452981        1.4622569109
  O         9.3217300787        4.5122417661        4.3180792330
  O         3.8413026219       11.4913151633        1.3051918589
  O        15.9326486921        6.5097794961        3.2283719936
  O        21.9863457990        0.2364972651        6.9273995592
  O         8.1227406942        6.2989925325        3.1497049540
  O         1.8959337563       12.7151695258        6.9862823327
  O        13.5723697722        6.2789514080        3.0751891911
  O        19.6186536756        0.2958642278        6.4501171470
  O        10.4917509658        6.5497613979        3.5885889643
  O         4.2619961268       12.5958188705        6.4628194353
  O        17.2137512631        4.1409292418        3.6392976937
  O        10.7489963533        9.7962147013        7.5609206267
  O         6.7425791589        8.6326824365        3.6352074753
  O        12.6526188514        2.4912333506        6.6294480889
  O        18.0358709302       -0.0018594536        2.3538007343
  O        11.9947617702        6.1194427979        5.8541095281
  O        12.5468898576       10.5552720654        4.4236143083
  O        19.4252240533        2.3981180063        0.9825224254
  O        11.4296655321        2.5741366613        4.3596604786
  O         4.2423907673       10.0686311274        1.2223497609
  H        12.3680534761       10.5677960440        5.3965730949
  H        18.7724777620        2.4588527151        1.7093902551
  H        11.8087483300        2.3436520570        5.2742687068
  H         5.1086302756       10.0818731270        1.6680499212
  H        11.6563000553       10.6630215038        4.0455377790
  H        16.7057241468        3.9904315290        7.4180197664
  H        12.2098874446        2.4726847267        3.7927684857
  H         7.0984466001        8.6127768716        7.4231253783
  H        18.8273896019        0.2260770274        1.8220986056
  H        12.7869561920        5.5954767817        5.6242303751
  H         5.1269101759       12.2464490389        1.8258972574
  H        11.6178515875        6.4113765282        4.9976122404
 Ca         2.8310188560       16.9249732380        3.1967082904
 Ca        -3.0653378957       23.6364044745        6.2563302604
 Ca        -3.0095629899       21.2379102050        3.1585531738
 Ca         2.9229021226       14.5834459277        6.3118712793
 Ca        -9.4631087162       23.3461265998        3.4978516590
 Ca        -3.1497893767       16.9006884335        6.3088218625
 Ca         9.1127125129       14.8531037740        3.4973986700
 Ca         1.1203307326       21.8352599150        6.3311363377
 Ca         5.9162132783       12.7037015759        4.7197660151
 Ca        -0.1983720321       19.0021520276        1.7840675260
 Ca        -0.0266689250       12.6189735363        1.1465126845
 Ca        -6.0822063477       18.9699163384        4.3916733387
  S         2.6732842318       13.8658291028        3.1263149664
  S        -3.4722454830       20.1008625573        6.6068143090
  S        -2.8059023633       24.2594974582        3.0806353100
  S         3.1227017773       17.8756449319        6.6717633114
  S         0.4393674259       16.0352773120        0.4391781221
  S        -6.0695969688       22.0888360387        4.6277802293
  S        -0.7042985337       21.9294828246        0.3129178045
  S         5.9048405613       15.9952966350        4.6261659596
  S         2.5557172745       20.0931843235        3.3714144101
  S         8.8387458944       13.8445188264        6.9873169459
  S        -2.7398498324       18.1825472141        3.0366952169
  S        -9.0279346607       24.2077671149        7.0058105363
  O         3.5984142582       12.9681547934        3.8435902086
  O        -2.4733251353       19.4556315062        7.4473248645
  O        -3.7506428751       25.0814862096        3.8784333221
  O         2.1604882150       18.5897086685        7.4655153006
  O         1.5973400113       12.9746391518        2.5789565275
  O        -4.2981072009       19.0556960099        5.9354404427
  O        -1.7632935536       25.2004809043        2.5689636380
  O         4.3230361363       18.6064303896        6.2806090633
  O         3.2643439769       14.7496646962        2.1038882398
  O        -2.9580209529       21.1002086263        5.6463170890
  O        -3.4084659337       23.4165180955        2.0333815519
  O         2.5265498003       17.0727280470        5.5585872318
  O         2.0284414125       14.8179625964        4.1466055003
  O        -4.4769572865       20.8996367276        7.5507668865
  O        -2.1381623242       23.2730985765        4.0668717167
  O         3.7035785282       16.6366344042        7.6268201229
  O        -0.3316981450       14.8901066175        1.1104668383
  O        -6.5872081319       21.1072209665        5.6263792836
  O        -0.0751961807       23.1781641854        0.9525035684
  O         6.5668422583       16.8740869172        5.6007670390
  O         6.8401236508       15.1737236688        3.7940028171
  O        -0.7258609552       22.0373548322        7.7702596720
