     464
 i =        1, E =     -6302.9822413461
 Ca         1.7583057352        5.2161121220        6.4500039466
 Ca        -3.4927072019       11.6417402695        9.2136122909
 Ca        -4.2072475575        9.4429827392        6.4538907727
 Ca         0.8879265542        2.7060124510        9.0617132152
 Ca        -9.4529959343       12.7081440750        6.8487244795
 Ca        -3.9985293146        4.5456864094        8.6217487247
 Ca         7.3985486850        2.4455058484        6.8720068160
 Ca         1.2930114586        9.3087203225        8.3903173467
 Ca         4.2772525812        0.7363845140        8.0255003298
 Ca        -1.1211089892        7.4607496396        4.8112074458
 Ca        22.9324297682        1.0893361755        5.7024083669
 Ca        16.8272399250        7.3733602249        6.7824972641
  S         1.6277010690        2.1562529940        5.7424587993
  S        -4.4560396833        7.9818880592        9.2294540727
  S        -3.8875589979       12.4004347852        5.9809392256
  S         1.6929518059        6.3125397426        9.3222809415
  S        -0.6927945964        4.2612838363        4.0214224879
  S        -6.7779998536       10.4823114497        7.7704697329
  S        -2.4169300938       10.0402673655        3.4537590090
  S         4.2140735233        4.0757125777        7.9028682696
  S         1.6490090972        8.1686327287        5.4860407386
  S         6.8390032146        1.9042502865       10.3674133674
  S        -3.8368633614        6.5436863937        5.5060289283
  S        -9.5083466342       13.4485563006        9.9628954699
  O         2.5577062265        1.2527537446        6.4487866778
  O        -3.9344154149        6.7134287829        9.7037598059
  O        -4.7146306225       13.3647549462        6.7396378713
  O         0.9808465190        7.4237481782        9.9188625738
  O         0.9339827904        1.3521909409        4.6932158025
  O        -5.3007080278        7.8311546778        8.0320306759
  O        -3.0321932805       13.2137852077        5.0677129524
  O         2.5837453399        6.7594020874        8.2264218562
  O         2.2683580174        3.3314210308        5.1709169718
  O        -3.4191508733        8.9854310312        8.9622498951
  O        -4.6770141693       11.4226019285        5.2298669910
  O         0.7646748683        5.2958057871        8.7569273210
  O         0.5303474256        2.6077503513        6.7047981972
  O        -5.4015861057        8.5148054399       10.3627480200
  O        -3.0011257795       11.6262301535        6.9223678739
  O         2.5692737214        5.6281357908       10.3851287894
  O        -1.7364349151        3.3327683071        4.6195122082
  O        -7.5273766253        9.7387287334        8.8136765815
  O        -1.6697813456       11.3245665752        3.2157901181
  O         4.6397266484        4.7746617128        9.1262396118
  O         5.0579674541        2.9084484611        7.5919836329
  O        -0.6701138827        9.8630605347        9.5525348891
  O        -7.3963581444       11.7855542016        7.4860240185
  O        -2.3196268638        3.7357345632       10.1261722822
  O        -0.2325342880        5.2933016352        5.0856563636
  O        -5.3768837410       10.6940040137        8.2301110795
  O        -2.2045499355        9.5438967633        4.9176461676
  O         2.7928042602        3.6189998533        8.0796896298
  O         0.9677745270        8.3165066996        4.1939184552
  O         7.5170503084        2.7082202157        9.2504180028
  O        -3.1442799093        6.3715699647        4.2181639559
  O       -10.0147110603       12.1864913220        9.2283548039
  O         2.1748811499        9.4340168250        6.0248462513
  O         8.6995133019        1.4353112432        5.2612263811
  O        -4.1098070632        5.2391328651        6.1483475010
  O       -10.6599003405       12.7822089598        4.8825282624
  O         2.7384595309        7.1568082782        5.4353491156
  O         7.9008831160        0.8768423933       10.8272816195
  O        -5.0745738968        7.3537455100        5.3698254448
  O       -10.7417446661       14.3922532264        9.9026725724
  O         0.5902815746        7.6609317401        6.4735063961
  O         5.8569094766        0.9451116239        9.6307587901
  O        -2.8847937784        7.3124129632        6.4159366667
  O        -8.5761610521       14.0283806476        8.8885349696
  O         4.1825638825        5.0059078998        6.7378536632
  O        -1.2822540153       10.9636531602        9.1563481654
  O        -6.6732490336        9.6546367896        6.5309404991
  O        -1.1106111784        3.4262907956        9.7274222389
  O         5.7369638338        0.6016155315        5.9854437050
  O        -1.8414827863        5.2448757601        7.8548842306
  O        -0.1462366710       10.8159026668        6.7683203207
  O         7.8528325100        2.3558390760        4.4705937846
  O        21.4682314490        2.6194599942        7.1214996073
  O        -9.6378069736       11.7348798904        4.7371924913
  H        -0.6436362940       11.1855112509        7.5480737772
  H         7.1995625928        1.7237989019        4.1174289078
  H        21.4216880756        2.0693696649        7.9882024217
  H       -10.1641415652       10.9169226387        4.5913757825
  H        -0.8353563417       10.5531079615        6.1315087813
  H         3.4410504332        5.2735170990        9.9308102349
  H        -1.9871932531        3.3726746467        7.2688935585
  H        -6.1769421456        8.9728831030        9.9433541928
  H       -17.7659871571       25.2509432376        5.9074538775
  H        -1.0952312358        5.3584370165        8.4743500189
  H        -8.4085302583       14.9326669752        5.6976266247
  H        -1.9963548237        6.0934733851        7.3943911747
 Ca        -9.3790376484       17.9264573452        6.5259371052
 Ca       -16.8496860850       24.2309824680        9.7833680215
 Ca       -16.5829196996       21.6779517090        6.4230442537
 Ca       -11.8495618620       15.9460534788        8.7927331330
 Ca       -22.2206195029       24.5142141925        5.0886949150
 Ca       -16.1468402642       17.5588909729        8.3522342615
 Ca        -3.9602257913       15.4776465363        5.2688813499
 Ca       -11.0707333099       22.1160150596        8.8788465104
 Ca        -6.4730856643       14.1744704953        8.1297900390
 Ca       -13.1636223192       18.7494054617        6.7579269470
 Ca        11.4250023452       12.9214845057        5.9771630565
 Ca         4.3366458448       19.8947088473        6.9309058702
  S       -11.0701982740       15.6626950417        5.8379623085
  S       -17.2564374239       20.5304696110        9.6594128401
  S       -15.5910470235       24.3902503103        7.0518060268
  S        -9.4786869821       18.9797837785        9.3979365617
  S       -14.1914321471       17.0358585623        3.7716633687
  S       -19.6851568358       23.0083224440        7.4107897847
  S       -13.9221457950       22.2114536790        3.9524531492
  S        -6.5511852660       17.1655314507        7.2113310474
  S       -10.1030896094       20.7780197376        5.9106434018
  S        -4.1092309820       14.3812260213       10.2055925361
  S       -16.6276614867       18.7575791875        5.5362038514
  S       -22.7112035290       25.2762933268       10.0587920832
  O       -10.7683449671       14.7097371397        6.9568346879
  O       -16.1746905650       19.5522768036        9.6735951790
  O         7.9165887958        0.1161502397        7.8110087588
  O       -10.2243334383       20.1213071279        9.8873346048
  O       -12.1213492617       15.1442801372        4.9789801702
  O       -17.7881950968       20.7009138030        8.2809400632
  O       -14.2231350683       24.7959832050        6.6806251023
  O        -8.5089250128       19.3352499488        8.3591806546
  O        -9.8286072973       16.0563037683        5.1408576184
  O       -16.9171226784       21.8111630492       10.2492808617
  O       -16.3967143780       23.9806808171        5.8747581485
  O       -10.3242842466       17.8743062968        8.9420163127
  O       -11.5347841025       16.9165931854        6.5682173257
  O       -18.3851299355       19.8872084612       10.5161114668
  O       -15.5174329990       23.1774969933        7.9529477276
  O        -8.6930378313       18.3572061358       10.6129962718
  O       -14.8237618882       15.9872068831        4.5746225626
  O       -20.4434576308       21.9249801800        8.1256218118
  O       -13.5650275268       23.6520638026        3.9908917045
  O        -5.8789343394       18.2147246164        8.0284167580
  O        -5.5520850719       16.1150791483        6.9090504248
  O       -11.6782059078       22.7743505890       10.9696578821
  O       -20.6641917735       23.9909161075        6.9013967022
  O       -13.7954258843       17.4102694948        8.5549064341
  O       -13.3263993169       17.9686483860        4.4941624210
  O       -18.7843775953       23.7031020982        8.3487377818
  O       -14.5387425593       21.6853402288        5.2046607600
  O        -7.7103125170       16.5741210292        7.8924072331
  O       -10.7774843102       21.2429903870        4.7204742731
  O        -4.7022148349       15.5682943219        9.4188640803
  O       -16.0960200131       18.6707148934        4.1915481723
  O       -22.2364266131       23.9828721165        9.4072418552
  O        -9.7799364998       21.8537448069        6.8815870793
  O        -5.8098657076       14.7359394160        4.3229098204
  O         7.0509722554       17.4477229278        6.1108218988
  O       -20.2790641469       25.1971253835        4.2795263339
  O        -8.8312769389       20.0219181438        5.5956282785
  O        -2.8900293353       13.8898507002        9.3702889254
  O       -17.7873439778       19.7167717745        5.5743120920
  O         0.2239919337        0.3979211542        9.2393077915
  O       -10.9709376108       19.7473653228        6.6313392239
  O        -5.1370954512       13.2365216164        9.9002426553
  O       -15.6168741456       19.3521360980        6.5218843321
  O         2.5185151252        1.0122090544        9.6192707973
  O        -7.0506846959       17.8483671288        5.9696575032
  O       -12.7684325003       22.9533002598       10.1586225287
  O       -18.9430262029       22.3421591201        6.3086407562
  O       -14.2914167668       16.8204515909        7.2440446990
  O        -7.7574784912       14.2549580258        5.9654773774
  O       -13.3457382880       20.7093288659        8.1668032835
  O       -12.3993777470       22.9381520563        7.0896219947
  O        -5.7424116608       16.1618629306        3.9216813176
  O       -13.4129919122       14.4652930232        7.7342075892
  O       -20.3173963373       23.7411291927        3.9816287310
  H       -13.0605568209       23.6662661068        7.0902977573
  H        -6.4063804973       16.6048689156        4.4875316879
  H         9.9103965825       14.0938555273        8.3061802785
  H       -19.6879417821       23.3485091992        4.6165979799
  H       -11.8843089258       23.0552447384        6.2488147136
  H        -8.0245370015       18.9975151292       10.9202228406
  H       -13.8461050188       15.3334192334        7.3939467250
  H       -19.1120432412       20.5619299939       10.6880148791
  H        -7.0307002333       14.3461855044        5.2452439990
  H       -14.0112846691       20.8262698015        8.8638390565
  H         5.0541404481        0.3500809423        5.2615404195
  H       -13.3320706817       21.5633823859        7.6616471655
 Ca        14.1729548702        5.1964191395        5.8111522907
 Ca         7.7243254262       11.5104970654        9.9388449675
 Ca         7.8296223585        8.9445800199        7.1354591566
 Ca        13.9808402035        2.8014130026        9.6230255378
 Ca         1.9675047705       11.9179546888        6.2039528380
 Ca         8.7827443855        4.8215048048        9.2635837472
 Ca        19.8309289248        2.9563253972        5.1031140396
 Ca        13.9068593827        9.9042231374        8.9732333777
 Ca        17.6337134752        1.0944520317        8.0305136052
 Ca        11.0590334207        7.2503684234        7.5329311339
 Ca        10.7799074066        0.6381867280        4.8396607734
 Ca         4.7457607672        7.2541912607        7.1782577566
  S        13.0662679331        2.6437913234        6.6055261000
  S         7.0918210238        7.8480572122        9.9213411864
  S         7.9924059027       11.9356711293        6.3635994642
  S        14.7631367654        6.3668011787        9.2728746060
  S        10.9733198186        4.1716072194        3.6951319532
  S         4.7265062867       10.2807881254        7.8470695455
  S         9.9931302251        9.6714383449        4.4548681641
  S        17.1429477564        4.1677441828        7.3674718673
  S        13.9952748041        8.1935717834        5.7333317056
  S        20.0144818125        1.3596789634       10.0595657893
  S         7.8611424839        5.9802943788        6.3501338598
  S         2.1380875639       12.2861252730        9.9145813656
  O        13.5906611411        1.5928911466        7.5118575057
  O         8.0163446049        6.7583334098       10.2895957479
  O         6.7537916112       12.7039673515        6.6385249292
  O        13.9850695590        7.5479943364        9.5420231594
  O        11.7273147664        2.2972803168        6.1130398069
  O         6.3361673288        7.4417092129        8.7003117182
  O         8.9983135167       12.9424251697        5.8853740813
  O        15.0421936009        6.1784462987        7.8251085325
  O        14.0170086572        2.8568992998        5.4747020701
  O         7.9084699258        9.0481079597        9.4725633690
  O         7.7910937146       10.8771922148        5.3578935702
  O        14.2720552040        5.1472124074        9.8729983154
  O        12.9984379120        3.9276576175        7.3643849113
  O         6.1862814723        8.1850948423       11.0084119844
  O         8.4804700715       11.2499358900        7.5962647236
  O        16.1919193390        6.6906894643        9.8836142222
  O        11.1393890747        2.7370219672        3.4252025820
  O         3.7464430573        9.3204978058        8.4171958071
  O        10.7660684536       10.8609823848        4.8128084815
  O        17.7296705726        5.2556696739        8.2155465798
  O        18.2794557123        3.2891871092        6.9714063449
  O        11.8241853577        8.8902493097        8.7933591520
  O         4.0482719824       11.3382100476        7.0592925823
  O        10.4114864628        2.9171119577        9.5612270116
  O        12.0643053357        4.8202426131        4.4454675042
  O         5.5351095125       10.9561770471        8.8787636471
  O         9.8278502850        8.6722191901        5.5337989466
  O        16.1608799115        3.3750549852        8.1082484437
  O        13.4145941137        9.1378851019        4.7981757754
  O        19.2494017433        2.4941100946        9.3322372472
  O         8.5930320541        5.4812997028        5.2109921944
  O         1.6896046395       11.5385932133        8.6269415580
  O        14.6212992301        8.8523234142        6.9065407725
  O        17.9543480734        2.3209846993        4.1801128883
  O         7.2007689760        4.9101791511        7.1496301260
  O         1.0329068267       12.8935619497        4.3763548335
  O        15.0710638353        7.3180170160        5.1277890738
  O        21.2716600108        1.0734109223        9.1773754796
  O         6.8400230108        7.0175936635        5.9702783231
  O         0.9377992220       13.1454504764       10.3051726664
  O        12.9328000155        7.2132484044        6.1676162179
  O        19.1448535357        0.1238289019        9.6818465498
  O         8.8066510035        6.7063494455        7.3119397759
  O         3.1174825684       13.3864131897        9.3424585666
  O        16.5603609448        4.8176419352        6.1483787553
  O        10.8008020931        9.6449998370        8.0390451968
  O         5.5841520773        9.4906182530        6.9147506525
  O        11.7022298562        3.4761966081        9.8151015728
  O        16.1869330070        1.2986757482        5.9083273950
  O        10.9435958993        5.7458493967        9.1425461222
  O        12.6131143776       11.1932748647        7.1039812364
  O        17.9998429444        3.7867404994        3.9682582908
  O         9.5220088554        3.4068998089        7.3457805971
  O         1.9860293458       11.9556359615        3.7518329419
  H        11.4367858525       10.3190287275        7.5779019471
  H        17.3811936288        4.1442951588        4.6393819114
  H        10.0559373407        3.0100531492        8.1401044280
  H         2.7199750903       12.5667365243        3.5494545685
  H        12.7952301793       10.6629061303        6.3081961872
  H        16.8233428162        6.0079713836        9.5500390092
  H        10.1598795339        3.4027663620        6.6177943300
  H         6.3969622284        9.6895368259       11.6644062473
  H        16.8467706502        1.5864066393        5.1992283730
  H        11.5008275111        4.4979809427        9.5505138286
  H         3.1383956086       14.4467889181        5.6121880241
  H        11.0362198510        6.3009487751        9.9476028911
 Ca         0.8167335393       18.0092417824        6.7565494760
 Ca        -3.1987569408       24.1131596114        8.8538011226
 Ca        -3.6771484287       22.1376419206        6.0307848885
 Ca         1.4551829363       15.1154864777        9.4295629270
 Ca        -9.5091212814       24.9306021538        6.6986292273
 Ca        -3.6316754083       17.4513539396        8.4410109213
 Ca         7.4760492692       14.9712082408        5.8283399314
 Ca         1.0887374402       22.2570470918        8.1189630779
 Ca         4.8830195802       13.4038059764        7.9110573048
 Ca        -1.0805565988       19.9633814355        3.9904596483
 Ca        -1.0646781679       13.4093898743        3.9674867603
 Ca        -6.7295731570       20.1499431264        6.7760555907
  S         0.6288205390       15.0645978449        6.5448714053
  S        -4.1732115505       20.6976711277        9.3092601781
  S        -3.9413030044       25.2858963909        5.5452547923
  S         1.6541937471       19.4954160188        9.4197396890
  S        -0.8323042252       16.7148459918        3.5971047273
  S        -6.4118821859       23.0312804413        7.3180126408
  S        -1.4513261246       23.4255120434        3.4339122874
  S         4.1087051209       16.9953950585        7.8088465764
  S         1.4923196887       20.9167214860        5.0497894951
  S         7.5518638393       14.6318963624        9.4801714068
  S        -3.6446186833       19.1582022457        5.1366008235
  S        -9.3881200081       25.0521869313        9.8980797879
  O         1.4532505617       14.0574634119        7.2534424609
  O        -3.5040828128       19.4731870009        9.7311820709
  O        19.1708374911        0.6977556334        6.2130047515
  O         1.2091967138       20.7002949202       10.1033704325
  O        -0.5364197119       14.4497240182        5.9091591553
  O        -4.4308971999       20.6969012161        7.8486794708
  O        20.9305737413        0.8704782524        4.5855162968
  O         1.9869168215       19.8426998685        8.0026951153
  O         1.4428513161       15.8729675976        5.6302804503
  O        -3.5259858519       21.9179743123        9.7685698992
  O        -4.3902016258       24.0843426769        4.8562427804
  O         0.7653205046       18.3418687376        9.4251535570
  O         0.1041421047       15.9955147127        7.6304642171
  O        -5.5910225297       20.6372290940        9.9875952200
  O        -2.8766209274       24.9153131811        6.5523943019
  O         2.9818183921       19.0925731366       10.1327535578
  O        -1.9728198575       15.7032710061        3.8170674677
  O        -6.9730121473       22.0991175459        8.3299923062
  O        -0.5712661334       24.3426764481        4.2457718745
  O         5.2105428261       17.9008329924        8.2169748830
  O         4.5663886418       15.7372754807        7.2178613475
  O        -1.0760219710       21.7281497484        7.9645157374
  O        -7.2574381535       24.2252156272        7.1769459858
  O        -1.6170959364       16.8556985595       10.0558555687
  O        -0.6841070686       17.6869333652        4.7843526729
  O        -5.0253722029       23.4356783563        7.6842423669
  O        -1.8775752881       22.2097068008        4.2610456510
  O         3.2421950949       16.7136606133        9.0135095779
  O         1.0398701068       21.0609490529        3.6560295760
  O         7.2061592706       15.3504065895        8.1342621253
  O        -3.2102489355       18.9369471975        3.7491986861
  O        -9.9636338708       24.1151592465        8.7904094131
  O         1.4556184244       22.2310087612        5.7576248274
  O         5.7960373702       14.2485974877        4.6315811059
  O        -3.7452360629       17.9018480393        5.9054171430
  O       -11.2705177711       25.2118511526        5.2029561694
  O         2.8202937898       20.3096762702        5.1804875993
  O         8.6551957731       13.6478183338        9.1147005185
  O        -4.8844391645       19.9635117631        5.2083933178
  O        13.6232496349        0.5867155088       10.2763347091
  O         0.4597367274       20.0418713387        5.7293992289
  O         6.3353837253       13.7149202076        9.7324822622
  O        -2.5550707499       20.0096881961        5.7860053145
  O        15.6691417772        0.6717020771        9.0554608389
  O         3.2903234663       17.7597460571        6.8136353284
  O        -1.8430096668       22.7741331954        7.4153189555
  O        -6.2939540038       22.2817421199        6.0378240733
  O        -0.8064963186       15.9118992513       10.2904829720
  O         3.6321356638       13.6103703696        5.6669111080
  O        -1.4438497958       18.6186660192        7.7357125415
  O         0.0596503067       24.5790368610        6.9282294967
  O         5.6423313928       15.7032858282        4.3997098495
  O        -2.6748249034       15.5977760353        7.3632293791
  O       -10.8796949014       23.7917375891        5.1201173854
  H         0.1040286833       25.0119008544        7.8505709732
  H         5.0369794939       15.9785788165        5.1194220168
  H        -2.7666314442       14.8638611351        8.0495416435
  H       -11.1085801976       23.5295306552        4.2100463810
  H        -0.7196799609       23.9341002912        6.9588650419
  H         3.2136609838       18.1550713977        9.8315962307
  H        -1.7055714759       15.7011803398        7.2858290307
  H        -6.1542324700       21.3269250649        9.5190997060
  H         4.5210725702       13.7922102567        5.1405647894
  H        -1.2642741949       19.0791135923        8.5753701978
  H        15.4692944175        1.9683294039        5.8017370634
  H        -1.8143956492       19.3258911396        7.1469482873
  O        12.4466624415       11.6928896497       12.8842391363
  H        11.8631229807       11.2861594021       13.5704897333
  H        12.6620573236       10.9344142444       12.2910084924
  O        11.2023537441       13.2030993375       11.1550695502
  H        11.6670806424       12.6842725701       11.8907554901
  H       -12.1066522257       13.6356460401       10.7027384383
  O        12.9563710878        9.6058410155       11.1168650490
  H        13.1545200458        8.7501494579       11.6615866097
  H        12.1400081260        9.3327806312       10.6407556002
  O         9.4380420706        4.7779610378       11.5935430012
  H        10.4416672819        4.8756118547       11.6990588344
  H         9.1221419602        5.6779750267       11.7963194143
  O         7.6974556836       13.2234590068       14.3331572775
  H         8.1028876833       12.5090814095       14.9077389199
  H         7.8687512028       14.0547699942       14.7930783335
  O        10.0274772810       11.0111671108       10.1511989244
  H        10.6147036603       11.7940929971       10.3353327071
  H        10.3605597017       10.5146039155        9.3562116159
  O         9.7158914404        3.0149540256       13.6385809289
  H        10.6054133157        2.6561764839       13.3270349135
  H         9.4571646020        3.6496400032       12.9241289328
  O       -15.0117433802       23.7180138962       11.1782507954
  H       -15.3087490492       23.3370943867       12.0294084970
  H       -14.1496677983       23.2761553568       10.9027890657
  O       -13.2040261419       24.9083089618       13.8339580832
  H        11.4430608512        0.4191311374       13.5922606950
  H       -12.7263536970       24.6406984868       14.6443209546
  O         6.8840557857       10.5238352771       11.8954813508
  H         8.5597102692        9.7341208087       12.4210522662
  H         6.2432714520       11.1993765375       12.2348354962
  O       -11.2453900937       24.3262749034       15.6634800304
  H       -11.2156643060       23.7224069023       16.4136682551
  H       -10.6503796967       25.1467271388       15.9095485454
  O       -16.6917026700       23.2818345828       13.3178307681
  H       -16.8537715027       22.4513579639       13.7824957195
  H       -17.4830062354       23.4365325750       12.7583738623
  O         8.5586750204       12.9136974155       11.7265141750
  H         8.3957133476       13.0127531211       12.6875462241
  H         9.4651531399       13.2480648321       11.5459774998
  O       -18.6173379455       23.9536227984       11.4668609663
  H       -19.2617374676       23.2227044875       11.2733340005
  H       -19.1327554298       24.7745294266       11.3984806832
  O         8.7746875645       11.2976169542       15.7736383228
  H         8.7967115661       11.3047319158       16.7360514382
  H         9.6468683352       10.9025219969       15.4616230260
  O         5.5493039850       12.8033432929       12.4741332714
  H         6.1865222466       13.0969366672       13.1531188221
  H         5.7892066763       13.2945597513       11.6649489970
  O       -20.1543780704       21.8467579214       10.8138720796
  H         3.0190756885       21.6584640203       11.1439956307
  H       -20.3099871262       22.0175268668        9.8515385973
  O        17.0198780874        5.6528477010       20.4474491446
  H        16.6284227135        5.5588071575       19.5657302344
  H        17.6316394782        6.4073471554       20.4535459388
  O        10.8747238060       10.2761556618       14.6430575156
  H        11.6641283093        9.6607367179       14.8770579145
  H        10.4084938706        9.8345792970       13.8955700162
  O         9.5142761623        9.5257071006       12.3663270276
  H         9.8048803912       10.0859100382       11.6017782627
  H        10.2719986732        8.0585685678       11.8772238842
  N        11.3647039311        4.6080893435       15.2727946950
  H        10.5666413145        4.0553247838       14.9151857367
  H        12.2399244201        4.0748558501       14.9685721762
  H        11.3076172659        4.7276785252       16.2783149431
  N       -10.3859815966       24.1299989608       12.9206788772
  H        -9.5120061665       23.6423374016       12.7434668397
  H       -11.0897902477       23.8032067707       12.2170285035
  H       -10.7280381183       23.9337938172       13.8720344421
  N        13.0288486615        8.8149085825       15.1083992236
  H        13.2133369414        8.3407404576       14.2085486255
  H        12.8748047655        8.0684964059       15.7786940291
  H        13.8632997063        9.3312765657       15.3690411049
  N         8.5205512599        0.6172964997       13.4638993897
  H         8.8159091790        1.6040698021       13.6871735748
  H         8.2345611488        0.6400907142       12.4543946679
  H         7.7518766492        0.2771811429       14.0338265439
  H         9.3708017061        0.0226855144       13.6128369747
  N        14.4881709431        1.0670031533       16.1083884975
  H        15.3163367910        0.8825093064       15.5462777715
  H        14.7886156242        1.3062449690       17.0483715284
  H       -10.2007864204       25.2136004446       12.8660339749
  H        14.0654424291        1.8961488258       15.6488771543
  N        10.9250147078        0.6386546602       10.7615695879
  H       -13.9719522346       25.3076623875       11.0496888925
  H        11.6761913880        0.1843831387       10.2351680883
  H        11.3982377270        1.0761901338       11.5955789342
  H        10.5224110093        1.4487733598       10.2093848098
  N        16.3164814252        3.9598240456       22.1813475977
  H        16.6856705099        4.7533290733       21.4618616673
  H        15.6297387365        3.3747299031       21.6993637172
  H        15.8602895137        4.3850998024       22.9905251826
  H        17.0892816220        3.3717539116       22.4976370261
  P        11.9057288172        6.7180892065       12.6070160134
  O        11.2613404285        6.8304741256       13.9845764748
  O        10.8587751390        7.3420902096       11.5223391751
  O        12.0030164421        5.2667881380       12.1231480082
  O        13.2067182713        7.4904432976       12.5169663259
  H        11.3278656650        5.5751774315       14.7367474576
  P        13.3906130952        2.3739803623       13.1798564867
  O        14.4269189175        1.2763384672       13.1081427885
  O        13.7022949953        3.3640154200       11.9475773832
  O        13.4616500852        3.1804772225       14.4671924515
  O        11.9455453543        1.8372109010       12.9570371949
  H        13.0933188585        4.2003214102       11.9998666626
     464
 i =        2, E =     -6303.0231976590
 Ca         1.7507079741        5.2177346825        6.4506526972
 Ca        -3.4801948734       11.6474846782        9.2422816326
 Ca        -4.1999936636        9.4554314314        6.4653215477
 Ca         0.8708509266        2.7189798841        9.0959395792
 Ca        -9.4577631936       12.7071154467        6.8585416350
 Ca        -3.9871966831        4.5352492046        8.6300504795
 Ca         7.4037337401        2.4550082498        6.8747831842
 Ca         1.2812434767        9.3145163746        8.4050224339
 Ca         4.2735203113        0.7291170597        8.0304084742
 Ca        -1.1166183028        7.4634519214        4.8394555153
 Ca        22.9290633668        1.0862334525        5.7048108303
 Ca        16.8292775424        7.3689365376        6.7922784492
  S         1.6350968264        2.1575077691        5.7394084778
  S        -4.4497791903        7.9830392401        9.2430148421
  S        -3.8898216729       12.4034194236        5.9813405988
  S         1.6883527382        6.3131067455        9.3331765330
  S        -0.6862802515        4.2379301997        4.0004229340
  S        -6.7801126714       10.4826823084        7.7670729524
  S        -2.4481376579       10.0534612900        3.4353062642
  S         4.2197686998        4.0786613104        7.8975478858
  S         1.6547450241        8.1756772274        5.4793726612
  S         6.8410559803        1.9061036186       10.3714254993
  S        -3.8435382637        6.5342639133        5.4989625149
  S        -9.5206003973       13.4509524070        9.9432701062
  O         2.5601186339        1.2394915760        6.4514730165
  O        -3.9194494238        6.7119528328        9.7326611361
  O        -4.7133149343       13.3729709471        6.7507641651
  O         0.9673860859        7.4203486305        9.9462871426
  O         0.9397396785        1.3526019472        4.6758137971
  O        -5.3070043306        7.8322162146        8.0386766231
  O        -3.0267652163       13.2194161649        5.0578269808
  O         2.5862534803        6.7643227558        8.2281219428
  O         2.2911498704        3.3347852010        5.1606726889
  O        -3.4036453602        8.9907275259        8.9672442918
  O        -4.6933630254       11.4265245623        5.2189128213
  O         0.7529492112        5.2919810211        8.7572770904
  O         0.5255888593        2.6179969612        6.7011270548
  O        -5.4065019129        8.5248017827       10.3807639547
  O        -2.9986335085       11.6126879727        6.9233541558
  O         2.5795421814        5.6189558906       10.3937730880
  O        -1.7472927323        3.3170779597        4.6079395980
  O        -7.5334871732        9.7301891117        8.8187237810
  O        -1.6406496883       11.3114219841        3.1754574126
  O         4.6569303157        4.7768557196        9.1321482010
  O         5.0699241260        2.9055915615        7.5820983066
  O        -0.6620221235        9.8690578179        9.5606176298
  O        -7.4080477628       11.7921871890        7.4909291201
  O        -2.3143836988        3.7537533768       10.1342321242
  O        -0.2377871566        5.3147857997        5.0447403387
  O        -5.3693554932       10.6975985032        8.2321698561
  O        -2.1929261790        9.5276426323        4.8929542657
  O         2.7900315964        3.6191392821        8.0887898559
  O         0.9681810912        8.3200905059        4.1752651273
  O         7.5071203147        2.7320038684        9.2481649294
  O        -3.1449805153        6.3672994745        4.1988665360
  O       -10.0312685924       12.1597993838        9.2363702915
  O         2.1826581569        9.4483834084        6.0238323818
  O         8.6889153987        1.4330095725        5.2434095527
  O        -4.1119992388        5.2234223714        6.1497500245
  O       -10.6640365274       12.7785818260        4.8611292028
  O         2.7471869269        7.1531525971        5.4284190759
  O         7.9148506844        0.8805542256       10.8452811764
  O        -5.0799468607        7.3609388753        5.3606647224
  O       -10.7589484517       14.4061322323        9.9563342756
  O         0.5906037139        7.6607664542        6.4742540945
  O         5.8348349756        0.9319261644        9.6462312762
  O        -2.8811028492        7.3135523909        6.4079240751
  O        -8.5642027218       14.0588425803        8.8878711892
  O         4.1797412269        5.0143774271        6.7221842480
  O        -1.2855174668       10.9626084855        9.1357180595
  O        -6.6691730995        9.6540846143        6.5128429404
  O        -1.1057047271        3.4089494279        9.7335809755
  O         5.7302495246        0.5976308844        5.9871119110
  O        -1.8368314948        5.2477626015        7.8438930314
  O        -0.1515513283       10.8152686318        6.7723645173
  O         7.8633287260        2.3530596636        4.4476358481
  O        21.4729501373        2.6127036470        7.1197307547
  O        -9.6386492360       11.7394480863        4.7350031862
  H        -0.6478754500       11.1669736029        7.5735700609
  H         7.1800089298        1.7408296845        4.1045891318
  H        21.4117545892        2.0695498594        7.9958092925
  H       -10.1485105910       10.9127717202        4.5807115879
  H        -0.8473015663       10.5635879264        6.1332594875
  H         3.4504703830        5.2740140787        9.9215109842
  H        -1.9764380593        3.3638486477        7.2802301542
  H        -6.1842327119        8.9651872176        9.9340624617
  H       -17.7617528556       25.2545583555        5.9129775439
  H        -1.0960298544        5.3548613912        8.4760351373
  H        -8.4149112978       14.9227638616        5.6909001173
  H        -2.0031718763        6.1074559478        7.3994982078
 Ca        -9.3835533733       17.9319859198        6.5396915181
 Ca       -16.8458747953       24.2503767087        9.7918521954
 Ca       -16.5937481519       21.6763185277        6.4432369300
 Ca       -11.8427895679       15.9214327216        8.8060629185
 Ca       -22.2065975193       24.5038276325        5.0729138230
 Ca       -16.1567020967       17.5505101750        8.3755224670
 Ca        -3.9740867718       15.4757102984        5.2508028997
 Ca       -11.0743162346       22.1277324362        8.8968356935
 Ca        -6.4658273068       14.1710356717        8.1336105612
 Ca       -13.1548383025       18.7481070466        6.7784900558
 Ca        11.4446802860       12.9242511929        5.9996360081
 Ca         4.3268718241       19.9010179229        6.9419738091
  S       -11.0726216350       15.6624415927        5.8259467313
  S       -17.2521154887       20.5278507397        9.6714251827
  S       -15.5877563988       24.3951037017        7.0467120260
  S        -9.4795502074       18.9801998470        9.4057565450
  S       -14.1939531425       17.0437024752        3.7567760412
  S       -19.6917606514       23.0120434569        7.4162684799
  S       -13.8980815083       22.2051071364        3.9368275011
  S        -6.5531275713       17.1668788716        7.2190898961
  S       -10.1048375868       20.7784005478        5.8977197175
  S        -4.1068707446       14.3868668657       10.2138273605
  S       -16.6219729029       18.7618911573        5.5345598481
  S       -22.7096166406       25.2707188815       10.0750784636
  O       -10.7691009032       14.7020335113        6.9484438600
  O       -16.1522039109       19.5533068283        9.6857971685
  O         7.9065235310        0.1225526533        7.8048843418
  O       -10.2375192879       20.1207283961        9.9138534105
  O       -12.1387397672       15.1491291662        4.9615867791
  O       -17.7943764920       20.6897415916        8.2824981587
  O       -14.2035521021       24.7898413664        6.6865563111
  O        -8.4983543365       19.3415047484        8.3615208776
  O        -9.8194874618       16.0474570610        5.1236846673
  O       -16.9245428991       21.8192401282       10.2706814607
  O       -16.3940040983       23.9783664693        5.8543265893
  O       -10.3344973796       17.8683111429        8.9341851399
  O       -11.5353961956       16.9225513041        6.5746748299
  O       -18.3881028894       19.8773270257       10.5367075454
  O       -15.5186238090       23.1752112884        7.9585322830
  O        -8.6844463445       18.3446921180       10.6232913621
  O       -14.8224937450       15.9785093873        4.5537997989
  O       -20.4471050577       21.9133607748        8.1374480583
  O       -13.5775221188       23.6695927408        3.9519957381
  O        -5.8807567934       18.2258948407        8.0450037759
  O        -5.5458197168       16.1152645295        6.9203805773
  O       -11.7018179096       22.7449534163       10.9819142866
  O       -20.6743728230       24.0019650872        6.9091787056
  O       -13.8010792473       17.3974805752        8.5481230846
  O       -13.3027191376       17.9799609449        4.4617305159
  O       -18.7740435964       23.7042676029        8.3563871976
  O       -14.5477709254       21.6785772084        5.1869306663
  O        -7.7234188098       16.5695135634        7.8980572834
  O       -10.7882722053       21.2414128299        4.6965342793
  O        -4.7169426886       15.5775171208        9.4225062122
  O       -16.0885125629       18.6853044790        4.1760610277
  O       -22.2234777888       23.9700828563        9.4232682404
  O        -9.7720460956       21.8554362334        6.8775277502
  O        -5.8051007001       14.7250502629        4.3034606396
  O         7.0542199915       17.4402058673        6.1031935558
  O       -20.2758944959       25.2022286756        4.2495372648
  O        -8.8275838460       20.0154108618        5.5746854995
  O        -2.8763519891       13.8915711648        9.3836692632
  O       -17.7910544547       19.7221189082        5.5588623208
  O         0.2107262050        0.3853449422        9.2614595696
  O       -10.9853514880       19.7456160803        6.6272096459
  O        -5.1409007778       13.2269493731        9.9288529455
  O       -15.6063649624       19.3604120744        6.5277273226
  O         2.5248368475        1.0185039758        9.6434015620
  O        -7.0649875772       17.8523513192        5.9676835467
  O       -12.7804473872       22.9369486814       10.1495483405
  O       -18.9421123192       22.3394478383        6.3030583001
  O       -14.3074126382       16.8216384745        7.2429433146
  O        -7.7491599615       14.2600128227        5.9691297077
  O       -13.3565154939       20.7070376909        8.1657361905
  O       -12.4094740346       22.9297214601        7.0931686338
  O        -5.7545670625       16.1591408937        3.8981537144
  O       -13.4154204985       14.4760451367        7.7353426101
  O       -20.2962366201       23.7407466248        3.9523201562
  H       -13.0673519405       23.6659091300        7.0917352681
  H        -6.4071175617       16.5959382124        4.4830652754
  H         9.9102589941       14.0931060844        8.3137957281
  H       -19.6904722483       23.3592280164        4.6228652084
  H       -11.8849824184       23.0531812909        6.2542927795
  H        -8.0034066550       18.9883653146       10.9099119109
  H       -13.8493360950       15.3420753941        7.3891542979
  H       -19.1208503424       20.5666473227       10.6733050583
  H        -7.0115332427       14.3609526149        5.2409166130
  H       -14.0130328116       20.8332433910        8.8730636264
  H         5.0340028549        0.3335919902        5.2632350148
  H       -13.3277379309       21.5632061892        7.6558648271
 Ca        14.1835866691        5.1950606833        5.8328431840
 Ca         7.7309141098       11.5296514924        9.9566420403
 Ca         7.8253471674        8.9292561226        7.1675054923
 Ca        13.9939485877        2.7860672035        9.6460794353
 Ca         1.9603090433       11.9257724111        6.2121661395
 Ca         8.7874671759        4.8252688583        9.2690729421
 Ca        19.8092708048        2.9750864979        5.0926409231
 Ca        13.9154484987        9.8947414741        8.9865195050
 Ca        17.6464892562        1.1169348472        8.0380836101
 Ca        11.0719880542        7.2430026336        7.5527334325
 Ca        10.7713176285        0.6382527862        4.8413508936
 Ca         4.7353108233        7.2591494258        7.1764361572
  S        13.0609549564        2.6421897001        6.5979013308
  S         7.0905194337        7.8489244641        9.9374533556
  S         7.9979252943       11.9259022325        6.3508630893
  S        14.7631527176        6.3679319970        9.2822089241
  S        10.9515385633        4.1742560464        3.6982923630
  S         4.7323920067       10.2807172569        7.8424471930
  S         9.9757287393        9.6902450203        4.4435806661
  S        17.1483840257        4.1654720449        7.3632705520
  S        13.9926274934        8.1918126847        5.7162107946
  S        20.0137482182        1.3515613907       10.0522198976
  S         7.8574906745        5.9783199875        6.3381350349
  S         2.1272264199       12.2959283844        9.9026912773
  O        13.5907352312        1.5893362614        7.5085253384
  O         8.0235276035        6.7582335416       10.3112201641
  O         6.7576834369       12.7032706787        6.6330516794
  O        13.9702554016        7.5499753032        9.5452071088
  O        11.7058200145        2.3076167558        6.1043892298
  O         6.3423972904        7.4433790942        8.6920428512
  O         9.0118330841       12.9411125216        5.8673572057
  O        15.0498753142        6.1824378447        7.8195410954
  O        14.0162395544        2.8516664112        5.4524212638
  O         7.9175728658        9.0587498284        9.4874872899
  O         7.7872619171       10.8669156993        5.3263364878
  O        14.2756972177        5.1352176474        9.8821291613
  O        12.9922787944        3.9357598988        7.3616260878
  O         6.1619946742        8.1881717147       11.0183159652
  O         8.4908748689       11.2365674272        7.5913475061
  O        16.2012441233        6.6966251799        9.8985876247
  O        11.1325549876        2.7368257614        3.3977103106
  O         3.7501973173        9.3102818509        8.4223653822
  O        10.7893371153       10.8676176604        4.7839559189
  O        17.7240256518        5.2719353691        8.2177982178
  O        18.2885648411        3.2782782692        6.9722329121
  O        11.8127737693        8.9003122137        8.7909411004
  O         4.0477891026       11.3462221565        7.0492450944
  O        10.3967591256        2.9261121407        9.5675566476
  O        12.0539871912        4.8357756972        4.4347408852
  O         5.5474057878       10.9583919022        8.8822907771
  O         9.8350261709        8.6598092977        5.5016595995
  O        16.1480054073        3.3756101526        8.1058570116
  O        13.4002576174        9.1424153443        4.7751464336
  O        19.2315717013        2.4960593404        9.3408829474
  O         8.6029227754        5.4795696798        5.1897225515
  O         1.6992457828       11.5147035930        8.6142163210
  O        14.6250625216        8.8467895055        6.9000903320
  O        17.9512233142        2.3173386622        4.1515066002
  O         7.1894905443        4.9068253428        7.1478581833
  O         1.0420631365       12.8961591523        4.3696371706
  O        15.0789066599        7.3121570849        5.1054194973
  O        21.3037144979        1.0753126192        9.1974367659
  O         6.8313012977        7.0255840021        5.9498099540
  O         0.9115571832       13.1276151041       10.3379712004
  O        12.9213786133        7.2021924116        6.1528509283
  O        19.1434733829        0.0920247430        9.7122760182
  O         8.8021647085        6.7081520067        7.3162392149
  O         3.1353144011       13.4053334202        9.3614672925
  O        16.5548107638        4.8197942546        6.1332392221
  O        10.7893270481        9.6478325941        8.0300518596
  O         5.5971023723        9.4850178638        6.8991950037
  O        11.6961734828        3.4675327600        9.8051816392
  O        16.1964252388        1.3030357177        5.9047395038
  O        10.9429245653        5.7310240723        9.1494042883
  O        12.6116974807       11.1827495553        7.1061866998
  O        17.9747843436        3.7914085790        3.9323225517
  O         9.5265732944        3.4049676236        7.3299472415
  O         1.9666628223       11.9612796184        3.7269246511
  H        11.4298716607       10.3216873147        7.5635366600
  H        17.3800673750        4.1257373659        4.6425489165
  H        10.0587585303        3.0266808212        8.1450523419
  H         2.7335441309       12.5527823479        3.5564425685
  H        12.8088891525       10.6562085456        6.3088781000
  H        16.8193271020        6.0049226690        9.5427612288
  H        10.1757340337        3.3857082684        6.6077436720
  H         6.3973556576        9.6976166164       11.6594155119
  H        16.8679287672        1.6018259452        5.1955949886
  H        11.5154530868        4.5016844774        9.5503237182
  H         3.1167336344       14.4363504545        5.6126464753
  H        11.0315838890        6.2854255712        9.9590244659
 Ca         0.8104655642       18.0045346323        6.7537160060
 Ca        -3.1780966271       24.1206996641        8.8570910016
 Ca        -3.6545543489       22.1449369970        6.0468382857
 Ca         1.4116686227       15.1071578452        9.4712921454
 Ca        -9.4938045377       24.9382435596        6.6938739444
 Ca        -3.6041232615       17.4180456557        8.4767976639
 Ca         7.4639428375       14.9561303583        5.8314596811
 Ca         1.0638230644       22.2738027274        8.0958646074
 Ca         4.8653966545       13.3933569970        7.9285717781
 Ca        -1.0818241463       19.9526439782        3.9686837473
 Ca        -1.0575838749       13.4046880888        3.9411982662
 Ca        -6.7236301447       20.1438872615        6.7864267042
  S         0.6319973166       15.0543590680        6.5388288107
  S        -4.1741881678       20.6944697712        9.3262148171
  S        -3.9505232829       25.2878055157        5.5368909767
  S         1.6555568395       19.4966379662        9.4361762771
  S        -0.8238133683       16.7197376596        3.5783352384
  S        -6.4159150199       23.0310395861        7.3113028769
  S        -1.4702616829       23.4445254254        3.4175277698
  S         4.1117882870       16.9882212476        7.8082874633
  S         1.5006347403       20.9186152253        5.0402399634
  S         7.5599622580       14.6277595413        9.4837350792
  S        -3.6539844391       19.1555908007        5.1302193187
  S        -9.4076815358       25.0658966332        9.8871312465
  O         1.4661259346       14.0550323999        7.2641653943
  O        -3.4917672948       19.4682778455        9.7532115421
  O        19.1613094953        0.7050469820        6.2125507184
  O         1.2019674144       20.7064188849       10.1289607309
  O        -0.5550573865       14.4483327851        5.9076856773
  O        -4.4431871948       20.6852807768        7.8555000319
  O        20.9255184340        0.8704775510        4.5613597921
  O         1.9939818751       19.8533379381        8.0100892147
  O         1.4519901882       15.8686971072        5.6140469999
  O        -3.5245155534       21.9243242404        9.7924972378
  O        -4.4047379650       24.0774297137        4.8418217112
  O         0.7641103217       18.3359159159        9.4336836239
  O         0.1029169890       15.9942513656        7.6282009280
  O        -5.6066643766       20.6406031145       10.0064704121
  O        -2.8742669599       24.9106831750        6.5446623760
  O         2.9909071516       19.0832047240       10.1559390217
  O        -1.9763365211       15.7016028095        3.7842688990
  O        -6.9923571253       22.0955220350        8.3306954659
  O        -0.5543931857       24.3450905588        4.2307714349
  O         5.2216489975       17.9056560636        8.2199066614
  O         4.5798935680       15.7229034300        7.2166484597
  O        -1.0782891079       21.7371945487        7.9850689397
  O        -7.2651229922       24.2315824774        7.1724726802
  O        -1.6665976461       16.8329738689       10.0469244465
  O        -0.6807776775       17.6953287150        4.7770340210
  O        -5.0220572825       23.4318600905        7.6892287409
  O        -1.8740864651       22.2032470095        4.2393688068
  O         3.2411667798       16.7120540964        9.0213628650
  O         1.0517067639       21.0607784969        3.6326267425
  O         7.2045324019       15.3545646583        8.1263004003
  O        -3.2173355661       18.9297106835        3.7311439516
  O        -9.9483725200       24.0873526618        8.7748033925
  O         1.4608709888       22.2406500674        5.7517875237
  O         5.8033560532       14.2515006070        4.6189559233
  O        -3.7472915303       17.8938211586        5.9103204800
  O       -11.2829453728       25.2094213050        5.1995156210
  O         2.8346140980       20.2971226061        5.1649270323
  O         8.6706260727       13.6426869720        9.1130419440
  O        -4.8982821672       19.9717853311        5.1930801179
  O        13.5959650107        0.5798318519       10.3152841420
  O         0.4521758569       20.0469796949        5.7199931604
  O         6.3314722185       13.7124252626        9.7416640172
  O        -2.5506433379       20.0143213634        5.7724862265
  O        15.6918954301        0.6898411397        9.0636909636
  O         3.2890465306       17.7565626459        6.8020741305
  O        -1.8413407127       22.8039691102        7.4119508471
  O        -6.2952224054       22.2739519960        6.0217442180
  O        -0.7672516344       15.9389783695       10.3111240816
  O         3.6352940051       13.6108752838        5.6612900200
  O        -1.4360132019       18.6328997668        7.7292091097
  O         0.0520427107       24.5755347161        6.9221155965
  O         5.6346100094       15.7049499967        4.3810153854
  O        -2.6718151585       15.5837348083        7.3567939601
  O       -10.8806634968       23.7905104123        5.1055546515
  H         0.1123633527       25.0135406284        7.8442784290
  H         5.0305413995       15.9702342523        5.1095687787
  H        -2.7686405617       14.8580101640        8.0617385311
  H       -11.0739831958       23.5278036374        4.1877991408
  H        -0.7413815726       23.9304724748        6.9733191828
  H         3.2199208976       18.1483123599        9.8206086062
  H        -1.6983982409       15.6974643511        7.2950987661
  H        -6.1550652233       21.3324754331        9.5115174460
  H         4.5341068983       13.8140279410        5.1398260091
  H        -1.2572334456       19.0713095671        8.5846646893
  H        15.4709852207        1.9692742622        5.8007974686
  H        -1.8202960819       19.3375056371        7.1402242811
  O        12.4551324404       11.6938961318       12.8900658932
  H        11.8529559431       11.2950984305       13.5716070686
  H        12.6735562132       10.9396729114       12.2856436179
  O        11.2051348508       13.2058076275       11.1648316892
  H        11.6633897318       12.6707383331       11.8992717476
  H       -12.0974808585       13.6160212802       10.6921697136
  O        12.9525717032        9.6090278118       11.1281722425
  H        13.1534087430        8.7465106535       11.6757036567
  H        12.1282928332        9.3384158303       10.6607086005
  O         9.4366079589        4.7882043766       11.5977333248
  H        10.4478686220        4.8713754315       11.7069893331
  H         9.1155091311        5.6848623536       11.8134246770
  O         7.6786540060       13.2245997819       14.3369114223
  H         8.1109045695       12.5105362051       14.9029014419
  H         7.8734697598       14.0560942809       14.7944625565
  O        10.0316944731       11.0127030195       10.1566129332
  H        10.6149707987       11.8032716108       10.3457234820
  H        10.3583088471       10.5161677157        9.3563494903
  O         9.7118183810        3.0221518271       13.6467435271
  H        10.6105213039        2.6546082135       13.3440787392
  H         9.4422785381        3.6499649797       12.9236732992
  O       -15.0157317606       23.7068098687       11.1732203173
  H       -15.3049418940       23.3381512826       12.0340900168
  H       -14.1290215576       23.2906010291       10.9041200879
  O       -13.2079684525       24.9091189686       13.8436194239
  H        11.4397518238        0.4208453225       13.5749193371
  H       -12.7240991191       24.6306157113       14.6483869993
  O         6.8839890359       10.5296482033       11.9124094927
  H         8.5546191461        9.7290159122       12.4352421856
  H         6.2284210115       11.2004472179       12.2366586289
  O       -11.2599185806       24.3121826025       15.6732326717
  H       -11.2033222449       23.7175862942       16.4333159008
  H       -10.6584095164       25.1377386671       15.9065608051
  O       -16.6996972875       23.2867299811       13.3432659771
  H       -16.8542948675       22.4349116651       13.7795286436
  H       -17.4869873849       23.4356395457       12.7720440277
  O         8.5429995218       12.9430007128       11.7294095333
  H         8.3924981485       13.0031733850       12.6994574057
  H         9.4750944014       13.2225138004       11.5512595393
  O       -18.6234078595       23.9624687523       11.4855311641
  H       -19.2648913368       23.2296482845       11.2721001089
  H       -19.1311214454       24.7891785377       11.3863280480
  O         8.7683134982       11.3016116283       15.7808058181
  H         8.8054502510       11.3010415540       16.7458316653
  H         9.6386668580       10.8966170160       15.4556036492
  O         5.5237730275       12.8282184317       12.4849653175
  H         6.1999415071       13.0852709580       13.1510624672
  H         5.7849604605       13.2906409595       11.6604295065
  O       -20.1516201056       21.8407666464       10.8173600855
  H         3.0156328506       21.6628524425       11.1465864803
  H       -20.3054752677       22.0169077972        9.8482546696
  O        17.0128577601        5.6699101132       20.4286320221
  H        16.6428041086        5.5961404736       19.5343700144
  H        17.6415171902        6.4111485322       20.4352492108
  O        10.8684678708       10.2788636599       14.6470453363
  H        11.6692031117        9.6713390809       14.8809922399
  H        10.3986555158        9.8492070188       13.8869902562
  O         9.5124887927        9.5290806264       12.3752260096
  H         9.8118273884       10.0747210024       11.6010287550
  H        10.2621555267        8.0498355015       11.8923366646
  N        11.3648917599        4.6067341267       15.2598986928
  H        10.5587233092        4.0553351855       14.9149032081
  H        12.2501174192        4.0690153434       14.9697084352
  H        11.3056645724        4.7210570626       16.2699270776
  N       -10.3858533852       24.1343214086       12.9201829570
  H        -9.5078901703       23.6477096647       12.7423656465
  H       -11.0906601343       23.8094511002       12.2195579797
  H       -10.7170822367       23.9333758480       13.8759874733
  N        13.0300563840        8.8253706966       15.1136112217
  H        13.2101116626        8.3487547535       14.2095641750
  H        12.8843754666        8.0669061404       15.7776058971
  H        13.8810358646        9.3207375314       15.3763698585
  N         8.5193514492        0.6244760399       13.4680016879
  H         8.8151472433        1.6175997739       13.6873512326
  H         8.2296486514        0.6373840778       12.4543514297
  H         7.7493742726        0.2789809094       14.0351199126
  H         9.3777239756        0.0284406104       13.6213943140
  N        14.4878219483        1.0598673240       16.1086902824
  H        15.3220611835        0.8902378252       15.5451742940
  H        14.8002834617        1.3185066739       17.0435796484
  H       -10.1904256442       25.2252842387       12.8712260142
  H        14.0624584283        1.8968997685       15.6497501343
  N        10.9356487397        0.6383580329       10.7604362901
  H       -13.9735896982       25.3156139763       11.0413124851
  H        11.6839951542        0.1730951257       10.2372691229
  H        11.4010683285        1.0734819216       11.6056339826
  H        10.5321168864        1.4496294650       10.2058096923
  N        16.3134769069        3.9511153564       22.1928219750
  H        16.6744428041        4.7313277356       21.4762051657
  H        15.6258402221        3.3636491072       21.7122472407
  H        15.8575861314        4.3814368064       23.0000565024
  H        17.0913864466        3.3667700487       22.5040588379
  P        11.9102804820        6.7164042196       12.6143554266
  O        11.2361387440        6.8385778645       13.9828461438
  O        10.8743530600        7.3563614812       11.5225016262
  O        11.9873861412        5.2575130081       12.1246058408
  O        13.2251453848        7.4826848651       12.5284651517
  H        11.3276844589        5.5911533429       14.7345866376
  P        13.3991434223        2.3771629681       13.1960801230
  O        14.4377227932        1.2742345444       13.1221393275
  O        13.7069090134        3.3675132032       11.9513543252
  O        13.4634467483        3.1767153446       14.4960005664
  O        11.9483622692        1.8457678829       12.9682030313
  H        13.0840470873        4.2009515771       12.0115485027
     464
 i =        3, E =     -6303.0344348499
 Ca         1.7430746743        5.2151406301        6.4455432501
 Ca        -3.4756373840       11.6453700012        9.2515733211
 Ca        -4.1953348595        9.4541276381        6.4650840379
 Ca         0.8746157433        2.7123201224        9.1058531800
 Ca        -9.4459194793       12.7064248512        6.8429845455
 Ca        -3.9798392174        4.5315642630        8.6275877617
 Ca         7.4049716213        2.4592509334        6.8599253744
 Ca         1.2767887612        9.3145259191        8.4031072260
 Ca         4.2613183774        0.7273983862        8.0367932459
 Ca        -1.1142851587        7.4643013448        4.8449785860
 Ca        22.9303655064        1.0851834750        5.7005884951
 Ca        16.8359593473        7.3746406499        6.7853414504
  S         1.6408976201        2.1577633718        5.7360983387
  S        -4.4439385173        7.9834228772        9.2513270622
  S        -3.8890616741       12.4040003611        5.9787225268
  S         1.6851644775        6.3106411825        9.3427741181
  S        -0.6840542456        4.2214717147        3.9799154963
  S        -6.7806244233       10.4824406332        7.7687169222
  S        -2.4655154751       10.0631238647        3.4153904134
  S         4.2212781489        4.0801299677        7.8958086153
  S         1.6596481545        8.1824084542        5.4736076811
  S         6.8330470119        1.9218790452       10.3907110548
  S        -3.8469703491        6.5311519159        5.4946075144
  S        -9.5044503247       13.4456639424        9.9874466703
  O         2.5581121440        1.2294864090        6.4503438855
  O        -3.9173893603        6.7099090608        9.7486200420
  O        -4.7062532222       13.3787299045        6.7533434405
  O         0.9688698135        7.4179159718        9.9664884713
  O         0.9394648215        1.3507728559        4.6723664637
  O        -5.3022300095        7.8308566949        8.0423775674
  O        -3.0229622992       13.2212870095        5.0518757728
  O         2.5797737058        6.7705149003        8.2327094242
  O         2.3060279457        3.3365652206        5.1603685627
  O        -3.3944316113        8.9933969423        8.9754979353
  O        -4.6994570482       11.4248310490        5.2178396907
  O         0.7459257626        5.2890801478        8.7612880838
  O         0.5306452974        2.6229950406        6.7013646508
  O        -5.4077782243        8.5358110593       10.3864013271
  O        -3.0016229365       11.6052095704        6.9245307439
  O         2.5850094985        5.6090788985       10.3982604022
  O        -1.7531848803        3.3106094375        4.5980573422
  O        -7.5364102065        9.7216134675        8.8203089059
  O        -1.6277457241       11.3057466941        3.1511219384
  O         4.6623925232        4.7809136716        9.1335683850
  O         5.0717501889        2.9046799359        7.5762313811
  O        -0.6608472915        9.8764499603        9.5728816887
  O        -7.4149055537       11.7928480048        7.4969190107
  O        -2.3142665034        3.7676729995       10.1450557564
  O        -0.2370998377        5.3130139113        5.0163401873
  O        -5.3675833772       10.7040488744        8.2346719473
  O        -2.1907002674        9.5301122928        4.8699832792
  O         2.7891526968        3.6192172326        8.0901989611
  O         0.9673932291        8.3254517713        4.1675097850
  O         7.4978584144        2.7341496495        9.2507710675
  O        -3.1427915535        6.3636839133        4.1929628639
  O       -10.0357271681       12.1832009506        9.2269626507
  O         2.1898725680        9.4562272794        6.0212083334
  O         8.6823070945        1.4295376056        5.2314962427
  O        -4.1181103606        5.2166726394        6.1435654500
  O       -10.6676727484       12.7743678991        4.8586800301
  O         2.7518429117        7.1544819483        5.4275355303
  O         7.9217226603        0.8939950803       10.8426741612
  O        -5.0854091067        7.3597686242        5.3591162013
  O       -10.7564771958       14.3919994655        9.9706470095
  O         0.5967806801        7.6617061655        6.4747943031
  O         5.8390126360        0.9262518793        9.6576792249
  O        -2.8847034128        7.3116214915        6.4117210575
  O        -8.5958531269       14.0533173043        8.8798223073
  O         4.1773526778        5.0184578328        6.7174214609
  O        -1.2810403433       10.9644439138        9.1144861164
  O        -6.6665209583        9.6564644388        6.5083417002
  O        -1.1091350525        3.4024925803        9.7387114004
  O         5.7171927773        0.5906806899        5.9891836449
  O        -1.8330728058        5.2492256194        7.8367570540
  O        -0.1547016207       10.8139624804        6.7780946532
  O         7.8640630205        2.3545324222        4.4380735323
  O        21.4689506225        2.6147624528        7.1265728594
  O        -9.6382293469       11.7410426743        4.7384492459
  H        -0.6535960675       11.1501270609        7.5897951206
  H         7.1708444575        1.7522768030        4.0974827451
  H        21.4133869982        2.0613955293        7.9951724414
  H       -10.1347492361       10.9094147365        4.5695027604
  H        -0.8535277532       10.5738548567        6.1383185710
  H         3.4574353476        5.2727782110        9.9174415888
  H        -1.9700036001        3.3572452964        7.2822621772
  H        -6.1904778638        8.9614971204        9.9327116067
  H       -17.7649980929       25.2575905415        5.9118319729
  H        -1.0970963742        5.3566811045        8.4740853104
  H        -8.4150794034       14.9166957874        5.6860282243
  H        -2.0084379910        6.1144197518        7.4045590719
 Ca        -9.3815771694       17.9356249288        6.5396908654
 Ca       -16.8556204704       24.2415438900        9.7996471943
 Ca       -16.6003612704       21.6718113599        6.4521733135
 Ca       -11.8465303516       15.9287117343        8.8048826830
 Ca       -22.2023051455       24.5020219485        5.0699704580
 Ca       -16.1576435849       17.5609173037        8.3692931754
 Ca        -3.9721626562       15.4866234249        5.2445943752
 Ca       -11.0778014577       22.1206001827        8.8967297800
 Ca        -6.4730001286       14.1760870648        8.1382885648
 Ca       -13.1622931808       18.7404616640        6.7837674029
 Ca        11.4420770874       12.9264035593        5.9974796747
 Ca         4.3260535446       19.9006031028        6.9461635436
  S       -11.0762313608       15.6626198400        5.8168991106
  S       -17.2504975524       20.5283965275        9.6823694829
  S       -15.5868975873       24.3957603002        7.0440400851
  S        -9.4841255029       18.9819653571        9.4118360903
  S       -14.2112337065       17.0621538404        3.7477117980
  S       -19.6939621396       23.0138006437        7.4211074434
  S       -13.8792625497       22.2015708889        3.9271479492
  S        -6.5523656886       17.1661902770        7.2278353739
  S       -10.1072236602       20.7782350137        5.8889387488
  S        -4.1035840571       14.3923729865       10.2440339751
  S       -16.6175991896       18.7635281621        5.5297091292
  S       -22.7097522730       25.2647298891       10.0965281200
  O       -10.7741694690       14.6937467082        6.9386889311
  O       -16.1432630837       19.5558192728        9.6994094978
  O         7.9090369321        0.1275796483        7.8018389467
  O       -10.2427018051       20.1209719402        9.9319985257
  O       -12.1467770256       15.1477340925        4.9526734586
  O       -17.7925461424       20.6839227684        8.2874291524
  O       -14.1983609372       24.7949729748        6.6919658097
  O        -8.4996158299       19.3467413647        8.3662243188
  O        -9.8188160737       16.0481073376        5.1170875554
  O       -16.9278974693       21.8250518686       10.2802331953
  O       -16.3888128922       23.9774414419        5.8429607602
  O       -10.3376842020       17.8624304404        8.9382714274
  O       -11.5335543772       16.9221969959        6.5794697578
  O       -18.3913355159       19.8715168261       10.5462257015
  O       -15.5211538613       23.1769610715        7.9648957442
  O        -8.6829663604       18.3375541765       10.6275261998
  O       -14.8193216706       15.9815846065        4.5398599965
  O       -20.4531303591       21.9137353118        8.1444658583
  O       -13.5869202970       23.6774920349        3.9263619727
  O        -5.8769380218       18.2261806221        8.0567921982
  O        -5.5486130680       16.1113766746        6.9207611376
  O       -11.7194954197       22.7257623792       10.9937835750
  O       -20.6757014367       24.0064323298        6.9120805942
  O       -13.8046619807       17.3830075862        8.5493067105
  O       -13.2933838991       17.9790308644        4.4466926335
  O       -18.7719972399       23.7093857183        8.3598265954
  O       -14.5539042042       21.6822401771        5.1712845346
  O        -7.7287744591       16.5666499871        7.9033140228
  O       -10.7935586390       21.2416666753        4.6843982589
  O        -4.7214416556       15.5674125758        9.4252272790
  O       -16.0756631763       18.6856094054        4.1676644169
  O       -22.2170334854       23.9689356595        9.4302932744
  O        -9.7716861980       21.8569440060        6.8699685535
  O        -5.8132579396       14.7165425730        4.2939942471
  O         7.0599622427       17.4385043332        6.0978466868
  O       -20.2660082339       25.2049429870        4.2406519252
  O        -8.8293490461       20.0092762699        5.5683119848
  O        -2.8820901630       13.8978836469        9.3942530531
  O       -17.7888526486       19.7247956069        5.5540052438
  O         0.2173042159        0.3801152497        9.2675788547
  O       -10.9913128844       19.7437914190        6.6237792314
  O        -5.1318253647       13.2256542166        9.9411661012
  O       -15.6038854610       19.3674719798        6.5260971720
  O         2.5205747624        1.0170686370        9.6521490811
  O        -7.0625265232       17.8512227053        5.9694688608
  O       -12.7914976492       22.9296865846       10.1511945106
  O       -18.9471558925       22.3395288164        6.2991061386
  O       -14.3159463503       16.8184703955        7.2428559630
  O        -7.7409295338       14.2632143670        5.9668036658
  O       -13.3635278210       20.7055781734        8.1668010328
  O       -12.4099421551       22.9261013594        7.0956076054
  O        -5.7592306282       16.1525892695        3.8895312248
  O       -13.4145503652       14.4844862331        7.7407190046
  O       -20.2810031082       23.7439266050        3.9375451040
  H       -13.0717605571       23.6612904753        7.0900314020
  H        -6.4093447669       16.5903895963        4.4755554994
  H         9.9064887871       14.0985078423        8.3148412516
  H       -19.6892724829       23.3642184175        4.6219688088
  H       -11.8873674534       23.0487376899        6.2560005928
  H        -7.9888011007       18.9748596037       10.8993277373
  H       -13.8525189326       15.3490581982        7.3887547600
  H       -19.1292127387       20.5618770963       10.6739821896
  H        -6.9998966977       14.3675047682        5.2368407852
  H       -14.0148236070       20.8391153987        8.8773500052
  H         5.0254712718        0.3242712136        5.2583151537
  H       -13.3235528886       21.5607797477        7.6538968295
 Ca        14.1834575746        5.1945525572        5.8267051647
 Ca         7.7354934457       11.5355907699        9.9567696317
 Ca         7.8264101702        8.9194336170        7.1738980789
 Ca        13.9962528494        2.7885302845        9.6523111567
 Ca         1.9580308357       11.9263601811        6.1988521207
 Ca         8.7823124562        4.8233434819        9.2648261111
 Ca        19.8022297074        2.9799226965        5.0957206540
 Ca        13.9147376059        9.8942535512        8.9895352593
 Ca        17.6477098849        1.1146980919        8.0371119747
 Ca        11.0777363915        7.2422585066        7.5522077948
 Ca        10.7672199420        0.6342639547        4.8308900707
 Ca         4.7293618677        7.2585216756        7.1693761169
  S        13.0544994122        2.6447376100        6.5923769657
  S         7.0893973906        7.8517608406        9.9489296608
  S         8.0047076046       11.9190574884        6.3409412366
  S        14.7615093693        6.3641770745        9.2896037396
  S        10.9346340925        4.1760317829        3.6993347624
  S         4.7346691314       10.2781232777        7.8399282811
  S         9.9515463945        9.7100844815        4.4361538899
  S        17.1486887819        4.1666381892        7.3634110471
  S        13.9893916106        8.1885652963        5.7036551160
  S        20.0189252873        1.3546588275       10.1025331105
  S         7.8570151808        5.9797351839        6.3293981923
  S         2.1363865632       12.2662362673        9.9351657086
  O        13.5847399002        1.5903524768        7.5044574698
  O         8.0221458032        6.7606118613       10.3298887419
  O         6.7639618434       12.6995118838        6.6263002848
  O        13.9644316090        7.5459871465        9.5531065174
  O        11.6941697280        2.3114502007        6.0982253199
  O         6.3520916742        7.4494979043        8.6880085531
  O         9.0204807940       12.9387046129        5.8570274874
  O        15.0489452016        6.1829236259        7.8200784381
  O        14.0157925076        2.8517800810        5.4452794220
  O         7.9215684859        9.0680442176        9.5071141700
  O         7.7937125992       10.8549014009        5.3131777196
  O        14.2748815433        5.1281180376        9.8892226512
  O        12.9911750384        3.9401561659        7.3615189374
  O         6.1491933836        8.1894779413       11.0241591124
  O         8.4980616734       11.2254680623        7.5827978503
  O        16.2035104838        6.6962463776        9.9071358540
  O        11.1292232956        2.7402572354        3.3835167438
  O         3.7533873061        9.3033343634        8.4243576878
  O        10.8053485834       10.8648756759        4.7672593433
  O        17.7289041331        5.2753944546        8.2200697413
  O        18.2876872312        3.2772771654        6.9698755327
  O        11.8047073864        8.9102066310        8.7950963087
  O         4.0500730595       11.3490136027        7.0474695672
  O        10.3937632449        2.9309188942        9.5691107880
  O        12.0433672384        4.8423273243        4.4248890166
  O         5.5534895181       10.9600542279        8.8794298278
  O         9.8465199502        8.6606516185        5.4796499783
  O        16.1445512306        3.3715616689        8.1034291358
  O        13.3915955313        9.1460703558        4.7663899520
  O        19.2349860597        2.4731785245        9.3388014774
  O         8.6051969731        5.4788667411        5.1781833693
  O         1.7030603782       11.5311355999        8.6128667982
  O        14.6221392792        8.8459131497        6.8905396506
  O        17.9438763337        2.3105136462        4.1372289967
  O         7.1888868620        4.9056109743        7.1413360078
  O         1.0473774613       12.9033641730        4.3642047063
  O        15.0816446363        7.3065883185        5.0966673158
  O        21.2808664495        1.0788596463        9.2009116238
  O         6.8274400433        7.0311429366        5.9448369470
  O         0.9117887696       13.1096554458       10.3325179610
  O        12.9155808812        7.1952191545        6.1438778296
  O        19.1635464380        0.0958461616        9.7091424000
  O         8.8046129088        6.7071296602        7.3154810236
  O         3.1049038203       13.4130587220        9.3780617172
  O        16.5613955781        4.8189526962        6.1224044458
  O        10.7826798880        9.6515893044        8.0265548246
  O         5.5999017325        9.4817921291        6.8900651780
  O        11.7009901901        3.4568201678        9.7998890976
  O        16.2099788171        1.3168443800        5.9063099944
  O        10.9495542398        5.7243080995        9.1603055988
  O        12.6182577708       11.1768325831        7.1068290125
  O        17.9628857165        3.7874397685        3.9191531476
  O         9.5353837462        3.4112589787        7.3282860888
  O         1.9585489694       11.9625178904        3.7164578335
  H        11.4251810922       10.3223527296        7.5518072376
  H        17.3756778022        4.1193623071        4.6354669070
  H        10.0580235140        3.0330079799        8.1517460998
  H         2.7365543969       12.5436870101        3.5630927191
  H        12.8160599280       10.6501294719        6.3098441927
  H        16.8211085241        6.0078986449        9.5387208603
  H        10.1850426076        3.3703595011        6.6055200062
  H         6.3987828304        9.7018721422       11.6584083232
  H        16.8778923159        1.6128638013        5.1885907014
  H        11.5192962035        4.4954428220        9.5473191543
  H         3.1073376293       14.4284117289        5.6092378306
  H        11.0292504796        6.2757429140        9.9724648678
 Ca         0.8139058271       18.0129462852        6.7556388720
 Ca        -3.1734912504       24.1158841736        8.8633801419
 Ca        -3.6451216683       22.1408074763        6.0526443642
 Ca         1.3810130445       15.1296467645        9.4899940700
 Ca        -9.4866815799       24.9403622268        6.6704140510
 Ca        -3.5914210679       17.4138905442        8.4900019413
 Ca         7.4661603093       14.9636010230        5.8210398214
 Ca         1.0628191001       22.2834344991        8.0888450733
 Ca         4.8531644328       13.3984569404        7.9322510212
 Ca        -1.0824045806       19.9515278304        3.9630455554
 Ca        -1.0472042261       13.4011599670        3.9260357277
 Ca        -6.7202919489       20.1427256185        6.7845573296
  S         0.6310135717       15.0505622074        6.5347180372
  S        -4.1739401260       20.6950014486        9.3388134917
  S        -3.9577236871       25.2905107590        5.5250645641
  S         1.6543894235       19.4970299847        9.4488333920
  S        -0.8149594194       16.7176822211        3.5609723856
  S        -6.4169861576       23.0302280800        7.3120644620
  S        -1.4817766844       23.4581202457        3.4085049029
  S         4.1136524268       16.9820624842        7.8075720390
  S         1.5042400568       20.9190054811        5.0280460258
  S         7.5673331780       14.6274384330        9.4925724809
  S        -3.6576351181       19.1549022999        5.1255670969
  S        -9.3857462961       25.0416119405        9.9235687292
  O         1.4628058104       14.0517566774        7.2695799479
  O        -3.4915517707       19.4671218307        9.7700238772
  O        19.1597170559        0.7143810549        6.2064597598
  O         1.2002012847       20.7107586960       10.1413009574
  O        -0.5560240236       14.4373324761        5.9026381815
  O        -4.4437643431       20.6829544182        7.8637711021
  O        20.9216058897        0.8789526638        4.5517349581
  O         1.9947059704       19.8569879515        8.0190123747
  O         1.4538836403       15.8659172092        5.6059336433
  O        -3.5225844808       21.9289463798        9.8036164875
  O        -4.4132029829       24.0714610518        4.8376305059
  O         0.7593243389       18.3358646240        9.4379494111
  O         0.1006248551       15.9922693488        7.6274911150
  O        -5.6154347730       20.6450027634       10.0160029701
  O        -2.8808021008       24.9119516934        6.5376785593
  O         2.9959782977       19.0749562314       10.1643909637
  O        -1.9762759116       15.7032354081        3.7638407811
  O        -7.0041893327       22.0929439755        8.3321328266
  O        -0.5430349835       24.3480494962        4.2152631135
  O         5.2240997880       17.9066622190        8.2229306483
  O         4.5879300634       15.7134855696        7.2190796963
  O        -1.0936842749       21.7406869371        7.9991431059
  O        -7.2618573453       24.2367559994        7.1708565712
  O        -1.6844379471       16.8200858552       10.0456962836
  O        -0.6829607794       17.6920022113        4.7669408578
  O        -5.0205306554       23.4311662236        7.6912905288
  O        -1.8735568102       22.2003174918        4.2183777681
  O         3.2402843846       16.7080397767        9.0220849862
  O         1.0521782547       21.0603747268        3.6168367651
  O         7.2008631291       15.3475220482        8.1272627434
  O        -3.2203385728       18.9236080931        3.7224690975
  O        -9.9490096503       24.1065687463        8.7738245432
  O         1.4712978303       22.2450065085        5.7397779309
  O         5.7973854216       14.2496749705        4.6055024778
  O        -3.7503391751       17.8915530773        5.9085864933
  O       -11.2877549878       25.2106575110        5.2016451981
  O         2.8385390923       20.2912773109        5.1585857832
  O         8.6736196286       13.6362757509        9.1123810397
  O        -4.9034161505       19.9737082250        5.1882766465
  O        13.6008986024        0.5636689648       10.2982231661
  O         0.4516375712       20.0502896315        5.7117791133
  O         6.3405723175       13.7035015329        9.7500116755
  O        -2.5491394257       20.0188257603        5.7639404443
  O        15.6652335072        0.7013761919        9.0734126160
  O         3.2903980685       17.7492014903        6.7944297490
  O        -1.8349502802       22.8263928568        7.4088898519
  O        -6.2952041433       22.2738059954        6.0181532387
  O        -0.7534428129       15.9547786128       10.3255671644
  O         3.6390456427       13.6115333927        5.6616365404
  O        -1.4381714082       18.6349391536        7.7278025839
  O         0.0487148424       24.5734206823        6.9225279001
  O         5.6349317231       15.7042806947        4.3743309859
  O        -2.6710183026       15.5792283001        7.3597372488
  O       -10.8875532759       23.7915305575        5.0988944873
  H         0.1159991698       25.0143391003        7.8405560770
  H         5.0253135179       15.9685974442        5.0980350435
  H        -2.7650635850       14.8506466017        8.0623201753
  H       -11.0455060629       23.5266513383        4.1751185872
  H        -0.7527227031       23.9289599740        6.9833658942
  H         3.2241093659       18.1411236707        9.8180013712
  H        -1.6967753614       15.6909288287        7.3005014597
  H        -6.1609544623       21.3331549075        9.5094470133
  H         4.5386961179       13.8225634816        5.1371958167
  H        -1.2526893483       19.0696894877        8.5827893621
  H        15.4752740651        1.9711204147        5.7933936133
  H        -1.8208543977       19.3446321895        7.1425898868
  O        12.4519050883       11.6981294154       12.8890190439
  H        11.8520664776       11.2982471409       13.5709314206
  H        12.6799376652       10.9421243731       12.2905057338
  O        11.2057004276       13.1908491414       11.1654762256
  H        11.6662403626       12.6680146576       11.9074559974
  H       -12.0964994880       13.6031893329       10.6943892092
  O        12.9472906502        9.6061583630       11.1439743438
  H        13.1546889791        8.7409662765       11.6885003427
  H        12.1214888094        9.3430057477       10.6763955666
  O         9.4352170734        4.7899048690       11.6044579865
  H        10.4487864658        4.8758817146       11.7169367151
  H         9.1157590545        5.6851917575       11.8269887300
  O         7.6789742219       13.2225934029       14.3386640300
  H         8.1085609799       12.5087491604       14.9064415186
  H         7.8738903988       14.0563168142       14.7912016989
  O        10.0374388371       11.0114716706       10.1653902862
  H        10.6157620975       11.8069667033       10.3506522427
  H        10.3560525025       10.5218718970        9.3572378469
  O         9.7074897679        3.0225466728       13.6512697580
  H        10.6103561241        2.6586511405       13.3518713466
  H         9.4400534194        3.6475748559       12.9254590709
  O       -15.0071981697       23.7077745284       11.1764905667
  H       -15.3001584799       23.3387976382       12.0348446249
  H       -14.1230811502       23.2900018520       10.8995231082
  O       -13.2092393641       24.9080952307       13.8417755523
  H        11.4399367441        0.4197084526       13.5783812635
  H       -12.7235638529       24.6317081789       14.6470699661
  O         6.8761700783       10.5367953524       11.9211514424
  H         8.5567856855        9.7298654277       12.4425744105
  H         6.2164699123       11.2033476481       12.2433331058
  O       -11.2610500735       24.3071036811       15.6831500831
  H       -11.1957137038       23.7141057493       16.4439516692
  H       -10.6609759266       25.1353146680       15.9087398434
  O       -16.7060539356       23.2874074918       13.3602970248
  H       -16.8536157885       22.4240380775       13.7766360237
  H       -17.4902963940       23.4371073343       12.7846958961
  O         8.5362868748       12.9591431065       11.7341446772
  H         8.3901708654       13.0021215022       12.7064163068
  H         9.4778328365       13.2118273217       11.5591391159
  O       -18.6266033749       23.9697305171       11.4913240366
  H       -19.2648561280       23.2352198035       11.2748017554
  H       -19.1295562772       24.7975165002       11.3789440879
  O         8.7670047586       11.3035410676       15.7822996372
  H         8.8106237507       11.3006598030       16.7472863981
  H         9.6346570918       10.8924473493       15.4534624026
  O         5.5197897452       12.8325312015       12.4897530202
  H         6.2029450053       13.0821088114       13.1495415168
  H         5.7776926089       13.2912787768       11.6638137630
  O       -20.1489954555       21.8427094705       10.8168144025
  H         3.0180645362       21.6647159635       11.1458387048
  H       -20.3042776474       22.0150639325        9.8464049255
  O        17.0067199324        5.6779625196       20.4172692323
  H        16.6545714199        5.6238576581       19.5145309564
  H        17.6463815319        6.4087437327       20.4206729308
  O        10.8679521339       10.2871394798       14.6434873294
  H        11.6674270304        9.6781738997       14.8854280525
  H        10.3952284080        9.8559926506       13.8859812596
  O         9.5136723950        9.5259158085       12.3814307243
  H         9.8077545669       10.0669679450       11.6024211536
  H        10.2586851596        8.0440509680       11.9017452759
  N        11.3646301144        4.6089433299       15.2573189862
  H        10.5595492549        4.0588390135       14.9075979196
  H        12.2502481582        4.0655719981       14.9697272900
  H        11.3074230230        4.7195381128       16.2671155484
  N       -10.3826989681       24.1396505445       12.9205490027
  H        -9.5071448747       23.6510812660       12.7386055364
  H       -11.0886966685       23.8121823568       12.2254828962
  H       -10.7112848251       23.9342881879       13.8765705044
  N        13.0345424569        8.8284875023       15.1158914410
  H        13.2084819001        8.3577588089       14.2072618289
  H        12.8876207994        8.0690624500       15.7789608319
  H        13.8910309661        9.3141817320       15.3805088760
  N         8.5176914788        0.6298214266       13.4689213939
  H         8.8117219915        1.6243381495       13.6892653842
  H         8.2306381753        0.6382704197       12.4531123225
  H         7.7524463461        0.2815352528       14.0406255561
  H         9.3768469012        0.0335564598       13.6307674838
  N        14.4916025706        1.0582473012       16.1079259011
  H        15.3249438312        0.8914722752       15.5424518008
  H        14.8048444648        1.3241320414       17.0405347824
  H       -10.1830810425       25.2337758893       12.8802161112
  H        14.0580563704        1.8943830158       15.6533686918
  N        10.9365974801        0.6391547553       10.7609478265
  H       -13.9776933173       25.3199675083       11.0361620393
  H        11.6851363999        0.1696988715       10.2419956726
  H        11.4023599159        1.0733919341       11.6059435020
  H        10.5423413698        1.4531783039       10.2032664837
  N        16.3113910833        3.9460817501       22.1982095828
  H        16.6619666804        4.7140682098       21.4839335599
  H        15.6245259105        3.3565982874       21.7191901044
  H        15.8596901361        4.3800946248       23.0061786374
  H        17.0919989145        3.3650955647       22.5099095956
  P        11.9105112972        6.7149812916       12.6163247941
  O        11.2300135244        6.8376722271       13.9829707553
  O        10.8836528320        7.3674962571       11.5205944813
  O        11.9795178681        5.2510211612       12.1287918922
  O        13.2317567726        7.4768355334       12.5345308664
  H        11.3235071408        5.5974507429       14.7330763179
  P        13.4022043948        2.3767626620       13.2101641984
  O        14.4430842512        1.2737646320       13.1305250082
  O        13.7051731848        3.3722070664       11.9635392564
  O        13.4675809976        3.1735825286       14.5145050026
  O        11.9508439685        1.8442660112       12.9787734340
  H        13.0779857100        4.2052608888       12.0163274184
