192
Lattice="11.3580000000        0.0000000000        0.0000000000       -5.1479508240       11.4708859829        0.0000000000        0.0000000000        0.0000000000       29.5270312000" Properties=species:S:1:pos:R:3 pbc="T T F"
Ca         9.2970083613       1.4330331619       2.7722766331
Ca         2.3410625157       4.2949379501       9.5572826234
Ca        -0.5178199913       4.2973045614      13.7165682972
Ca         0.7816523051       1.4306849386       6.9957213290
S          2.3111123196       4.3174736355       1.8771505621
S          9.3047292163       1.4255004296       9.3573251299
S          0.7520227004       1.4047938827      14.6500103549
S         -0.5041324377       4.2966391007       7.2052629579
O          7.5909812689       3.1562560527       2.9237656173
O          8.8585197516       0.2732779715      10.2054741977
O          1.1801881280       2.5396907149      13.6049240829
O         -0.0627979453       5.4514413789       6.3574925248
O          2.7434683890       5.4457917614       2.9232086486
O          9.7434167240       2.5820926536      10.2043891494
O          6.0252244372       0.2774773206      13.6199812335
O         -0.9517151853       3.1459823943       6.3562114845
O          9.0238817869       3.6517812255       0.8861787398
O         10.4283167985       0.9035685899       8.5299229152
O         -0.2441950907       2.0353050939      15.6257025586
O         -1.6268824769       4.8168551156       8.0304863581
O          1.3118370972       4.9500919382       0.8861515539
O          8.1799061578       1.9422921436       8.5344200996
O          7.4714634337       0.8304143528      15.6256536517
O          0.6189934106       3.7733119388       8.0321792592
O         -0.5523518596       2.8066802374       3.7026295629
O         -1.9865199845       5.5187378741      11.0419371913
O          9.3079699129       2.9069656748      12.8694218689
O         10.7782360960       0.2170359159       5.5156023992
O          7.7836941172       0.0641724590       3.7010232015
O          0.9689262602       3.0857918422      11.0415177626
O          0.9599672535       5.6995099630      12.8086158648
O          7.8155534413       2.6517546274       5.5149066987
H          0.3415114867       3.0587519849       3.3353548321
H          7.1128409827       0.0929090299      10.6736117815
H          8.4081141727       2.6604581438      13.2293529597
H          1.6680985384       5.6459117314       5.8832013282
H         -1.3619254582       5.5370371160       3.3306722146
H          0.1207352001       2.7769472053      10.6625048973
H         10.1174812987       0.1884199203      13.2259296433
H          8.6670240066       2.9609683059       5.8848524444
H         -0.5611430832       3.0443728087       4.6480679397
H         -2.0594204567       5.9170308634      11.9479435220
H          9.3228793164       2.6609364866      11.9264125264
H         10.8487617919      -0.1523537554       4.5985946325
H          7.7952602214      -0.1746073442       4.6460787730
H          1.0448419614       2.6849763026      11.9455973772
H          0.9683735010       5.9203339973      11.8578435564
H          7.7469529577       3.0206141233       4.5975103972
Ca         3.6213641169       1.4342791937       2.7811217571
Ca         8.0154331166       4.2953403807       9.5622127576
Ca         5.1641382042       4.3005814804      13.7185532020
Ca         6.4652289743       1.4287044722       6.9956321339
S          8.0236972933       4.2836850044       1.8772270787
S          3.6251494144       1.4281567022       9.3539488639
S          6.4476998017       1.4240209325      14.6542417602
S          5.1835753887       4.2984566016       7.1814089395
O          1.8974695100       3.1709951052       2.9173435729
O          3.1763273265       0.2767408015      10.2018898976
O          6.8589315187       2.5509621377      13.5980219695
O          5.6044068768       5.4398591738       6.3033529047
O          8.4401924584       5.4306125437       2.9174280581
O          4.0644216291       2.5827992263      10.2035060753
O          0.3224897425       0.2739757586      13.6063450548
O          4.7314519695       3.1346388103       6.3531021762
O          3.3099150965       3.7096564175       0.8855064299
O          4.7496510981       0.9054399338       8.5286166880
O          5.4354089846       2.0387343203      15.6256095637
O          4.0670059337       4.8148000609       8.0182056969
O          7.0266020127       4.8924184344       0.8854832525
O          2.5013694906       1.9471108055       8.5308037632
O          1.7493593396       0.7607242881      15.6254135201
O          6.3247307040       3.8016071524       7.9996456413
O          5.1352694040       2.8212195246       3.6893838663
O          3.6909953002       5.5176969508      11.0422558338
O          3.6296636007       2.9066030701      12.8694271907
O          5.0991038457       0.2185545600       5.5119888356
O          2.1039323502       0.0644401530       3.6987662326
O          6.6452168263       3.0850343505      11.0414924769
O          6.7027852242       5.6936821432      12.8697819724
O          2.1360129657       2.6516347360       5.5131959309
H          6.0343876118       3.0613922554       3.3268057226
H          1.4316264479       0.0990826602      10.6751417037
H          2.7323704228       2.6578408471      13.2315099047
H          7.3489966864       5.6398787847       5.8745002693
H          4.2964112345       5.5393046189       3.3084997662
H          5.7969785950       2.7738509447      10.6646867782
H          4.4722744839       0.1821938080      13.2093688910
H          2.9899271697       2.9595460781       5.8789448647
H          5.1332908910       3.0372380929       4.6402698164
H          3.6015806757       5.8988774536      11.9549374515
H          3.6433520525       2.6591615208      11.9270306426
H          5.1791435984      -0.1665656015       4.6024375800
H          2.1135325893      -0.1704939746       4.6451836518
H          6.7219351056       2.6863932962      11.9472409737
H          6.7004037920       5.9196969624      11.9214067964
H          2.0564660771       3.0308911452       4.6008939365
Ca         1.0479758441       7.1704061381       2.7794425154
Ca         5.4417216316      10.0289458987       9.5530092098
Ca         2.5812478364      10.0116948622      13.7453624648
Ca         3.8896791248       7.1637588711       6.9888389611
S          5.4302158324      10.0619949799       1.8750169204
S          1.0500276569       7.1675584868       9.3494814296
S          3.8559462566       7.1353383770      14.6482748764
S          2.6060325852      10.0328185792       7.1778191615
O         -0.6585637526       8.8921043961       2.9230206816
O          0.6006159522       6.0149352462      10.1958674336
O          4.2858886089       8.2708495402      13.6055569781
O          3.0458708998      11.2010956625       6.3490286746
O          5.8557606260      11.1875558230       2.9257350844
O          1.4895322972       8.3188825354      10.2025572694
O         -2.2040054214       6.0519126723      13.6010145729
O          2.1610513664       8.8984546816       6.3041871157
O          0.7718737701       9.3881000851       0.8861072262
O          2.1741709053       6.6439012122       8.5248078522
O          2.8606693181       7.7716470134      15.6255817626
O          1.4884744884      10.5409773975       8.0181821722
O          4.4249210968      10.6898701204       0.8861774639
O         -0.0734991436       7.6885912156       8.5256807864
O         -0.7780567401       6.5719717739      15.6257122805
O          3.7336693821       9.4996276528       7.9917012207
O          2.5710796516       8.5661397199       3.6722462445
O          1.1141425441      11.2524835868      11.0431525204
O          1.0581153617       8.6415962052      12.8654340449
O          2.5214305618       5.9523185225       5.5145931329
O         -0.4667435305       5.7849269495       3.6977281278
O          4.0740401004       8.8219598836      11.0420544357
O          4.0636753554      11.4367750906      12.8695283415
O         -0.4372965775       8.3856309312       5.5135452546
H          3.4696606113       8.8052213327       3.3070490466
H         -1.1417258383       5.8311910232      10.6596891864
H          0.1532421762       8.4115131464      13.2276037875
H          4.7742051930      11.3860313904       5.8813775807
H          1.7434279596      11.2789091030       3.3331521692
H          3.2235845750       8.5156583254      10.6661165590
H          1.8547472824       5.9307105883      13.1817841564
H          0.4178497576       8.6939250365       5.8760266221
H          2.5632670774       8.8057174214       4.6171369591
H          1.0393822387      11.6258485887      11.9600403491
H          1.0688635107       8.3979342770      11.9221555483
H          2.5944247071       5.5759953661       4.6008329299
H         -0.4594440007       5.5485393267       4.6433185842
H          4.1495996729       8.4227679592      11.9469856061
H          4.0722833937      11.6416113946      11.9156692092
H         -0.5113745921       8.7562249652       4.5974749335
Ca         6.7251884360       7.1675968396       2.7907413991
Ca        -0.2391645207      10.0310497722       9.5548502150
Ca        -3.0972625412      10.0434607316      13.7231663212
Ca        -1.7924621794       7.1657580238       6.9916878849
S         -0.2270423067      10.0202583154       1.8764725689
S          6.7297705248       7.1618207131       9.3567959700
S         -1.7943172886       7.1802217514      14.6565660592
S         -3.0725498420      10.0346364086       7.1766983109
O          5.0179284539       8.9148683702       2.9130703990
O          6.2853252697       6.0105848956      10.2066631401
O         -1.3749710944       8.3256501726      13.6203424661
O         -2.6332416252      11.2030071272       6.3475432953
O          0.1873841101      11.1666931209       2.9172655519
O          7.1681225367       8.3186924412      10.2039906142
O          3.4250472869       6.0058138176      13.6042893321
O         -3.5183916588       8.8995996604       6.3038333447
O          6.4293494173       9.4566882152       0.8853656816
O          7.8529204695       6.6434944593       8.5277971274
O         -2.8166085533       7.7788636530      15.6256447516
O         -4.1898264279      10.5414766289       8.0179727325
O         -1.2262039291      10.6284638915       0.8854985884
O          5.6041315671       7.6764398041       8.5327674051
O          4.8523169712       6.4940948576      15.6254240798
O         -1.9440319680       9.5019829232       7.9893695548
O         -3.1093665153       8.5662546324       3.6720456352
O         -4.5649906996      11.2508651117      11.0428283733
O          6.7351627492       8.6424880033      12.8689124826
O          8.2021955161       5.9529621796       5.5111717592
O          5.1959896767       5.7746791057       3.6720245425
O         -1.6049603632       8.8202650429      11.0416930063
O         -1.5721863227      11.4177749275      12.8359407674
O          5.2425712621       8.3860956017       5.5097415757
H         -2.2084193348       8.7982474831       3.3089597764
H          4.5407577033       5.8350975034      10.6748918854
H          5.8390220825       8.3907490231      13.2314393129
H         -0.9025239490      11.3824278302       5.8795837968
H         -3.9400612533      11.2887187650       3.3340096972
H         -2.4558918690       8.5071005558      10.6728562172
H          7.6028717579       5.9347679043      13.2318013130
H          6.0951425086       8.7012151399       5.8728154820
H         -3.1171896985       8.8074029257       4.6168333524
H         -4.6554892980      11.6347817109      11.9539127028
H          6.7470867936       8.4006332128      11.9248325770
H          8.2864039511       5.5684505613       4.6014799741
