96
Lattice="12.7684200000        0.0000000000        0.0000000000        0.0000000000       14.1137400000        0.0000000000        0.0000000000        0.0000000000       20.9084508000" Properties=species:S:1:pos:R:3 pbc="T T F"
Ca         2.2670933241       0.0210068755       2.2519996796
Ca         4.1983170627      -0.0183329718       5.6654911256
Ca         5.4586924281       3.5258797257       2.2578169091
Ca         1.0042711572       3.5165720970       5.6620224274
S          1.1019437786      -0.0067218704       5.7319262084
S          5.3617811018       0.0195826420       2.1746439783
S          4.2926967316       3.5174863620       5.7460470337
S          2.1697385653       3.5280160342       2.1741578882
O          0.1911149034       5.8473679013       5.7145746236
O          6.2702519088       5.8654584323       2.1960920281
O          6.2672532155       1.2231993574       2.1494907750
O          0.1962718669       1.1952960368       5.7214881003
O          3.3906837554       2.3110765336       5.7711959783
O          3.0744567996       2.3236106467       2.1492181107
O          3.0821537986       4.7243379244       2.2036529857
O          3.3817043279       4.7157713995       5.7167664820
O          2.0352765276      -0.0100128881       6.8761247914
O          4.4221004037      -0.0025959176       1.0356713367
O          1.9643289345      -0.0181326344       4.4939298730
O          4.5044841010       0.0406338313       3.4158979560
O          5.2327227889       3.5403505426       6.8846728571
O          1.2295733890       3.5508901978       1.0357021830
O          5.1519900561       3.5041613364       4.5041689662
O          1.3121963542       3.5066129228       3.4155828005
Ca         2.2714206265       7.0594656433       2.2588293451
Ca         4.1917069789       7.0546170038       5.6651480265
Ca         5.4624953582      10.6012735281       2.2684093998
Ca         1.0002265694      10.5952976365       5.6669567925
S          1.0982278452       7.0478269571       5.7328327223
S          5.3650410829       7.0683542456       2.1871641644
S          4.2944120955      10.5901348893       5.7725563933
S          2.1728371294      10.5935625798       2.1872194773
O          0.1849814576      12.9169376799       5.7229866767
O          6.2739516525      12.9365196446       2.2036420886
O          6.2725961662       8.2685647695       2.2048678749
O          0.1936040370       8.2511503199       5.7221373878
O          3.3853659383       9.3912556393       5.7743487450
O          3.0806537322       9.3935751242       2.2047851630
O          3.0786353315      11.7961296425       2.1954857314
O          3.3880143775      11.7931905027       5.7925980651
O          2.0314400750       7.0342052232       6.8787879321
O          4.4311567332       7.0802527090       1.0415074178
O          1.9667609813       7.0556445367       4.4998530115
O          4.4979847475       7.0598709000       3.4209181314
O          5.2385283511      10.5804365134       6.9072539563
O          1.2388585742      10.5820700084       1.0417689798
O          5.1430253450      10.6038796290       4.5214174511
O          1.3061935565      10.6014809868       3.4213768843
Ca         8.6507497748       0.0215332149       2.2571003200
Ca        10.5803016675       0.0269264655       5.6637092050
Ca        11.8430607112       3.5272561823       2.2577708364
Ca         7.3852573838       3.5185938546       5.6656180365
S          7.4865927939       0.0085446392       5.7487437651
S         11.7456490662       0.0199948280       2.1745541995
S         10.6782683703       3.5378654059       5.7481613760
S          8.5536305865       3.5281511768       2.1743990041
O          6.5837788188       5.8555052154       5.7726095398
O         12.6546125799       5.8652852050       2.1963937599
O         12.6507533220       1.2240864466       2.1497397301
O          6.5699262184       1.1995013360       5.7775072897
