 DBCSR| CPU Multiplication driver                                           XSMM (U)
 DBCSR| Multrec recursion limit                                              512 (U)
 DBCSR| Multiplication stack size                                           1000 (D)
 DBCSR| Maximum elements for images                                    UNLIMITED (U)
 DBCSR| Multiplicative factor virtual images                                   1 (U)
 DBCSR| Use multiplication densification                                       T (D)
 DBCSR| Multiplication size stacks                                             3 (U)
 DBCSR| Use memory pool for CPU allocation                                     F (U)
 DBCSR| Number of 3D layers                                               SINGLE (U)
 DBCSR| Use MPI memory allocation                                              F (U)
 DBCSR| Use RMA algorithm                                                      F (U)
 DBCSR| Use Communication thread                                               T (U)
 DBCSR| Communication thread load                                             30 (D)
 DBCSR| MPI: My process id                                                     0
 DBCSR| MPI: Number of processes                                               1
 DBCSR| OMP: Current number of threads                                        16
 DBCSR| OMP: Max number of threads                                            16
 DBCSR| Split modifier for TAS multiplication algorithm                  1.0E+00 (U)


  **** **** ******  **  PROGRAM STARTED AT               2026-02-05 16:31:40.730
 ***** ** ***  *** **   PROGRAM STARTED ON                          0a12ba6dd821
 **    ****   ******    PROGRAM STARTED BY                             <unknown>
 ***** **    ** ** **   PROGRAM PROCESS ID                                   678
  **** **  *******  **  PROGRAM STARTED IN                             /mnt/cp2k

 CP2K| version string:                 CP2K version 2026.1 (Development Version)
 CP2K| source code revision number:                                   4e96ea1a00
 CP2K| cp2kflags: omp libint fftw3 libxc elpa parallel scalapack mpi_f08 cosma a
 CP2K|            ce deepmd xsmm dbcsr_acc plumed2 spglib libdftd4 mctc-lib tbli
 CP2K|            ite sirius libvori libbqb libtorch mimic offload_cuda libvdwxc
 CP2K|            c hdf5 trexio libsmeagol greenx
 CP2K| is freely available from                            https://www.cp2k.org/
 CP2K| Program compiled at                                   2026-01-16 05:48:39
 CP2K| Program compiled on                                                      
 CP2K| Program compiled for                                               x86_64
 CP2K| Data directory path                     /opt/cp2k/install/share/cp2k/data
 CP2K| Input file name                                               geo_opt.inp

 GLOBAL| Force Environment number                                              1
 GLOBAL| Basis set file name                                    BASIS_MOLOPT_UZH
 GLOBAL| Potential file name                                       POTENTIAL_UZH
 GLOBAL| MM Potential file name                                     MM_POTENTIAL
 GLOBAL| Coordinate file name                optimized_structure_extxyz_wrap.xyz
 GLOBAL| Method name                                                        CP2K
 GLOBAL| Project name                                     gypsum_slab_nh4_geoopt
 GLOBAL| Run type                                                        GEO_OPT
 GLOBAL| FFT library                                                       FFTW3
 GLOBAL| Diagonalization library                                            ELPA
 GLOBAL| Cholesky decomposition library                                ScaLAPACK
 GLOBAL| DGEMM library                                                      BLAS
 GLOBAL| Minimum number of eigenvectors for ELPA usage                        16
 GLOBAL| Orthonormality check for eigenvectors                          DISABLED
 GLOBAL| Matrix multiplication library                                     COSMA
 GLOBAL| All-to-all communication in single precision                          F
 GLOBAL| FFTs using library dependent lengths                                  T
 GLOBAL| Grid backend                                                       AUTO
 GLOBAL| Global print level                                                  LOW
 GLOBAL| MPI I/O enabled                                                       T
 GLOBAL| Total number of message passing processes                             1
 GLOBAL| Number of distributed systems (nodes)                                 1
 GLOBAL| Number of threads for this process                                   16
 GLOBAL| This output is from process                                           0
 GLOBAL| OpenMP stack size per thread (OMP_STACKSIZE)                        16M
 GLOBAL| CPU model name                           Intel(R) Core(TM) Ultra 7 265K
 GLOBAL| CPUID                                                              1002

 MEMORY| system memory details [Kb]
 MEMORY|                        rank 0           min           max       average
 MEMORY| MemTotal             32486564      32486564      32486564      32486564
 MEMORY| MemFree              11066672      11066672      11066672      11066672
 MEMORY| Buffers                112772        112772        112772        112772
 MEMORY| Cached                2322924       2322924       2322924       2322924
 MEMORY| Slab                   274328        274328        274328        274328
 MEMORY| SReclaimable           147884        147884        147884        147884
 MEMORY| MemLikelyFree        13650252      13650252      13650252      13650252


 GENERATE|  Preliminary Number of Bonds generated:                             0
 GENERATE|  Achieved consistency in connectivity generation.

 *******************************************************************************
 *******************************************************************************
 **                                                                           **
 **     #####                         ##              ##                      **
 **    ##   ##            ##          ##              ##                      **
 **   ##     ##                       ##            ######                    **
 **   ##     ##  ##   ##  ##   #####  ##  ##   ####   ##    #####    #####    **
 **   ##     ##  ##   ##  ##  ##      ## ##   ##      ##   ##   ##  ##   ##   **
 **   ##  ## ##  ##   ##  ##  ##      ####     ###    ##   ######   ######    **
 **    ##  ###   ##   ##  ##  ##      ## ##      ##   ##   ##       ##        **
 **     #######   #####   ##   #####  ##  ##  ####    ##    #####   ##        **
 **           ##                                                    ##        **
 **                                                                           **
 **                                                ... make the atoms dance   **
 **                                                                           **
 **            Copyright (C) by CP2K developers group (2000-2026)             **
 **                      J. Chem. Phys. 152, 194103 (2020)                    **
 **                                                                           **
 *******************************************************************************


 TOTAL NUMBERS AND MAXIMUM NUMBERS

  Total number of            - Atomic kinds:                                   6
                             - Atoms:                                        200
                             - Shell sets:                                   200
                             - Shells:                                      1083
                             - Primitive Cartesian functions:                998
                             - Cartesian basis functions:                   2883
                             - Spherical basis functions:                   2683

  Maximum angular momentum of- Orbital basis functions:                        2
                             - Local part of the GTH pseudopotential:          2
                             - Non-local part of the GTH pseudopotential:      3


 SCF PARAMETERS         Density guess:                                    ATOMIC
                        --------------------------------------------------------
                        max_scf:                                             150
                        max_scf_history:                                       0
                        max_diis:                                              4
                        --------------------------------------------------------
                        eps_scf:                                        1.00E-06
                        eps_scf_history:                                0.00E+00
                        eps_diis:                                       0.00E+00
                        eps_eigval:                                     1.00E-05
                        --------------------------------------------------------
                        level_shift [a.u.]:                             0.000000
                        --------------------------------------------------------
                        Outer loop SCF in use 
                        No variables optimised in outer loop
                        eps_scf                                         1.00E-06
                        max_scf                                               30
                        No outer loop optimization
                        step_size                                       5.00E-01

 BFGS| Use rational function optimization for step estimation:                NO
 BFGS| Use model Hessian for initial guess:                                  YES
 BFGS| Restart Hessian:                                                       NO
 BFGS| Trust radius:                                                       0.472

 *******************************************************************************
 ***                     STARTING GEOMETRY OPTIMIZATION                      ***
 ***                                   BFGS                                  ***
 *******************************************************************************

 Extrapolation method: initial_guess

 Spin 1

 Number of electrons:                                                        460
 Number of occupied orbitals:                                                460
 Number of molecular orbitals:                                               460

 Spin 2

 Number of electrons:                                                        460
 Number of occupied orbitals:                                                460
 Number of molecular orbitals:                                               460

 Number of orbital functions:                                               2683
 Number of independent orbital functions:                                   2683


 SCF WAVEFUNCTION OPTIMIZATION

  ----------------------------------- OT ---------------------------------------
  Minimizer      : DIIS                : direct inversion
                                         in the iterative subspace
                                         using   7 DIIS vectors
                                         safer DIIS on
  Preconditioner : FULL_SINGLE_INVERSE : inversion of 
                                         H + eS - 2*(Sc)(c^T*H*c+const)(Sc)^T
  Precond_solver : INVERSE_UPDATE
  stepsize       :    0.10000000                  energy_gap     :    0.10000000
  eps_taylor     :   0.10000E-15                  max_taylor     :             4
  ----------------------------------- OT ---------------------------------------

  Step     Update method      Time    Convergence         Total energy    Change
  ------------------------------------------------------------------------------
     1 OT DIIS     0.10E+00   13.8     0.02183245     -2213.0207479984 -2.21E+03
     2 OT DIIS     0.10E+00   12.4     0.01356098     -2259.1243914175 -4.61E+01
     3 OT DIIS     0.10E+00   12.2     0.00659812     -2274.8618787052 -1.57E+01
     4 OT DIIS     0.10E+00   12.3     0.00515490     -2291.6121468339 -1.68E+01
     5 OT DIIS     0.10E+00   12.3     0.00406076     -2298.5835634886 -6.97E+00
     6 OT DIIS     0.10E+00   12.3     0.00306732     -2311.7459435275 -1.32E+01
     7 OT DIIS     0.10E+00   12.3     0.00249006     -2317.6271741389 -5.88E+00
     8 OT DIIS     0.10E+00   12.3     0.00208815     -2323.8830223261 -6.26E+00
     9 OT DIIS     0.10E+00   12.2     0.00171493     -2328.6516656984 -4.77E+00
    10 OT DIIS     0.10E+00   12.1     0.00145632     -2332.2828670131 -3.63E+00
    11 OT DIIS     0.10E+00   12.2     0.00122680     -2335.3264122806 -3.04E+00
    12 OT DIIS     0.10E+00   12.2     0.00111491     -2336.5370648063 -1.21E+00
    13 OT DIIS     0.10E+00   12.2     0.00095636     -2338.2986366142 -1.76E+00
    14 OT DIIS     0.10E+00   12.2     0.00081905     -2339.6538883861 -1.36E+00
    15 OT DIIS     0.10E+00   12.2     0.00076343     -2340.2582127697 -6.04E-01
    16 OT DIIS     0.10E+00   12.3     0.00066586     -2341.1179568024 -8.60E-01
    17 OT DIIS     0.10E+00   12.2     0.00060308     -2341.6777675455 -5.60E-01
    18 OT DIIS     0.10E+00   12.2     0.00055499     -2342.1334205221 -4.56E-01
    19 OT DIIS     0.10E+00   12.2     0.00051766     -2342.4424072729 -3.09E-01
    20 OT DIIS     0.10E+00   12.4     0.00044840     -2342.9397272118 -4.97E-01
    21 OT DIIS     0.10E+00   12.2     0.00037079     -2343.4074936112 -4.68E-01
    22 OT DIIS     0.10E+00   12.0     0.00031967     -2343.6917995086 -2.84E-01
    23 OT DIIS     0.10E+00   12.1     0.00031222     -2343.7514545512 -5.97E-02
    24 OT DIIS     0.10E+00   12.1     0.00029348     -2343.8480071269 -9.66E-02
    25 OT DIIS     0.10E+00   11.9     0.00027094     -2344.0010313476 -1.53E-01
    26 OT DIIS     0.10E+00   12.0     0.00025555     -2344.0653043034 -6.43E-02
    27 OT DIIS     0.10E+00   11.9     0.00023429     -2344.1775648552 -1.12E-01
    28 OT DIIS     0.10E+00   12.1     0.00022756     -2344.2228657618 -4.53E-02
    29 OT DIIS     0.10E+00   12.4     0.00021335     -2344.3220380184 -9.92E-02
    30 OT DIIS     0.10E+00   12.0     0.00020956     -2344.3580878784 -3.60E-02
    31 OT SD       0.10E+00   12.1     0.00020895     -2344.3778942264 -1.98E-02
    32 OT DIIS     0.10E+00   11.9     0.00020689     -2344.3886137426 -1.07E-02
    33 OT DIIS     0.10E+00   11.9     0.00019516     -2344.4790998059 -9.05E-02
    34 OT DIIS     0.10E+00   11.9     0.00019214     -2344.5119199442 -3.28E-02
    35 OT DIIS     0.10E+00   11.9     0.00018501     -2344.5684238125 -5.65E-02
    36 OT DIIS     0.10E+00   11.9     0.00016854     -2344.6575066144 -8.91E-02
    37 OT DIIS     0.10E+00   11.9     0.00016805     -2344.6928528743 -3.53E-02
    38 OT DIIS     0.10E+00   11.9     0.00014403     -2344.7585518209 -6.57E-02
    39 OT DIIS     0.10E+00   11.9     0.00012665     -2344.7993611163 -4.08E-02
    40 OT DIIS     0.10E+00   11.9     0.00011039     -2344.8392863386 -3.99E-02
    41 OT DIIS     0.10E+00   12.1     0.00009727     -2344.8567752935 -1.75E-02
    42 OT SD       0.10E+00   12.2     0.00009021     -2344.8783782313 -2.16E-02
    43 OT DIIS     0.10E+00   12.2     0.00008664     -2344.8803445056 -1.97E-03
    44 OT DIIS     0.10E+00   12.0     0.00008314     -2344.8903369158 -9.99E-03
    45 OT DIIS     0.10E+00   11.8     0.00006682     -2344.9064098485 -1.61E-02
    46 OT DIIS     0.10E+00   11.9     0.00005997     -2344.9165610945 -1.02E-02
    47 OT DIIS     0.10E+00   11.9     0.00005405     -2344.9239645583 -7.40E-03
    48 OT DIIS     0.10E+00   11.9     0.00004796     -2344.9309656834 -7.00E-03
    49 OT DIIS     0.10E+00   11.9     0.00004236     -2344.9369172300 -5.95E-03
    50 OT DIIS     0.10E+00   11.9     0.00003577     -2344.9433009617 -6.38E-03
    51 OT DIIS     0.10E+00   11.9     0.00003337     -2344.9448157186 -1.51E-03
    52 OT DIIS     0.10E+00   11.9     0.00003139     -2344.9468748196 -2.06E-03
    53 OT DIIS     0.10E+00   11.9     0.00002881     -2344.9491808238 -2.31E-03
    54 OT DIIS     0.10E+00   12.1     0.00002719     -2344.9504233143 -1.24E-03
    55 OT DIIS     0.10E+00   12.1     0.00002386     -2344.9526552607 -2.23E-03
    56 OT DIIS     0.10E+00   12.1     0.00002096     -2344.9550396606 -2.38E-03
    57 OT DIIS     0.10E+00   11.9     0.00001978     -2344.9560752904 -1.04E-03
    58 OT DIIS     0.10E+00   11.9     0.00001823     -2344.9572435844 -1.17E-03
    59 OT DIIS     0.10E+00   11.9     0.00001678     -2344.9581583384 -9.15E-04
    60 OT DIIS     0.10E+00   11.8     0.00001533     -2344.9590694132 -9.11E-04
    61 OT DIIS     0.10E+00   11.9     0.00001481     -2344.9593776224 -3.08E-04
    62 OT DIIS     0.10E+00   11.9     0.00001431     -2344.9596996098 -3.22E-04
    63 OT DIIS     0.10E+00   11.9     0.00001339     -2344.9603745839 -6.75E-04
    64 OT DIIS     0.10E+00   12.0     0.00001197     -2344.9615343623 -1.16E-03
    65 OT DIIS     0.10E+00   11.9     0.00001116     -2344.9621645428 -6.30E-04
    66 OT DIIS     0.10E+00   11.9     0.00001072     -2344.9625103171 -3.46E-04
    67 OT DIIS     0.10E+00   11.9     0.00000978     -2344.9631333682 -6.23E-04
    68 OT DIIS     0.10E+00   11.9     0.00000894     -2344.9637262724 -5.93E-04
    69 OT DIIS     0.10E+00   11.9     0.00000838     -2344.9641313750 -4.05E-04
    70 OT DIIS     0.10E+00   11.9     0.00000807     -2344.9643235567 -1.92E-04
    71 OT DIIS     0.10E+00   11.9     0.00000743     -2344.9647030450 -3.79E-04
    72 OT DIIS     0.10E+00   11.9     0.00000704     -2344.9649694939 -2.66E-04
    73 OT DIIS     0.10E+00   11.9     0.00000677     -2344.9651614663 -1.92E-04
    74 OT DIIS     0.10E+00   11.9     0.00000659     -2344.9652759412 -1.14E-04
    75 OT DIIS     0.10E+00   11.8     0.00000633     -2344.9654461877 -1.70E-04
    76 OT DIIS     0.10E+00   11.8     0.00000615     -2344.9655701722 -1.24E-04
    77 OT DIIS     0.10E+00   11.9     0.00000594     -2344.9657103138 -1.40E-04
    78 OT DIIS     0.10E+00   11.9     0.00000577     -2344.9658158069 -1.05E-04
    79 OT DIIS     0.10E+00   11.9     0.00000560     -2344.9659227114 -1.07E-04
    80 OT DIIS     0.10E+00   11.9     0.00000527     -2344.9661332528 -2.11E-04
    81 OT DIIS     0.10E+00   11.9     0.00000495     -2344.9663660601 -2.33E-04
    82 OT DIIS     0.10E+00   11.9     0.00000473     -2344.9665170286 -1.51E-04
    83 OT DIIS     0.10E+00   11.9     0.00000450     -2344.9666674975 -1.50E-04
    84 OT DIIS     0.10E+00   12.1     0.00000427     -2344.9668007193 -1.33E-04
    85 OT DIIS     0.10E+00   12.0     0.00000401     -2344.9669473257 -1.47E-04
    86 OT DIIS     0.10E+00   11.9     0.00000389     -2344.9670255358 -7.82E-05
    87 OT DIIS     0.10E+00   11.9     0.00000379     -2344.9670840480 -5.85E-05
    88 OT DIIS     0.10E+00   11.9     0.00000362     -2344.9671724823 -8.84E-05
    89 OT DIIS     0.10E+00   11.9     0.00000338     -2344.9673193371 -1.47E-04
    90 OT DIIS     0.10E+00   11.9     0.00000329     -2344.9673847351 -6.54E-05
    91 OT DIIS     0.10E+00   11.9     0.00000317     -2344.9674629170 -7.82E-05
    92 OT DIIS     0.10E+00   11.9     0.00000305     -2344.9675285612 -6.56E-05
    93 OT DIIS     0.10E+00   11.9     0.00000293     -2344.9675909432 -6.24E-05
    94 OT DIIS     0.10E+00   12.1     0.00000286     -2344.9676330732 -4.21E-05
    95 OT DIIS     0.10E+00   11.9     0.00000281     -2344.9676597767 -2.67E-05
    96 OT DIIS     0.10E+00   12.0     0.00000268     -2344.9677299094 -7.01E-05
    97 OT DIIS     0.10E+00   11.9     0.00000254     -2344.9678160864 -8.62E-05
    98 OT DIIS     0.10E+00   11.9     0.00000247     -2344.9678573423 -4.13E-05
    99 OT DIIS     0.10E+00   12.0     0.00000237     -2344.9679068955 -4.96E-05
   100 OT DIIS     0.10E+00   11.9     0.00000229     -2344.9679475706 -4.07E-05
   101 OT DIIS     0.10E+00   11.9     0.00000223     -2344.9679781160 -3.05E-05
   102 OT DIIS     0.10E+00   11.9     0.00000213     -2344.9680258084 -4.77E-05
   103 OT DIIS     0.10E+00   11.9     0.00000206     -2344.9680560942 -3.03E-05
   104 OT DIIS     0.10E+00   11.9     0.00000195     -2344.9681124835 -5.64E-05
   105 OT DIIS     0.10E+00   11.9     0.00000182     -2344.9681741386 -6.17E-05
   106 OT DIIS     0.10E+00   11.9     0.00000177     -2344.9682035078 -2.94E-05
   107 OT DIIS     0.10E+00   12.0     0.00000169     -2344.9682382139 -3.47E-05
   108 OT DIIS     0.10E+00   12.0     0.00000161     -2344.9682759622 -3.77E-05
   109 OT DIIS     0.10E+00   11.9     0.00000156     -2344.9682956847 -1.97E-05
   110 OT DIIS     0.10E+00   11.9     0.00000149     -2344.9683260524 -3.04E-05
   111 OT DIIS     0.10E+00   11.9     0.00000145     -2344.9683421482 -1.61E-05
   112 OT DIIS     0.10E+00   11.9     0.00000143     -2344.9683523751 -1.02E-05
   113 OT DIIS     0.10E+00   11.9     0.00000136     -2344.9684013019 -4.89E-05
   114 OT DIIS     0.10E+00   11.9     0.00000135     -2344.9684034447 -2.14E-06
   115 OT DIIS     0.10E+00   11.9     0.00000131     -2344.9684202742 -1.68E-05
   116 OT DIIS     0.10E+00   11.9     0.00000127     -2344.9684337834 -1.35E-05
   117 OT DIIS     0.10E+00   12.1     0.00000124     -2344.9684498020 -1.60E-05
   118 OT DIIS     0.10E+00   11.9     0.00000123     -2344.9684570967 -7.29E-06
   119 OT DIIS     0.10E+00   11.9     0.00000121     -2344.9684604557 -3.36E-06
   120 OT DIIS     0.10E+00   11.9     0.00000117     -2344.9684847020 -2.42E-05
   121 OT DIIS     0.10E+00   11.9     0.00000115     -2344.9684937867 -9.08E-06
   122 OT DIIS     0.10E+00   11.9     0.00000111     -2344.9685078344 -1.40E-05
   123 OT DIIS     0.10E+00   11.9     0.00000108     -2344.9685194705 -1.16E-05
   124 OT DIIS     0.10E+00   11.9     0.00000104     -2344.9685359791 -1.65E-05
   125 OT DIIS     0.10E+00   11.9     0.00000101     -2344.9685496104 -1.36E-05
   126 OT DIIS     0.10E+00   11.9     0.00000098     -2344.9685612279 -1.16E-05

  *** SCF run converged in   126 steps ***


  Electronic density on regular grids:       -920.0000000045       -0.0000000045
  Core density on regular grids:              919.9999999996       -0.0000000004
  Total charge density on r-space grids:       -0.0000000049
  Total charge density g-space grids:          -0.0000000049

  Overlap energy of the core charge distribution:               0.00000661431564
  Self energy of the core charge distribution:              -5810.55392127042705
  Core Hamiltonian energy:                                   1568.71911112747398
  Hartree energy:                                            2385.47066501457903
  Exchange-correlation energy:                               -488.34294496053900
  Dispersion energy:                                           -0.26147775328977

  Total energy:                                             -2344.96856122788722

  outer SCF iter =    1 RMS gradient =   0.98E-06 energy =      -2344.9685612279
  outer SCF loop converged in   1 iterations or  126 steps


  Integrated spin density:                                          0.0000000000
  Integrated absolute spin density:                                 0.0000000004
  Ideal and single determinant S**2 :                    0.000000       0.000000

 ENERGY| Total FORCE_EVAL ( QS ) energy [hartree]          -2344.968565866523932

 OPT| **************************************************************************
 OPT| Step number                                                              0
 OPT| Optimization method                                                   BFGS
 OPT| Total energy [hartree]                                    -2344.9685658665
 OPT| Used time [s]                                                     1562.463
 OPT| **************************************************************************
 OPT| Estimated peak process memory [MiB]                                  11970

 --------------------------
 OPTIMIZATION STEP:      1
 --------------------------

 Extrapolation method: ASPC

 Spin 1

 Number of electrons:                                                        460
 Number of occupied orbitals:                                                460
 Number of molecular orbitals:                                               460

 Spin 2

 Number of electrons:                                                        460
 Number of occupied orbitals:                                                460
 Number of molecular orbitals:                                               460

 Number of orbital functions:                                               2683
 Number of independent orbital functions:                                   2683


 SCF WAVEFUNCTION OPTIMIZATION

  ----------------------------------- OT ---------------------------------------
  Minimizer      : DIIS                : direct inversion
                                         in the iterative subspace
                                         using   7 DIIS vectors
                                         safer DIIS on
  Preconditioner : FULL_SINGLE_INVERSE : inversion of 
                                         H + eS - 2*(Sc)(c^T*H*c+const)(Sc)^T
  Precond_solver : INVERSE_UPDATE
  stepsize       :    0.10000000                  energy_gap     :    0.10000000
  eps_taylor     :   0.10000E-15                  max_taylor     :             4
  ----------------------------------- OT ---------------------------------------

  Step     Update method      Time    Convergence         Total energy    Change
  ------------------------------------------------------------------------------


     Lanczos converged:  T threshold:   0.100E-02
     Est. extremal eigenvalues:    0.168E+02   0.130E+02
     Est. condition number :    0.129E+01
     Hotelling iter   1 1.00000000   0.294E-01       0.425   181734.453



     Lanczos converged:  T threshold:   0.100E-02
     Est. extremal eigenvalues:    0.168E+02   0.130E+02
     Est. condition number :    0.129E+01
     Hotelling iter   1 1.00000000   0.294E-01       0.367   210671.531

     1 OT DIIS     0.10E+00    9.6     0.00003099     -2344.9872448495 -2.34E+03
     2 OT DIIS     0.10E+00   12.2     0.00003036     -2344.9874795378 -2.35E-04
     3 OT DIIS     0.10E+00   12.1     0.00001777     -2344.9924396483 -4.96E-03
