 DBCSR| CPU Multiplication driver                                           XSMM (U)
 DBCSR| Multrec recursion limit                                              512 (U)
 DBCSR| Multiplication stack size                                           1000 (D)
 DBCSR| Maximum elements for images                                    UNLIMITED (U)
 DBCSR| Multiplicative factor virtual images                                   1 (U)
 DBCSR| Use multiplication densification                                       T (D)
 DBCSR| Multiplication size stacks                                             3 (U)
 DBCSR| Use memory pool for CPU allocation                                     F (U)
 DBCSR| Number of 3D layers                                               SINGLE (U)
 DBCSR| Use MPI memory allocation                                              F (U)
 DBCSR| Use RMA algorithm                                                      F (U)
 DBCSR| Use Communication thread                                               T (U)
 DBCSR| Communication thread load                                             30 (D)
 DBCSR| MPI: My process id                                                     0
 DBCSR| MPI: Number of processes                                               1
 DBCSR| OMP: Current number of threads                                        16
 DBCSR| OMP: Max number of threads                                            16
 DBCSR| Split modifier for TAS multiplication algorithm                  1.0E+00 (U)


  **** **** ******  **  PROGRAM STARTED AT               2026-02-17 18:52:14.239
 ***** ** ***  *** **   PROGRAM STARTED ON                          79063cfabe0b
 **    ****   ******    PROGRAM STARTED BY                             <unknown>
 ***** **    ** ** **   PROGRAM PROCESS ID                                   678
  **** **  *******  **  PROGRAM STARTED IN                             /mnt/cp2k

 CP2K| version string:                 CP2K version 2026.1 (Development Version)
 CP2K| source code revision number:                                   4e96ea1a00
 CP2K| cp2kflags: omp libint fftw3 libxc elpa parallel scalapack mpi_f08 cosma a
 CP2K|            ce deepmd xsmm dbcsr_acc plumed2 spglib libdftd4 mctc-lib tbli
 CP2K|            ite sirius libvori libbqb libtorch mimic offload_cuda libvdwxc
 CP2K|            c hdf5 trexio libsmeagol greenx
 CP2K| is freely available from                            https://www.cp2k.org/
 CP2K| Program compiled at                                   2026-01-16 05:48:39
 CP2K| Program compiled on                                                      
 CP2K| Program compiled for                                               x86_64
 CP2K| Data directory path                     /opt/cp2k/install/share/cp2k/data
 CP2K| Input file name                                               geo_opt.inp

 GLOBAL| Force Environment number                                              1
 GLOBAL| Basis set file name                                    BASIS_MOLOPT_UZH
 GLOBAL| Potential file name                                       POTENTIAL_UZH
 GLOBAL| MM Potential file name                                     MM_POTENTIAL
 GLOBAL| Coordinate file name                optimized_structure_extxyz_wrap.xyz
 GLOBAL| Method name                                                        CP2K
 GLOBAL| Project name                                     gypsum_slab_nh4_geoopt
 GLOBAL| Run type                                                        GEO_OPT
 GLOBAL| FFT library                                                       FFTW3
 GLOBAL| Diagonalization library                                            ELPA
 GLOBAL| Cholesky decomposition library                                ScaLAPACK
 GLOBAL| DGEMM library                                                      BLAS
 GLOBAL| Minimum number of eigenvectors for ELPA usage                        16
 GLOBAL| Orthonormality check for eigenvectors                          DISABLED
 GLOBAL| Matrix multiplication library                                     COSMA
 GLOBAL| All-to-all communication in single precision                          F
 GLOBAL| FFTs using library dependent lengths                                  T
 GLOBAL| Grid backend                                                       AUTO
 GLOBAL| Global print level                                                  LOW
 GLOBAL| MPI I/O enabled                                                       T
 GLOBAL| Total number of message passing processes                             1
 GLOBAL| Number of distributed systems (nodes)                                 1
 GLOBAL| Number of threads for this process                                   16
 GLOBAL| This output is from process                                           0
 GLOBAL| OpenMP stack size per thread (OMP_STACKSIZE)                        16M
 GLOBAL| CPU model name                           Intel(R) Core(TM) Ultra 7 265K
 GLOBAL| CPUID                                                              1002

 MEMORY| system memory details [Kb]
 MEMORY|                        rank 0           min           max       average
 MEMORY| MemTotal             45202616      45202616      45202616      45202616
 MEMORY| MemFree              43256252      43256252      43256252      43256252
 MEMORY| Buffers                 66868         66868         66868         66868
 MEMORY| Cached                 739488        739488        739488        739488
 MEMORY| Slab                   211604        211604        211604        211604
 MEMORY| SReclaimable           120536        120536        120536        120536
 MEMORY| MemLikelyFree        44183144      44183144      44183144      44183144


 GENERATE|  Preliminary Number of Bonds generated:                             0
 GENERATE|  Achieved consistency in connectivity generation.

 *******************************************************************************
 *******************************************************************************
 **                                                                           **
 **     #####                         ##              ##                      **
 **    ##   ##            ##          ##              ##                      **
 **   ##     ##                       ##            ######                    **
 **   ##     ##  ##   ##  ##   #####  ##  ##   ####   ##    #####    #####    **
 **   ##     ##  ##   ##  ##  ##      ## ##   ##      ##   ##   ##  ##   ##   **
 **   ##  ## ##  ##   ##  ##  ##      ####     ###    ##   ######   ######    **
 **    ##  ###   ##   ##  ##  ##      ## ##      ##   ##   ##       ##        **
 **     #######   #####   ##   #####  ##  ##  ####    ##    #####   ##        **
 **           ##                                                    ##        **
 **                                                                           **
 **                                                ... make the atoms dance   **
 **                                                                           **
 **            Copyright (C) by CP2K developers group (2000-2026)             **
 **                      J. Chem. Phys. 152, 194103 (2020)                    **
 **                                                                           **
 *******************************************************************************


 TOTAL NUMBERS AND MAXIMUM NUMBERS

  Total number of            - Atomic kinds:                                   6
                             - Atoms:                                        464
                             - Shell sets:                                   464
                             - Shells:                                      2483
                             - Primitive Cartesian functions:               2318
                             - Cartesian basis functions:                   6659
                             - Spherical basis functions:                   6195

  Maximum angular momentum of- Orbital basis functions:                        2
                             - Local part of the GTH pseudopotential:          2
                             - Non-local part of the GTH pseudopotential:      3


 SCF PARAMETERS         Density guess:                                    ATOMIC
                        --------------------------------------------------------
                        max_scf:                                             150
                        max_scf_history:                                       0
                        max_diis:                                              4
                        --------------------------------------------------------
                        eps_scf:                                        1.00E-06
                        eps_scf_history:                                0.00E+00
                        eps_diis:                                       0.00E+00
                        eps_eigval:                                     1.00E-05
                        --------------------------------------------------------
                        level_shift [a.u.]:                             0.000000
                        --------------------------------------------------------
                        Outer loop SCF in use 
                        No variables optimised in outer loop
                        eps_scf                                         1.00E-06
                        max_scf                                               30
                        No outer loop optimization
                        step_size                                       5.00E-01

 BFGS| Use rational function optimization for step estimation:                NO
 BFGS| Use model Hessian for initial guess:                                  YES
 BFGS| Restart Hessian:                                                       NO
 BFGS| Trust radius:                                                       0.472

 *******************************************************************************
 ***                     STARTING GEOMETRY OPTIMIZATION                      ***
 ***                                   BFGS                                  ***
 *******************************************************************************

 Extrapolation method: initial_guess

 Spin 1

 Number of electrons:                                                       1196
 Number of occupied orbitals:                                               1196
 Number of molecular orbitals:                                              1196

 Spin 2

 Number of electrons:                                                       1196
 Number of occupied orbitals:                                               1196
 Number of molecular orbitals:                                              1196

 Number of orbital functions:                                               6195
 Number of independent orbital functions:                                   6195


 SCF WAVEFUNCTION OPTIMIZATION

  ----------------------------------- OT ---------------------------------------
  Minimizer      : DIIS                : direct inversion
                                         in the iterative subspace
                                         using   7 DIIS vectors
                                         safer DIIS on
  Preconditioner : FULL_SINGLE_INVERSE : inversion of 
                                         H + eS - 2*(Sc)(c^T*H*c+const)(Sc)^T
  Precond_solver : INVERSE_UPDATE
  stepsize       :    0.10000000                  energy_gap     :    0.10000000
  eps_taylor     :   0.10000E-15                  max_taylor     :             4
  ----------------------------------- OT ---------------------------------------

  Step     Update method      Time    Convergence         Total energy    Change
  ------------------------------------------------------------------------------
     1 OT DIIS     0.10E+00  248.5     0.00903236     -6057.4076918875 -6.06E+03
     2 OT DIIS     0.10E+00   56.0     0.00639419     -6132.8522289467 -7.54E+01
     3 OT DIIS     0.10E+00   55.3     0.00479732     -6163.5143580854 -3.07E+01
     4 OT DIIS     0.10E+00   54.6     0.00362923     -6200.7630713269 -3.72E+01
     5 OT DIIS     0.10E+00   54.1     0.00289769     -6228.4362580398 -2.77E+01
     6 OT DIIS     0.10E+00   53.9     0.00217749     -6252.1070019231 -2.37E+01
     7 OT DIIS     0.10E+00   54.1     0.00163316     -6269.5347153243 -1.74E+01
     8 OT DIIS     0.10E+00   54.3     0.00121571     -6281.4258583608 -1.19E+01
     9 OT DIIS     0.10E+00   54.8     0.00097039     -6287.7694483265 -6.34E+00
    10 OT DIIS     0.10E+00   54.8     0.00073668     -6293.0630315204 -5.29E+00
    11 OT DIIS     0.10E+00   54.8     0.00063842     -6295.4851592599 -2.42E+00
    12 OT DIIS     0.10E+00   54.6     0.00050096     -6297.5520379558 -2.07E+00
    13 OT DIIS     0.10E+00   54.4     0.00046521     -6298.4868909191 -9.35E-01
    14 OT DIIS     0.10E+00   54.0     0.00036537     -6299.7931429193 -1.31E+00
    15 OT DIIS     0.10E+00   54.3     0.00029858     -6300.5330214106 -7.40E-01
    16 OT DIIS     0.10E+00   54.1     0.00024192     -6301.3088778618 -7.76E-01
    17 OT DIIS     0.10E+00   53.9     0.00020486     -6301.6621417049 -3.53E-01
    18 OT DIIS     0.10E+00   53.9     0.00017100     -6302.0419442872 -3.80E-01
    19 OT DIIS     0.10E+00   54.0     0.00014422     -6302.2401007237 -1.98E-01
    20 OT DIIS     0.10E+00   54.1     0.00013550     -6302.3388260869 -9.87E-02
    21 OT DIIS     0.10E+00   53.7     0.00010797     -6302.5009868139 -1.62E-01
    22 OT DIIS     0.10E+00   53.9     0.00009889     -6302.5757500982 -7.48E-02
    23 OT DIIS     0.10E+00   53.8     0.00008577     -6302.6567642877 -8.10E-02
    24 OT DIIS     0.10E+00   53.9     0.00007343     -6302.7378986817 -8.11E-02
    25 OT DIIS     0.10E+00   54.3     0.00006341     -6302.7910648592 -5.32E-02
    26 OT DIIS     0.10E+00   53.9     0.00005614     -6302.8335446079 -4.25E-02
    27 OT DIIS     0.10E+00   54.0     0.00004892     -6302.8606888456 -2.71E-02
    28 OT DIIS     0.10E+00   54.2     0.00004483     -6302.8911958760 -3.05E-02
    29 OT DIIS     0.10E+00   54.4     0.00003759     -6302.9159105978 -2.47E-02
    30 OT DIIS     0.10E+00   54.3     0.00003543     -6302.9295439815 -1.36E-02
    31 OT DIIS     0.10E+00   54.3     0.00003318     -6302.9379823699 -8.44E-03
    32 OT DIIS     0.10E+00   54.4     0.00002945     -6302.9551757700 -1.72E-02
    33 OT DIIS     0.10E+00   54.0     0.00002572     -6302.9696873140 -1.45E-02
    34 OT DIIS     0.10E+00   53.7     0.00002314     -6302.9798724988 -1.02E-02
    35 OT DIIS     0.10E+00   54.1     0.00002203     -6302.9855368149 -5.66E-03
    36 OT DIIS     0.10E+00   54.2     0.00002014     -6302.9933509469 -7.81E-03
    37 OT DIIS     0.10E+00   54.0     0.00001941     -6302.9980522173 -4.70E-03
    38 OT DIIS     0.10E+00   54.5     0.00001850     -6303.0025830198 -4.53E-03
    39 OT DIIS     0.10E+00   54.1     0.00001760     -6303.0068266019 -4.24E-03
    40 OT DIIS     0.10E+00   53.9     0.00001629     -6303.0125964441 -5.77E-03
    41 OT DIIS     0.10E+00   53.9     0.00001511     -6303.0172720296 -4.68E-03
    42 OT DIIS     0.10E+00   53.8     0.00001361     -6303.0222393416 -4.97E-03
    43 OT DIIS     0.10E+00   54.3     0.00001266     -6303.0255056051 -3.27E-03
    44 OT DIIS     0.10E+00   53.9     0.00001204     -6303.0272653436 -1.76E-03
    45 OT DIIS     0.10E+00   54.1     0.00001159     -6303.0285629769 -1.30E-03
    46 OT DIIS     0.10E+00   54.0     0.00001094     -6303.0310812200 -2.52E-03
    47 OT DIIS     0.10E+00   54.0     0.00001067     -6303.0326015696 -1.52E-03
    48 OT DIIS     0.10E+00   54.6     0.00001024     -6303.0357153332 -3.11E-03
    49 OT DIIS     0.10E+00   54.1     0.00000991     -6303.0373925703 -1.68E-03
    50 OT DIIS     0.10E+00   54.3     0.00000934     -6303.0410006758 -3.61E-03
    51 OT DIIS     0.10E+00   53.7     0.00000883     -6303.0431171806 -2.12E-03
    52 OT DIIS     0.10E+00   54.0     0.00000837     -6303.0458422390 -2.73E-03
    53 OT DIIS     0.10E+00   54.7     0.00000802     -6303.0469067565 -1.06E-03
    54 OT DIIS     0.10E+00   54.8     0.00000774     -6303.0484546642 -1.55E-03
    55 OT DIIS     0.10E+00   54.5     0.00000723     -6303.0503586498 -1.90E-03
    56 OT DIIS     0.10E+00   54.3     0.00000694     -6303.0517976294 -1.44E-03
    57 OT DIIS     0.10E+00   54.3     0.00000691     -6303.0528196183 -1.02E-03
    58 OT DIIS     0.10E+00   54.5     0.00000655     -6303.0534445047 -6.25E-04
    59 OT DIIS     0.10E+00   54.3     0.00000639     -6303.0543823549 -9.38E-04
    60 OT DIIS     0.10E+00   54.5     0.00000611     -6303.0552015617 -8.19E-04
    61 OT DIIS     0.10E+00   54.6     0.00000598     -6303.0556781573 -4.77E-04
    62 OT DIIS     0.10E+00   54.2     0.00000588     -6303.0560429194 -3.65E-04
    63 OT DIIS     0.10E+00   54.2     0.00000573     -6303.0565867098 -5.44E-04
    64 OT DIIS     0.10E+00   54.0     0.00000563     -6303.0569618081 -3.75E-04
    65 OT DIIS     0.10E+00   54.0     0.00000549     -6303.0577398552 -7.78E-04
    66 OT DIIS     0.10E+00   54.1     0.00000527     -6303.0589103305 -1.17E-03
    67 OT DIIS     0.10E+00   54.4     0.00000512     -6303.0606534965 -1.74E-03
    68 OT DIIS     0.10E+00   54.1     0.00000500     -6303.0606958197 -4.23E-05
    69 OT DIIS     0.10E+00   54.4     0.00000494     -6303.0617840154 -1.09E-03
    70 OT DIIS     0.10E+00   54.3     0.00000478     -6303.0622627008 -4.79E-04
    71 OT DIIS     0.10E+00   54.0     0.00000460     -6303.0634931781 -1.23E-03
    72 OT DIIS     0.10E+00   53.8     0.00000450     -6303.0640911460 -5.98E-04
    73 OT DIIS     0.10E+00   54.0     0.00000433     -6303.0650760189 -9.85E-04
    74 OT DIIS     0.10E+00   54.3     0.00000426     -6303.0654436878 -3.68E-04
    75 OT SD       0.10E+00   53.8     0.00000498     -6303.0668190786 -1.38E-03
    76 OT SD       0.10E+00   54.1     0.00000450     -6303.0668537419 -3.47E-05
    77 OT DIIS     0.10E+00   53.9     0.00000426     -6303.0668828077 -2.91E-05
    78 OT DIIS     0.10E+00   53.9     0.00000381     -6303.0674840740 -6.01E-04
    79 OT DIIS     0.10E+00   54.0     0.00000373     -6303.0679913945 -5.07E-04
    80 OT DIIS     0.10E+00   54.1     0.00000356     -6303.0688549448 -8.64E-04
    81 OT DIIS     0.10E+00   54.0     0.00000348     -6303.0693375253 -4.83E-04
    82 OT DIIS     0.10E+00   54.2     0.00000334     -6303.0700031858 -6.66E-04
    83 OT DIIS     0.10E+00   54.1     0.00000320     -6303.0702332020 -2.30E-04
    84 OT DIIS     0.10E+00   54.7     0.00000446     -6303.0703323104 -9.91E-05
    85 OT DIIS     0.10E+00   54.5     0.00000334     -6303.0706157977 -2.83E-04
    86 OT DIIS     0.10E+00   54.2     0.00000301     -6303.0708841100 -2.68E-04
    87 OT DIIS     0.10E+00   54.1     0.00000294     -6303.0714820001 -5.98E-04
    88 OT DIIS     0.10E+00   54.0     0.00000287     -6303.0716009869 -1.19E-04
    89 OT DIIS     0.10E+00   53.9     0.00000281     -6303.0720677681 -4.67E-04
    90 OT DIIS     0.10E+00   53.8     0.00000348     -6303.0722794389 -2.12E-04
    91 OT DIIS     0.10E+00   54.3     0.00000278     -6303.0723655002 -8.61E-05
    92 OT DIIS     0.10E+00   54.3     0.00000262     -6303.0725564034 -1.91E-04
    93 OT DIIS     0.10E+00   54.6     0.00000265     -6303.0728641997 -3.08E-04
    94 OT DIIS     0.10E+00   54.4     0.00000253     -6303.0730452335 -1.81E-04
    95 OT DIIS     0.10E+00   54.2     0.00000252     -6303.0732771291 -2.32E-04
    96 OT DIIS     0.10E+00   54.2     0.00000249     -6303.0735382947 -2.61E-04
    97 OT DIIS     0.10E+00   54.4     0.00000396     -6303.0735410269 -2.73E-06
    98 OT DIIS     0.10E+00   53.8     0.00000238     -6303.0738517338 -3.11E-04
    99 OT DIIS     0.10E+00   54.1     0.00000236     -6303.0739074387 -5.57E-05
   100 OT DIIS     0.10E+00   53.8     0.00000238     -6303.0743813482 -4.74E-04
   101 OT DIIS     0.10E+00   54.0     0.00000227     -6303.0744377182 -5.64E-05
   102 OT DIIS     0.10E+00   53.9     0.00000226     -6303.0744831482 -4.54E-05
   103 OT SD       0.10E+00   53.9     0.00000223     -6303.0746316572 -1.49E-04
   104 OT DIIS     0.10E+00   54.0     0.00000221     -6303.0746389914 -7.33E-06
   105 OT DIIS     0.10E+00   54.1     0.00000213     -6303.0750559248 -4.17E-04
   106 OT DIIS     0.10E+00   54.3     0.00000210     -6303.0751503742 -9.44E-05
   107 OT DIIS     0.10E+00   53.9     0.00000200     -6303.0755026173 -3.52E-04
   108 OT DIIS     0.10E+00   54.3     0.00000195     -6303.0757567675 -2.54E-04
   109 OT DIIS     0.10E+00   54.2     0.00000191     -6303.0758488502 -9.21E-05
   110 OT DIIS     0.10E+00   54.2     0.00000193     -6303.0759429461 -9.41E-05
   111 OT DIIS     0.10E+00   54.0     0.00000185     -6303.0760543147 -1.11E-04
   112 OT DIIS     0.10E+00   54.1     0.00000181     -6303.0762266210 -1.72E-04
   113 OT DIIS     0.10E+00   54.1     0.00000178     -6303.0763566483 -1.30E-04
   114 OT DIIS     0.10E+00   54.5     0.00000184     -6303.0764082405 -5.16E-05
   115 OT SD       0.10E+00   54.4     0.00000173     -6303.0764695645 -6.13E-05
   116 OT DIIS     0.10E+00   54.0     0.00000172     -6303.0764739717 -4.41E-06
   117 OT DIIS     0.10E+00   54.2     0.00000167     -6303.0766680059 -1.94E-04
   118 OT DIIS     0.10E+00   54.1     0.00000165     -6303.0767667075 -9.87E-05
   119 OT DIIS     0.10E+00   54.4     0.00000163     -6303.0769485621 -1.82E-04
   120 OT DIIS     0.10E+00   54.1     0.00000162     -6303.0769953667 -4.68E-05
   121 OT DIIS     0.10E+00   54.9     0.00000160     -6303.0770700934 -7.47E-05
   122 OT DIIS     0.10E+00   53.7     0.00000157     -6303.0772195893 -1.49E-04
   123 OT DIIS     0.10E+00   53.7     0.00000155     -6303.0772685604 -4.90E-05
   124 OT DIIS     0.10E+00   54.1     0.00000152     -6303.0774186276 -1.50E-04
   125 OT DIIS     0.10E+00   54.2     0.00000151     -6303.0774889934 -7.04E-05
   126 OT DIIS     0.10E+00   54.1     0.00000148     -6303.0776793084 -1.90E-04
   127 OT DIIS     0.10E+00   54.2     0.00000146     -6303.0777224766 -4.32E-05
   128 OT SD       0.10E+00   54.2     0.00000143     -6303.0778469917 -1.25E-04
   129 OT DIIS     0.10E+00   53.9     0.00000143     -6303.0778500299 -3.04E-06
   130 OT DIIS     0.10E+00   54.6     0.00000139     -6303.0779770930 -1.27E-04
   131 OT DIIS     0.10E+00   54.2     0.00000138     -6303.0780303993 -5.33E-05
   132 OT DIIS     0.10E+00   54.4     0.00000136     -6303.0781025182 -7.21E-05
   133 OT DIIS     0.10E+00   54.3     0.00000135     -6303.0781208252 -1.83E-05
   134 OT DIIS     0.10E+00   54.5     0.00000134     -6303.0781426985 -2.19E-05
   135 OT DIIS     0.10E+00   54.2     0.00000132     -6303.0781919474 -4.92E-05
   136 OT DIIS     0.10E+00   54.2     0.00000131     -6303.0783036272 -1.12E-04
   137 OT DIIS     0.10E+00   54.0     0.00000130     -6303.0783543634 -5.07E-05
   138 OT DIIS     0.10E+00   54.3     0.00000129     -6303.0784425460 -8.82E-05
   139 OT DIIS     0.10E+00   54.1     0.00000127     -6303.0785533366 -1.11E-04
   140 OT DIIS     0.10E+00   54.1     0.00000126     -6303.0786531722 -9.98E-05
   141 OT DIIS     0.10E+00   53.9     0.00000124     -6303.0787976714 -1.44E-04
   142 OT DIIS     0.10E+00   53.8     0.00000123     -6303.0788563111 -5.86E-05
   143 OT DIIS     0.10E+00   54.0     0.00000121     -6303.0789840167 -1.28E-04
   144 OT DIIS     0.10E+00   54.4     0.00000120     -6303.0791274865 -1.43E-04
   145 OT DIIS     0.10E+00   54.4     0.00000118     -6303.0792181179 -9.06E-05
   146 OT DIIS     0.10E+00   53.9     0.00000117     -6303.0792877294 -6.96E-05
   147 OT DIIS     0.10E+00   54.1     0.00000114     -6303.0794367868 -1.49E-04
   148 OT DIIS     0.10E+00   54.0     0.00000111     -6303.0795644200 -1.28E-04
   149 OT DIIS     0.10E+00   54.2     0.00000127     -6303.0796032854 -3.89E-05
   150 OT DIIS     0.10E+00   53.8     0.00000120     -6303.0796052474 -1.96E-06

  Leaving inner SCF loop after reaching   150 steps.


  Electronic density on regular grids:      -2391.9999999966        0.0000000034
  Core density on regular grids:             2391.9999999990       -0.0000000010
  Total charge density on r-space grids:        0.0000000025
  Total charge density g-space grids:           0.0000000025

  Overlap energy of the core charge distribution:               0.00001530024306
  Self energy of the core charge distribution:             -15546.49972413128307
  Core Hamiltonian energy:                                   4156.76266132313140
  Hartree energy:                                            6363.34454618491418
  Exchange-correlation energy:                              -1276.07835884777501
  Dispersion energy:                                           -0.60874507661682

  Total energy:                                             -6303.07960524738610

  outer SCF iter =    1 RMS gradient =   0.12E-05 energy =      -6303.0796052474

  ----------------------------------- OT ---------------------------------------
  Minimizer      : DIIS                : direct inversion
                                         in the iterative subspace
                                         using   7 DIIS vectors
                                         safer DIIS on
  Preconditioner : FULL_SINGLE_INVERSE : inversion of 
                                         H + eS - 2*(Sc)(c^T*H*c+const)(Sc)^T
  Precond_solver : INVERSE_UPDATE
  stepsize       :    0.10000000                  energy_gap     :    0.10000000
  eps_taylor     :   0.10000E-15                  max_taylor     :             4
  ----------------------------------- OT ---------------------------------------

  Step     Update method      Time    Convergence         Total energy    Change
  ------------------------------------------------------------------------------


     Lanczos converged:  F threshold:   0.100E-02
     Est. extremal eigenvalues:    0.199E+02   0.397E-01
     Est. condition number :    0.500E+03
     Hotelling iter   1 1.00000000   0.992E+00       5.481   173519.781
     Hotelling iter   2 1.00000000   0.970E+00       3.459   274968.922
     Hotelling iter   3 1.00000000   0.888E+00       3.397   279968.922
     Hotelling iter   4 1.00000000   0.637E+00       3.403   279422.959
     Hotelling iter   5 1.00000000   0.218E+00       3.399   279792.194



     Lanczos converged:  F threshold:   0.100E-02
     Est. extremal eigenvalues:    0.199E+02   0.397E-01
     Est. condition number :    0.500E+03
     Hotelling iter   1 1.00000000   0.992E+00       5.494   173096.479
     Hotelling iter   2 1.00000000   0.970E+00       3.410   278858.665
     Hotelling iter   3 1.00000000   0.888E+00       3.361   282952.407
     Hotelling iter   4 1.00000000   0.637E+00       3.378   281503.568
     Hotelling iter   5 1.00000000   0.218E+00       3.367   282478.897

     1 OT DIIS     0.10E+00  162.7     0.00001714     -6303.0796127890 -7.54E-06
     2 OT DIIS     0.10E+00   51.5     0.00001244     -6303.0799756327 -3.63E-04
     3 OT DIIS     0.10E+00   51.9     0.00000912     -6303.0802837556 -3.08E-04
     4 OT DIIS     0.10E+00   52.2     0.00000617     -6303.0804431888 -1.59E-04
     5 OT DIIS     0.10E+00   52.1     0.00000454     -6303.0805308166 -8.76E-05
     6 OT DIIS     0.10E+00   51.8     0.00000409     -6303.0805905288 -5.97E-05
     7 OT DIIS     0.10E+00   52.0     0.00000389     -6303.0806289858 -3.85E-05
     8 OT DIIS     0.10E+00   52.4     0.00000368     -6303.0806875359 -5.86E-05
     9 OT DIIS     0.10E+00   52.3     0.00000355     -6303.0807542710 -6.67E-05
    10 OT DIIS     0.10E+00   52.0     0.00000346     -6303.0808239442 -6.97E-05
    11 OT DIIS     0.10E+00   52.0     0.00000334     -6303.0809116196 -8.77E-05
    12 OT DIIS     0.10E+00   52.1     0.00000321     -6303.0810323127 -1.21E-04
    13 OT DIIS     0.10E+00   52.1     0.00000311     -6303.0811377467 -1.05E-04
    14 OT DIIS     0.10E+00   52.3     0.00000302     -6303.0812349298 -9.72E-05
    15 OT DIIS     0.10E+00   52.0     0.00000293     -6303.0813463641 -1.11E-04
    16 OT DIIS     0.10E+00   52.5     0.00000287     -6303.0814166356 -7.03E-05
    17 OT DIIS     0.10E+00   51.9     0.00000281     -6303.0814919090 -7.53E-05
    18 OT DIIS     0.10E+00   51.7     0.00000278     -6303.0815547460 -6.28E-05
    19 OT DIIS     0.10E+00   51.9     0.00000275     -6303.0816035135 -4.88E-05
    20 OT DIIS     0.10E+00   51.8     0.00000272     -6303.0816636847 -6.02E-05
    21 OT DIIS     0.10E+00   52.0     0.00000269     -6303.0817317442 -6.81E-05
    22 OT DIIS     0.10E+00   52.1     0.00000266     -6303.0817888054 -5.71E-05
    23 OT DIIS     0.10E+00   51.8     0.00000263     -6303.0818665188 -7.77E-05
    24 OT DIIS     0.10E+00   51.9     0.00000261     -6303.0819271645 -6.06E-05
    25 OT DIIS     0.10E+00   51.9     0.00000258     -6303.0820115803 -8.44E-05
    26 OT DIIS     0.10E+00   52.0     0.00000255     -6303.0820791324 -6.76E-05
    27 OT DIIS     0.10E+00   51.8     0.00000254     -6303.0821328774 -5.37E-05
    28 OT DIIS     0.10E+00   52.1     0.00000252     -6303.0821842599 -5.14E-05
    29 OT DIIS     0.10E+00   52.2     0.00000251     -6303.0822389205 -5.47E-05
    30 OT DIIS     0.10E+00   51.9     0.00000249     -6303.0822850195 -4.61E-05
    31 OT DIIS     0.10E+00   52.3     0.00000248     -6303.0823456193 -6.06E-05
    32 OT DIIS     0.10E+00   52.6     0.00000247     -6303.0823885452 -4.29E-05
    33 OT DIIS     0.10E+00   52.1     0.00000246     -6303.0824377414 -4.92E-05
    34 OT DIIS     0.10E+00   52.0     0.00000245     -6303.0824934422 -5.57E-05
    35 OT DIIS     0.10E+00   52.4     0.00000244     -6303.0825394012 -4.60E-05
    36 OT DIIS     0.10E+00   52.3     0.00000243     -6303.0825758210 -3.64E-05
    37 OT DIIS     0.10E+00   52.2     0.00000243     -6303.0826062300 -3.04E-05
    38 OT DIIS     0.10E+00   54.0     0.00000242     -6303.0826339391 -2.77E-05
    39 OT DIIS     0.10E+00   54.0     0.00000242     -6303.0826708017 -3.69E-05
    40 OT DIIS     0.10E+00   53.7     0.00000241     -6303.0827056599 -3.49E-05
    41 OT DIIS     0.10E+00   53.7     0.00000241     -6303.0827330032 -2.73E-05
    42 OT DIIS     0.10E+00   53.8     0.00000241     -6303.0827669980 -3.40E-05
    43 OT DIIS     0.10E+00   54.0     0.00000240     -6303.0827922795 -2.53E-05
    44 OT DIIS     0.10E+00   54.0     0.00000240     -6303.0828162247 -2.39E-05
    45 OT DIIS     0.10E+00   54.1     0.00000240     -6303.0828437862 -2.76E-05
    46 OT DIIS     0.10E+00   54.4     0.00000240     -6303.0828714706 -2.77E-05
    47 OT DIIS     0.10E+00   53.9     0.00000240     -6303.0828957481 -2.43E-05
    48 OT DIIS     0.10E+00   54.2     0.00000240     -6303.0829238935 -2.81E-05
    49 OT DIIS     0.10E+00   53.9     0.00000239     -6303.0829516498 -2.78E-05
    50 OT DIIS     0.10E+00   54.1     0.00000239     -6303.0829863115 -3.47E-05
    51 OT DIIS     0.10E+00   54.4     0.00000239     -6303.0830163702 -3.01E-05
    52 OT DIIS     0.10E+00   54.1     0.00000239     -6303.0830396685 -2.33E-05
    53 OT DIIS     0.10E+00   53.8     0.00000239     -6303.0830628288 -2.32E-05
    54 OT DIIS     0.10E+00   54.0     0.00000239     -6303.0830825929 -1.98E-05
    55 OT DIIS     0.10E+00   53.7     0.00000238     -6303.0831067443 -2.42E-05
    56 OT DIIS     0.10E+00   54.1     0.00000238     -6303.0831373476 -3.06E-05
    57 OT DIIS     0.10E+00   54.3     0.00000238     -6303.0831657179 -2.84E-05
    58 OT DIIS     0.10E+00   54.0     0.00000238     -6303.0831933216 -2.76E-05
    59 OT DIIS     0.10E+00   54.2     0.00000238     -6303.0832259704 -3.26E-05
    60 OT DIIS     0.10E+00   53.8     0.00000237     -6303.0832560914 -3.01E-05
    61 OT DIIS     0.10E+00   54.1     0.00000237     -6303.0832833497 -2.73E-05
    62 OT DIIS     0.10E+00   53.9     0.00000237     -6303.0833016480 -1.83E-05
    63 OT DIIS     0.10E+00   54.2     0.00000237     -6303.0833166896 -1.50E-05
    64 OT DIIS     0.10E+00   54.6     0.00000237     -6303.0833431318 -2.64E-05
    65 OT DIIS     0.10E+00   53.7     0.00000237     -6303.0833656550 -2.25E-05
    66 OT DIIS     0.10E+00   54.0     0.00000237     -6303.0833841505 -1.85E-05
    67 OT SD       0.10E+00   54.1     0.00000237     -6303.0833985894 -1.44E-05
    68 OT SD       0.10E+00   54.1     0.00000237     -6303.0834068954 -8.31E-06
    69 OT SD       0.10E+00   53.6     0.00000237     -6303.0834152043 -8.31E-06
    70 OT SD       0.10E+00   53.9     0.00000237     -6303.0834235174 -8.31E-06
    71 OT SD       0.10E+00   54.2     0.00000237     -6303.0834318364 -8.32E-06
    72 OT DIIS     0.10E+00   54.2     0.00000237     -6303.0834401630 -8.33E-06
    73 OT DIIS     0.10E+00   54.0     0.00000237     -6303.0834875658 -4.74E-05
    74 OT DIIS     0.10E+00   54.0     0.00000237     -6303.0835232949 -3.57E-05
    75 OT DIIS     0.10E+00   53.6     0.00000235     -6303.0835787951 -5.55E-05
    76 OT DIIS     0.10E+00   53.8     0.00000233     -6303.0836727984 -9.40E-05
    77 OT DIIS     0.10E+00   53.7     0.00000235     -6303.0838090445 -1.36E-04
    78 OT DIIS     0.10E+00   54.1     0.00000230     -6303.0839664897 -1.57E-04
    79 OT DIIS     0.10E+00   54.4     0.00000229     -6303.0840178104 -5.13E-05
    80 OT DIIS     0.10E+00   54.5     0.00000228     -6303.0840455292 -2.77E-05
    81 OT DIIS     0.10E+00   53.8     0.00000229     -6303.0841238716 -7.83E-05
    82 OT DIIS     0.10E+00   54.0     0.00000239     -6303.0842158533 -9.20E-05
    83 OT DIIS     0.10E+00   53.7     0.00000235     -6303.0842457528 -2.99E-05
    84 OT DIIS     0.10E+00   53.7     0.00000224     -6303.0843022638 -5.65E-05
    85 OT DIIS     0.10E+00   53.9     0.00000227     -6303.0843172948 -1.50E-05
    86 OT SD       0.10E+00   54.1     0.00000225     -6303.0843487128 -3.14E-05
    87 OT SD       0.10E+00   54.0     0.00000226     -6303.0843561994 -7.49E-06
    88 OT DIIS     0.10E+00   53.7     0.00000227     -6303.0843637464 -7.55E-06
    89 OT DIIS     0.10E+00   54.0     0.00000226     -6303.0845285869 -1.65E-04
    90 OT DIIS     0.10E+00   54.8     0.00000231     -6303.0847135616 -1.85E-04
    91 OT DIIS     0.10E+00   53.9     0.00000211     -6303.0847813025 -6.77E-05
    92 OT SD       0.10E+00   54.4     0.00000208     -6303.0848194653 -3.82E-05
    93 OT DIIS     0.10E+00   54.1     0.00000206     -6303.0848258054 -6.34E-06
    94 OT DIIS     0.10E+00   54.0     0.00000206     -6303.0849233228 -9.75E-05
    95 OT DIIS     0.10E+00   53.9     0.00000206     -6303.0849778748 -5.46E-05
    96 OT SD       0.10E+00   54.4     0.00000206     -6303.0849861799 -8.31E-06
    97 OT SD       0.10E+00   54.0     0.00000206     -6303.0849924220 -6.24E-06
    98 OT SD       0.10E+00   53.8     0.00000207     -6303.0849986862 -6.26E-06
    99 OT SD       0.10E+00   54.0     0.00000208     -6303.0850050156 -6.33E-06
   100 OT SD       0.10E+00   54.1     0.00000210     -6303.0850114266 -6.41E-06
   101 OT SD       0.10E+00   53.9     0.00000212     -6303.0850179347 -6.51E-06
   102 OT SD       0.10E+00   54.0     0.00000215     -6303.0850245562 -6.62E-06
   103 OT SD       0.10E+00   54.0     0.00000218     -6303.0850313086 -6.75E-06
   104 OT SD       0.10E+00   53.9     0.00000221     -6303.0850382110 -6.90E-06
   105 OT SD       0.10E+00   53.7     0.00000226     -6303.0850452845 -7.07E-06
   106 OT SD       0.10E+00   54.0     0.00000231     -6303.0850525522 -7.27E-06
   107 OT SD       0.10E+00   53.7     0.00000237     -6303.0850600391 -7.49E-06
   108 OT SD       0.10E+00   53.9     0.00000245     -6303.0850677721 -7.73E-06
   109 OT SD       0.10E+00   54.0     0.00000255     -6303.0850757802 -8.01E-06
   110 OT SD       0.10E+00   54.0     0.00000267     -6303.0850840932 -8.31E-06
   111 OT SD       0.10E+00   53.8     0.00000282     -6303.0850927415 -8.65E-06
   112 OT SD       0.10E+00   54.2     0.00000301     -6303.0851017540 -9.01E-06
   113 OT SD       0.10E+00   54.5     0.00000325     -6303.0851111557 -9.40E-06
   114 OT SD       0.10E+00   54.4     0.00000355     -6303.0851209638 -9.81E-06
   115 OT SD       0.10E+00   54.2     0.00000393     -6303.0851311819 -1.02E-05
   116 OT SD       0.10E+00   53.9     0.00000441     -6303.0851417905 -1.06E-05
   117 OT SD       0.10E+00   53.9     0.00000499     -6303.0851527340 -1.09E-05
   118 OT SD       0.10E+00   54.0     0.00000572     -6303.0851639006 -1.12E-05
   119 OT SD       0.10E+00   54.0     0.00000662     -6303.0851750933 -1.12E-05
   120 OT SD       0.10E+00   54.0     0.00000772     -6303.0851859870 -1.09E-05
   121 OT SD       0.10E+00   54.0     0.00000905     -6303.0851960662 -1.01E-05
   122 OT SD       0.10E+00   54.1     0.00001068     -6303.0852045332 -8.47E-06
   123 OT SD       0.10E+00   54.2     0.00001265     -6303.0852101772 -5.64E-06
   124 OT SD       0.10E+00   53.9     0.00001504     -6303.0852111789 -1.00E-06
   125 OT SD       0.10E+00   53.7     0.00001792     -6303.0852048361  6.34E-06
   126 OT SD       0.10E+00   53.9     0.00002140     -6303.0851871494  1.77E-05
   127 OT SD       0.10E+00   54.2     0.00002560     -6303.0851522514  3.49E-05
   128 OT SD       0.10E+00   54.6     0.00003065     -6303.0850915288  6.07E-05
   129 OT DIIS     0.10E+00   53.7     0.00003674     -6303.0849924411  9.91E-05
   130 OT DIIS     0.10E+00   53.9     0.00000197     -6303.0849617441  3.07E-05
   131 OT DIIS     0.10E+00   54.0     0.00000197     -6303.0849903612 -2.86E-05
   132 OT SD       0.10E+00   53.9     0.00000194     -6303.0849951110 -4.75E-06
   133 OT DIIS     0.10E+00   53.6     0.00000194     -6303.0850006545 -5.54E-06
   134 OT DIIS     0.10E+00   53.8     0.00000193     -6303.0850061555 -5.50E-06
   135 OT DIIS     0.10E+00   53.7     0.00000193     -6303.0850261423 -2.00E-05
   136 OT DIIS     0.10E+00   53.9     0.00000192     -6303.0850662608 -4.01E-05
   137 OT DIIS     0.10E+00   54.0     0.00000192     -6303.0850967505 -3.05E-05
   138 OT SD       0.10E+00   54.2     0.00000192     -6303.0851005259 -3.78E-06
   139 OT DIIS     0.10E+00   54.0     0.00000192     -6303.0851059723 -5.45E-06
   140 OT DIIS     0.10E+00   53.9     0.00000191     -6303.0851093723 -3.40E-06
   141 OT DIIS     0.10E+00   53.9     0.00000190     -6303.0851620777 -5.27E-05
   142 OT DIIS     0.10E+00   53.7     0.00000188     -6303.0852192653 -5.72E-05
   143 OT DIIS     0.10E+00   53.9     0.00000186     -6303.0853206631 -1.01E-04
   144 OT DIIS     0.10E+00   54.4     0.00000185     -6303.0853589680 -3.83E-05
   145 OT DIIS     0.10E+00   54.6     0.00000182     -6303.0854788407 -1.20E-04
   146 OT DIIS     0.10E+00   54.0     0.00000179     -6303.0855704863 -9.16E-05
   147 OT DIIS     0.10E+00   54.2     0.00000178     -6303.0856260865 -5.56E-05
   148 OT DIIS     0.10E+00   54.3     0.00000178     -6303.0856524009 -2.63E-05
   149 OT SD       0.10E+00   54.1     0.00000178     -6303.0856657683 -1.34E-05
   150 OT SD       0.10E+00   54.0     0.00000178     -6303.0856704547 -4.69E-06

  Leaving inner SCF loop after reaching   150 steps.


  Electronic density on regular grids:      -2391.9999999966        0.0000000034
  Core density on regular grids:             2391.9999999990       -0.0000000010
  Total charge density on r-space grids:        0.0000000025
  Total charge density g-space grids:           0.0000000025

  Overlap energy of the core charge distribution:               0.00001530024306
  Self energy of the core charge distribution:             -15546.49972413128307
  Core Hamiltonian energy:                                   4156.73732191949966
  Hartree energy:                                            6363.36002697559616
  Exchange-correlation energy:                              -1276.07456544210504
  Dispersion energy:                                           -0.60874507661682

  Total energy:                                             -6303.08567045466589

  outer SCF iter =    2 RMS gradient =   0.18E-05 energy =      -6303.0856704547

  ----------------------------------- OT ---------------------------------------
  Minimizer      : DIIS                : direct inversion
                                         in the iterative subspace
                                         using   7 DIIS vectors
                                         safer DIIS on
  Preconditioner : FULL_SINGLE_INVERSE : inversion of 
                                         H + eS - 2*(Sc)(c^T*H*c+const)(Sc)^T
  Precond_solver : INVERSE_UPDATE
  stepsize       :    0.10000000                  energy_gap     :    0.10000000
  eps_taylor     :   0.10000E-15                  max_taylor     :             4
  ----------------------------------- OT ---------------------------------------

  Step     Update method      Time    Convergence         Total energy    Change
  ------------------------------------------------------------------------------


     Lanczos converged:  T threshold:   0.100E-02
     Est. extremal eigenvalues:    0.432E+01   0.155E+00
     Est. condition number :    0.279E+02
     Hotelling iter   1 1.00000000   0.873E+00       4.050   234611.047
     Hotelling iter   2 1.00000000   0.600E+00       3.460   274629.530
     Hotelling iter   3 1.00000000   0.184E+00       3.348   283627.982



     Lanczos converged:  T threshold:   0.100E-02
     Est. extremal eigenvalues:    0.434E+01   0.154E+00
     Est. condition number :    0.282E+02
     Hotelling iter   1 1.00000000   0.874E+00       3.993   237972.222
     Hotelling iter   2 1.00000000   0.603E+00       3.349   283669.285
     Hotelling iter   3 1.00000000   0.186E+00       3.426   277201.378

     1 OT DIIS     0.10E+00  162.9     0.00000203     -6303.0856751608 -4.71E-06
     2 OT SD       0.10E+00   51.0     0.00000204     -6303.0856812868 -6.13E-06
     3 OT SD       0.10E+00   51.3     0.00000206     -6303.0856874695 -6.18E-06
     4 OT SD       0.10E+00   51.9     0.00000211     -6303.0856937240 -6.25E-06
     5 OT SD       0.10E+00   51.5     0.00000224     -6303.0857000079 -6.28E-06
     6 OT SD       0.10E+00   51.7     0.00000268     -6303.0857060522 -6.04E-06
     7 OT SD       0.10E+00   52.4     0.00000407     -6303.0857105710 -4.52E-06
     8 OT SD       0.10E+00   52.4     0.00000760     -6303.0857077185  2.85E-06
     9 OT DIIS     0.10E+00   52.5     0.00001556     -6303.0856711439  3.66E-05
    10 OT DIIS     0.10E+00   52.3     0.00000193     -6303.0856825206 -1.14E-05
    11 OT DIIS     0.10E+00   51.9     0.00000193     -6303.0856881315 -5.61E-06
    12 OT DIIS     0.10E+00   51.9     0.00000192     -6303.0856961203 -7.99E-06
    13 OT DIIS     0.10E+00   52.1     0.00000192     -6303.0857042713 -8.15E-06
    14 OT SD       0.10E+00   52.0     0.00000192     -6303.0857058164 -1.55E-06
    15 OT SD       0.10E+00   52.2     0.00000193     -6303.0857113054 -5.49E-06
    16 OT SD       0.10E+00   52.6     0.00000193     -6303.0857168031 -5.50E-06
    17 OT SD       0.10E+00   51.8     0.00000193     -6303.0857223129 -5.51E-06
    18 OT SD       0.10E+00   51.9     0.00000194     -6303.0857278359 -5.52E-06
    19 OT SD       0.10E+00   51.8     0.00000198     -6303.0857333613 -5.53E-06
    20 OT SD       0.10E+00   51.7     0.00000210     -6303.0857388259 -5.46E-06
    21 OT SD       0.10E+00   52.3     0.00000257     -6303.0857439302 -5.10E-06
    22 OT DIIS     0.10E+00   52.0     0.00000402     -6303.0857473215 -3.39E-06
    23 OT DIIS     0.10E+00   52.2     0.00000190     -6303.0857575601 -1.02E-05
    24 OT DIIS     0.10E+00   52.4     0.00000189     -6303.0857651046 -7.54E-06
    25 OT DIIS     0.10E+00   52.0     0.00000189     -6303.0857864867 -2.14E-05
    26 OT DIIS     0.10E+00   52.0     0.00000189     -6303.0858059336 -1.94E-05
    27 OT SD       0.10E+00   52.2     0.00000189     -6303.0858103468 -4.41E-06
    28 OT DIIS     0.10E+00   51.8     0.00000189     -6303.0858156420 -5.30E-06
    29 OT DIIS     0.10E+00   52.1     0.00000189     -6303.0858223777 -6.74E-06
    30 OT DIIS     0.10E+00   52.0     0.00000188     -6303.0858597189 -3.73E-05
    31 OT DIIS     0.10E+00   51.9     0.00000187     -6303.0858822593 -2.25E-05
    32 OT DIIS     0.10E+00   52.6     0.00000187     -6303.0859431178 -6.09E-05
    33 OT DIIS     0.10E+00   52.4     0.00000186     -6303.0859891122 -4.60E-05
    34 OT DIIS     0.10E+00   52.1     0.00000185     -6303.0860368114 -4.77E-05
    35 OT DIIS     0.10E+00   52.1     0.00000186     -6303.0860427641 -5.95E-06
    36 OT DIIS     0.10E+00   51.8     0.00000184     -6303.0860926020 -4.98E-05
    37 OT DIIS     0.10E+00   51.8     0.00000184     -6303.0860986813 -6.08E-06
    38 OT DIIS     0.10E+00   52.2     0.00000184     -6303.0861069536 -8.27E-06
    39 OT SD       0.10E+00   52.2     0.00000185     -6303.0861260462 -1.91E-05
    40 OT SD       0.10E+00   51.9     0.00000187     -6303.0861310548 -5.01E-06
    41 OT SD       0.10E+00   52.3     0.00000197     -6303.0861360463 -4.99E-06
    42 OT SD       0.10E+00   52.4     0.00000231     -6303.0861408439 -4.80E-06
    43 OT SD       0.10E+00   52.2     0.00000340     -6303.0861445922 -3.75E-06
    44 OT SD       0.10E+00   52.3     0.00000621     -6303.0861434787  1.11E-06
    45 OT DIIS     0.10E+00   52.3     0.00001252     -6303.0861206873  2.28E-05
    46 OT DIIS     0.10E+00   51.7     0.00000178     -6303.0861126274  8.06E-06
    47 OT DIIS     0.10E+00   52.4     0.00000177     -6303.0861252027 -1.26E-05
    48 OT DIIS     0.10E+00   52.7     0.00000176     -6303.0861370935 -1.19E-05
    49 OT DIIS     0.10E+00   52.0     0.00000176     -6303.0861417839 -4.69E-06
    50 OT SD       0.10E+00   51.9     0.00000176     -6303.0861465958 -4.81E-06
    51 OT SD       0.10E+00   51.8     0.00000176     -6303.0861511869 -4.59E-06
    52 OT SD       0.10E+00   52.0     0.00000176     -6303.0861557890 -4.60E-06
    53 OT SD       0.10E+00   52.4     0.00000177     -6303.0861604054 -4.62E-06
    54 OT SD       0.10E+00   52.3     0.00000178     -6303.0861650374 -4.63E-06
    55 OT SD       0.10E+00   52.0     0.00000181     -6303.0861696767 -4.64E-06
    56 OT SD       0.10E+00   52.1     0.00000192     -6303.0861742745 -4.60E-06
    57 OT SD       0.10E+00   52.5     0.00000231     -6303.0861786045 -4.33E-06
    58 OT SD       0.10E+00   52.5     0.00000353     -6303.0861816649 -3.06E-06
    59 OT SD       0.10E+00   52.4     0.00000661     -6303.0861790320  2.63E-06
    60 OT DIIS     0.10E+00   52.7     0.00001347     -6303.0861510535  2.80E-05
    61 OT SD       0.10E+00   52.0     0.00000173     -6303.0861663902 -1.53E-05
    62 OT SD       0.10E+00   52.0     0.00000173     -6303.0861708247 -4.43E-06
    63 OT SD       0.10E+00   52.2     0.00000173     -6303.0861752547 -4.43E-06
    64 OT SD       0.10E+00   52.7     0.00000174     -6303.0861796882 -4.43E-06
    65 OT SD       0.10E+00   52.0     0.00000176     -6303.0861841211 -4.43E-06
    66 OT SD       0.10E+00   52.1     0.00000183     -6303.0861885254 -4.40E-06
    67 OT SD       0.10E+00   52.1     0.00000206     -6303.0861927859 -4.26E-06
    68 OT SD       0.10E+00   52.3     0.00000276     -6303.0861964499 -3.66E-06
    69 OT SD       0.10E+00   52.2     0.00000453     -6303.0861977647 -1.31E-06
    70 OT DIIS     0.10E+00   52.0     0.00000839     -6303.0861899159  7.85E-06
    71 OT DIIS     0.10E+00   51.8     0.00000171     -6303.0861826853  7.23E-06
    72 OT DIIS     0.10E+00   51.9     0.00000171     -6303.0861939589 -1.13E-05
    73 OT DIIS     0.10E+00   52.3     0.00000171     -6303.0862025974 -8.64E-06
    74 OT DIIS     0.10E+00   52.4     0.00000171     -6303.0862132261 -1.06E-05
    75 OT SD       0.10E+00   52.3     0.00000171     -6303.0862232845 -1.01E-05
    76 OT SD       0.10E+00   52.2     0.00000171     -6303.0862276094 -4.32E-06
    77 OT DIIS     0.10E+00   52.0     0.00000171     -6303.0862319403 -4.33E-06
    78 OT DIIS     0.10E+00   51.9     0.00000170     -6303.0862611937 -2.93E-05
    79 OT DIIS     0.10E+00   52.2     0.00000169     -6303.0862905454 -2.94E-05
    80 OT DIIS     0.10E+00   52.8     0.00000168     -6303.0863330569 -4.25E-05
    81 OT DIIS     0.10E+00   51.9     0.00000169     -6303.0863747321 -4.17E-05
    82 OT DIIS     0.10E+00   52.3     0.00000167     -6303.0864351543 -6.04E-05
    83 OT DIIS     0.10E+00   52.2     0.00000169     -6303.0865005497 -6.54E-05
    84 OT DIIS     0.10E+00   52.3     0.00000168     -6303.0865025982 -2.05E-06
    85 OT DIIS     0.10E+00   51.9     0.00000166     -6303.0865047315 -2.13E-06
    86 OT DIIS     0.10E+00   52.3     0.00000164     -6303.0865122901 -7.56E-06
    87 OT SD       0.10E+00   52.2     0.00000163     -6303.0865255424 -1.33E-05
    88 OT SD       0.10E+00   52.2     0.00000164     -6303.0865294807 -3.94E-06
    89 OT SD       0.10E+00   52.2     0.00000166     -6303.0865334206 -3.94E-06
    90 OT SD       0.10E+00   52.1     0.00000173     -6303.0865373389 -3.92E-06
    91 OT SD       0.10E+00   52.3     0.00000199     -6303.0865411107 -3.77E-06
    92 OT SD       0.10E+00   52.6     0.00000281     -6303.0865441972 -3.09E-06
    93 OT SD       0.10E+00   52.3     0.00000492     -6303.0865443198 -1.23E-07
    94 OT SD       0.10E+00   52.2     0.00000964     -6303.0865317972  1.25E-05
    95 OT DIIS     0.10E+00   51.9     0.00001965     -6303.0864651845  6.66E-05
    96 OT DIIS     0.10E+00   52.2     0.00000160     -6303.0865151273 -4.99E-05
    97 OT SD       0.10E+00   51.9     0.00000160     -6303.0865163597 -1.23E-06
    98 OT SD       0.10E+00   51.9     0.00000160     -6303.0865201458 -3.79E-06
    99 OT SD       0.10E+00   52.2     0.00000162     -6303.0865239315 -3.79E-06
   100 OT SD       0.10E+00   52.1     0.00000167     -6303.0865276995 -3.77E-06
   101 OT SD       0.10E+00   52.1     0.00000184     -6303.0865313691 -3.67E-06
   102 OT SD       0.10E+00   52.4     0.00000242     -6303.0865346008 -3.23E-06
   103 OT SD       0.10E+00   52.3     0.00000401     -6303.0865359753 -1.37E-06
   104 OT SD       0.10E+00   52.0     0.00000766     -6303.0865295114  6.46E-06
   105 OT DIIS     0.10E+00   52.1     0.00001547     -6303.0864897428  3.98E-05
   106 OT DIIS     0.10E+00   52.2     0.00000158     -6303.0865205921 -3.08E-05
   107 OT SD       0.10E+00   52.4     0.00000158     -6303.0865248643 -4.27E-06
   108 OT SD       0.10E+00   52.6     0.00000159     -6303.0865285567 -3.69E-06
   109 OT SD       0.10E+00   52.3     0.00000161     -6303.0865322473 -3.69E-06
   110 OT SD       0.10E+00   51.9     0.00000167     -6303.0865359099 -3.66E-06
   111 OT SD       0.10E+00   52.0     0.00000192     -6303.0865394274 -3.52E-06
   112 OT SD       0.10E+00   52.9     0.00000268     -6303.0865423134 -2.89E-06
   113 OT SD       0.10E+00   52.0     0.00000465     -6303.0865425542 -2.41E-07
   114 OT SD       0.10E+00   52.2     0.00000903     -6303.0865317440  1.08E-05
   115 OT DIIS     0.10E+00   51.9     0.00001826     -6303.0864744853  5.73E-05
   116 OT SD       0.10E+00   51.9     0.00000156     -6303.0865168013 -4.23E-05
   117 OT SD       0.10E+00   51.9     0.00000157     -6303.0865204226 -3.62E-06
   118 OT SD       0.10E+00   52.1     0.00000157     -6303.0865240429 -3.62E-06
   119 OT SD       0.10E+00   52.1     0.00000159     -6303.0865276589 -3.62E-06
   120 OT SD       0.10E+00   52.2     0.00000165     -6303.0865312452 -3.59E-06
   121 OT SD       0.10E+00   52.4     0.00000188     -6303.0865346913 -3.45E-06
   122 OT SD       0.10E+00   52.3     0.00000262     -6303.0865375282 -2.84E-06
   123 OT SD       0.10E+00   52.2     0.00000459     -6303.0865377569 -2.29E-07
   124 OT DIIS     0.10E+00   52.0     0.00000905     -6303.0865267909  1.10E-05
   125 OT SD       0.10E+00   52.0     0.00000155     -6303.0865232287  3.56E-06
   126 OT DIIS     0.10E+00   52.1     0.00000156     -6303.0865267916 -3.56E-06
   127 OT DIIS     0.10E+00   52.1     0.00000155     -6303.0865306063 -3.81E-06
   128 OT SD       0.10E+00   52.5     0.00000155     -6303.0865308086 -2.02E-07
   129 OT SD       0.10E+00   52.3     0.00000155     -6303.0865343778 -3.57E-06
   130 OT SD       0.10E+00   52.0     0.00000155     -6303.0865379526 -3.57E-06
   131 OT SD       0.10E+00   51.9     0.00000156     -6303.0865415342 -3.58E-06
   132 OT SD       0.10E+00   52.6     0.00000156     -6303.0865451243 -3.59E-06
   133 OT SD       0.10E+00   52.4     0.00000156     -6303.0865487238 -3.60E-06
   134 OT SD       0.10E+00   52.4     0.00000157     -6303.0865523315 -3.61E-06
   135 OT SD       0.10E+00   52.0     0.00000161     -6303.0865559378 -3.61E-06
   136 OT SD       0.10E+00   52.2     0.00000171     -6303.0865594713 -3.53E-06
   137 OT SD       0.10E+00   52.6     0.00000208     -6303.0865627951 -3.32E-06
   138 OT SD       0.10E+00   52.5     0.00000314     -6303.0865651223 -2.33E-06
   139 OT SD       0.10E+00   52.5     0.00000568     -6303.0865633427  1.78E-06
   140 OT DIIS     0.10E+00   52.6     0.00001113     -6303.0865446637  1.87E-05
   141 OT SD       0.10E+00   52.2     0.00000155     -6303.0865703871 -2.57E-05
   142 OT SD       0.10E+00   52.5     0.00000155     -6303.0865739213 -3.53E-06
   143 OT SD       0.10E+00   52.6     0.00000156     -6303.0865774927 -3.57E-06
   144 OT SD       0.10E+00   53.2     0.00000156     -6303.0865810773 -3.58E-06
   145 OT SD       0.10E+00   52.1     0.00000158     -6303.0865846711 -3.59E-06
   146 OT SD       0.10E+00   52.2     0.00000165     -6303.0865882488 -3.58E-06
   147 OT SD       0.10E+00   52.7     0.00000189     -6303.0865916964 -3.45E-06
   148 OT SD       0.10E+00   52.9     0.00000268     -6303.0865945154 -2.82E-06
   149 OT SD       0.10E+00   52.7     0.00000474     -6303.0865945464 -3.09E-08
   150 OT SD       0.10E+00   52.6     0.00000942     -6303.0865823780  1.22E-05

  Leaving inner SCF loop after reaching   150 steps.


  Electronic density on regular grids:      -2391.9999999963        0.0000000037
  Core density on regular grids:             2391.9999999990       -0.0000000010
  Total charge density on r-space grids:        0.0000000027
  Total charge density g-space grids:           0.0000000027

  Overlap energy of the core charge distribution:               0.00001530024306
  Self energy of the core charge distribution:             -15546.49972413128307
  Core Hamiltonian energy:                                   4156.73287725800583
  Hartree energy:                                            6363.36295193936439
  Exchange-correlation energy:                              -1276.07395766775630
  Dispersion energy:                                           -0.60874507661682

  Total energy:                                             -6303.08658237804229

  outer SCF iter =    3 RMS gradient =   0.94E-05 energy =      -6303.0865823780

  ----------------------------------- OT ---------------------------------------
  Minimizer      : DIIS                : direct inversion
                                         in the iterative subspace
                                         using   7 DIIS vectors
                                         safer DIIS on
  Preconditioner : FULL_SINGLE_INVERSE : inversion of 
                                         H + eS - 2*(Sc)(c^T*H*c+const)(Sc)^T
  Precond_solver : INVERSE_UPDATE
  stepsize       :    0.10000000                  energy_gap     :    0.10000000
  eps_taylor     :   0.10000E-15                  max_taylor     :             4
  ----------------------------------- OT ---------------------------------------

  Step     Update method      Time    Convergence         Total energy    Change
  ------------------------------------------------------------------------------


     Lanczos converged:  T threshold:   0.100E-02
     Est. extremal eigenvalues:    0.179E+01   0.427E+00
     Est. condition number :    0.419E+01
     Hotelling iter   1 1.00000000   0.402E+00       3.868   244104.319
     Hotelling iter   2 1.00000000   0.634E-01       3.363   282235.066



     Lanczos converged:  T threshold:   0.100E-02
     Est. extremal eigenvalues:    0.178E+01   0.433E+00
     Est. condition number :    0.411E+01
     Hotelling iter   1 1.00000000   0.394E+00       4.104   230039.440

     1 OT DIIS     0.10E+00  130.7     0.00001881     -6303.0865167276  6.57E-05
     2 OT DIIS     0.10E+00   51.6     0.00003584     -6303.0862857737  2.31E-04
     3 OT DIIS     0.10E+00   51.5     0.00000231     -6303.0866111894 -3.25E-04
     4 OT DIIS     0.10E+00   51.7     0.00000164     -6303.0866135317 -2.34E-06
     5 OT SD       0.10E+00   51.7     0.00000162     -6303.0866147283 -1.20E-06
     6 OT SD       0.10E+00   52.0     0.00000164     -6303.0866186255 -3.90E-06
     7 OT SD       0.10E+00   51.7     0.00000166     -6303.0866225900 -3.96E-06
     8 OT SD       0.10E+00   52.0     0.00000172     -6303.0866266154 -4.03E-06
     9 OT SD       0.10E+00   52.1     0.00000189     -6303.0866306387 -4.02E-06
    10 OT SD       0.10E+00   52.2     0.00000245     -6303.0866343476 -3.71E-06
    11 OT SD       0.10E+00   51.9     0.00000402     -6303.0866363406 -1.99E-06
    12 OT SD       0.10E+00   52.1     0.00000774     -6303.0866304345  5.91E-06
    13 OT SD       0.10E+00   52.2     0.00001587     -6303.0865893329  4.11E-05
    14 OT DIIS     0.10E+00   51.9     0.00003316     -6303.0863920361  1.97E-04
    15 OT DIIS     0.10E+00   51.8     0.00000152     -6303.0865566114 -1.65E-04
    16 OT SD       0.10E+00   52.3     0.00000152     -6303.0865589608 -2.35E-06
    17 OT SD       0.10E+00   51.9     0.00000154     -6303.0865623489 -3.39E-06
    18 OT SD       0.10E+00   52.1     0.00000162     -6303.0865656912 -3.34E-06
    19 OT SD       0.10E+00   52.0     0.00000191     -6303.0865688522 -3.16E-06
    20 OT SD       0.10E+00   52.0     0.00000280     -6303.0865712490 -2.40E-06
    21 OT SD       0.10E+00   52.0     0.00000505     -6303.0865704031  8.46E-07
    22 OT DIIS     0.10E+00   52.3     0.00001004     -6303.0865556701  1.47E-05
    23 OT SD       0.10E+00   52.3     0.00000151     -6303.0865422613  1.34E-05
    24 OT SD       0.10E+00   52.0     0.00000151     -6303.0865456311 -3.37E-06
    25 OT SD       0.10E+00   51.9     0.00000153     -6303.0865489886 -3.36E-06
    26 OT DIIS     0.10E+00   52.7     0.00000160     -6303.0865523029 -3.31E-06
    27 OT DIIS     0.10E+00   52.5     0.00000150     -6303.0865553419 -3.04E-06
    28 OT DIIS     0.10E+00   52.2     0.00000151     -6303.0865640878 -8.75E-06
    29 OT SD       0.10E+00   52.1     0.00000150     -6303.0865656077 -1.52E-06
    30 OT SD       0.10E+00   52.4     0.00000151     -6303.0865689635 -3.36E-06
    31 OT SD       0.10E+00   52.5     0.00000151     -6303.0865723228 -3.36E-06
    32 OT SD       0.10E+00   52.6     0.00000151     -6303.0865756861 -3.36E-06
    33 OT SD       0.10E+00   52.0     0.00000152     -6303.0865790521 -3.37E-06
    34 OT SD       0.10E+00   51.9     0.00000154     -6303.0865824121 -3.36E-06
    35 OT SD       0.10E+00   51.8     0.00000164     -6303.0865857266 -3.31E-06
    36 OT SD       0.10E+00   52.0     0.00000198     -6303.0865888235 -3.10E-06
    37 OT SD       0.10E+00   51.9     0.00000304     -6303.0865909541 -2.13E-06
    38 OT DIIS     0.10E+00   52.2     0.00000570     -6303.0865888266  2.13E-06
    39 OT SD       0.10E+00   51.9     0.00000150     -6303.0865857788  3.05E-06
    40 OT SD       0.10E+00   52.0     0.00000150     -6303.0865890945 -3.32E-06
    41 OT SD       0.10E+00   52.0     0.00000150     -6303.0865924116 -3.32E-06
    42 OT SD       0.10E+00   52.8     0.00000150     -6303.0865957338 -3.32E-06
    43 OT SD       0.10E+00   52.3     0.00000151     -6303.0865990611 -3.33E-06
    44 OT SD       0.10E+00   51.7     0.00000152     -6303.0866023880 -3.33E-06
    45 OT SD       0.10E+00   52.2     0.00000159     -6303.0866056884 -3.30E-06
    46 OT SD       0.10E+00   52.4     0.00000184     -6303.0866088483 -3.16E-06
    47 OT SD       0.10E+00   52.2     0.00000261     -6303.0866113851 -2.54E-06
    48 OT SD       0.10E+00   52.7     0.00000463     -6303.0866112512  1.34E-07
    49 OT DIIS     0.10E+00   52.3     0.00000912     -6303.0865997149  1.15E-05
    50 OT SD       0.10E+00   52.1     0.00000149     -6303.0865887790  1.09E-05
    51 OT SD       0.10E+00   52.3     0.00000149     -6303.0865920505 -3.27E-06
    52 OT SD       0.10E+00   52.3     0.00000149     -6303.0865953233 -3.27E-06
    53 OT SD       0.10E+00   52.2     0.00000149     -6303.0865985988 -3.28E-06
    54 OT SD       0.10E+00   51.7     0.00000150     -6303.0866018744 -3.28E-06
    55 OT SD       0.10E+00   51.8     0.00000154     -6303.0866051348 -3.26E-06
    56 OT SD       0.10E+00   51.9     0.00000170     -6303.0866083114 -3.18E-06
    57 OT SD       0.10E+00   52.1     0.00000225     -6303.0866111003 -2.79E-06
    58 OT SD       0.10E+00   52.7     0.00000381     -6303.0866121582 -1.06E-06
    59 OT DIIS     0.10E+00   52.0     0.00000751     -6303.0866055144  6.64E-06
    60 OT SD       0.10E+00   52.0     0.00000148     -6303.0866097794 -4.26E-06
    61 OT SD       0.10E+00   52.2     0.00000148     -6303.0866130103 -3.23E-06
    62 OT SD       0.10E+00   52.4     0.00000148     -6303.0866162409 -3.23E-06
    63 OT SD       0.10E+00   51.9     0.00000149     -6303.0866194702 -3.23E-06
    64 OT SD       0.10E+00   52.6     0.00000154     -6303.0866226804 -3.21E-06
    65 OT SD       0.10E+00   52.1     0.00000172     -6303.0866257908 -3.11E-06
    66 OT SD       0.10E+00   52.2     0.00000233     -6303.0866284558 -2.66E-06
    67 OT SD       0.10E+00   51.8     0.00000399     -6303.0866291947 -7.39E-07
    68 OT SD       0.10E+00   52.3     0.00000780     -6303.0866216483  7.55E-06
    69 OT DIIS     0.10E+00   52.0     0.00001594     -6303.0865783863  4.33E-05
    70 OT SD       0.10E+00   52.1     0.00000147     -6303.0866055939 -2.72E-05
    71 OT SD       0.10E+00   52.3     0.00000147     -6303.0866087828 -3.19E-06
    72 OT SD       0.10E+00   52.5     0.00000147     -6303.0866119702 -3.19E-06
    73 OT SD       0.10E+00   52.3     0.00000147     -6303.0866151569 -3.19E-06
    74 OT SD       0.10E+00   52.6     0.00000149     -6303.0866183368 -3.18E-06
    75 OT SD       0.10E+00   52.1     0.00000156     -6303.0866214806 -3.14E-06
    76 OT SD       0.10E+00   52.1     0.00000183     -6303.0866244591 -2.98E-06
    77 OT SD       0.10E+00   52.4     0.00000272     -6303.0866267046 -2.25E-06
    78 OT SD       0.10E+00   52.2     0.00000500     -6303.0866257126  9.92E-07
    79 OT DIIS     0.10E+00   51.9     0.00001014     -6303.0866103682  1.53E-05
    80 OT DIIS     0.10E+00   52.5     0.00000146     -6303.0866239858 -1.36E-05
    81 OT DIIS     0.10E+00   52.2     0.00000146     -6303.0866292702 -5.28E-06
    82 OT DIIS     0.10E+00   52.3     0.00000146     -6303.0866328174 -3.55E-06
    83 OT SD       0.10E+00   52.0     0.00000146     -6303.0866363661 -3.55E-06
    84 OT SD       0.10E+00   52.3     0.00000146     -6303.0866395154 -3.15E-06
    85 OT SD       0.10E+00   51.9     0.00000146     -6303.0866426696 -3.15E-06
    86 OT SD       0.10E+00   52.1     0.00000146     -6303.0866458296 -3.16E-06
    87 OT SD       0.10E+00   52.3     0.00000147     -6303.0866489958 -3.17E-06
    88 OT SD       0.10E+00   52.0     0.00000148     -6303.0866521646 -3.17E-06
    89 OT SD       0.10E+00   51.9     0.00000153     -6303.0866553175 -3.15E-06
    90 OT SD       0.10E+00   52.5     0.00000172     -6303.0866583710 -3.05E-06
    91 OT SD       0.10E+00   52.5     0.00000236     -6303.0866609613 -2.59E-06
    92 OT SD       0.10E+00   52.2     0.00000410     -6303.0866614997 -5.38E-07
    93 OT DIIS     0.10E+00   52.0     0.00000812     -6303.0866530043  8.50E-06
    94 OT SD       0.10E+00   52.2     0.00000145     -6303.0866414840  1.15E-05
    95 OT SD       0.10E+00   52.1     0.00000145     -6303.0866445946 -3.11E-06
    96 OT SD       0.10E+00   52.6     0.00000145     -6303.0866477068 -3.11E-06
    97 OT SD       0.10E+00   52.1     0.00000145     -6303.0866508224 -3.12E-06
    98 OT SD       0.10E+00   52.6     0.00000146     -6303.0866539412 -3.12E-06
    99 OT SD       0.10E+00   51.8     0.00000147     -6303.0866570580 -3.12E-06
   100 OT SD       0.10E+00   52.0     0.00000153     -6303.0866601498 -3.09E-06
   101 OT SD       0.10E+00   51.9     0.00000176     -6303.0866631167 -2.97E-06
   102 OT SD       0.10E+00   52.0     0.00000247     -6303.0866655394 -2.42E-06
   103 OT SD       0.10E+00   52.4     0.00000432     -6303.0866656490 -1.10E-07
   104 OT DIIS     0.10E+00   52.2     0.00000848     -6303.0866559460  9.70E-06
   105 OT SD       0.10E+00   51.9     0.00000144     -6303.0866567887 -8.43E-07
   106 OT SD       0.10E+00   52.5     0.00000144     -6303.0866598635 -3.07E-06
   107 OT SD       0.10E+00   52.3     0.00000145     -6303.0866629383 -3.07E-06
   108 OT SD       0.10E+00   52.5     0.00000146     -6303.0866660107 -3.07E-06
   109 OT SD       0.10E+00   52.0     0.00000152     -6303.0866690577 -3.05E-06
   110 OT SD       0.10E+00   52.3     0.00000175     -6303.0866719732 -2.92E-06
   111 OT SD       0.10E+00   52.8     0.00000253     -6303.0866742847 -2.31E-06
   112 OT SD       0.10E+00   52.8     0.00000460     -6303.0866738833  4.01E-07
   113 OT DIIS     0.10E+00   52.6     0.00000934     -6303.0866613278  1.26E-05
   114 OT DIIS     0.10E+00   52.3     0.00000143     -6303.0866533303  8.00E-06
   115 OT DIIS     0.10E+00   51.9     0.00000143     -6303.0866538413 -5.11E-07
   116 OT DIIS     0.10E+00   52.6     0.00000143     -6303.0866591238 -5.28E-06
   117 OT SD       0.10E+00   52.2     0.00000143     -6303.0866598085 -6.85E-07
   118 OT SD       0.10E+00   52.3     0.00000143     -6303.0866628441 -3.04E-06
   119 OT SD       0.10E+00   51.8     0.00000143     -6303.0866658818 -3.04E-06
   120 OT SD       0.10E+00   51.9     0.00000143     -6303.0866689222 -3.04E-06
   121 OT SD       0.10E+00   52.1     0.00000144     -6303.0866719648 -3.04E-06
   122 OT SD       0.10E+00   52.5     0.00000145     -6303.0866750050 -3.04E-06
   123 OT SD       0.10E+00   52.6     0.00000151     -6303.0866780203 -3.02E-06
   124 OT DIIS     0.10E+00   52.3     0.00000173     -6303.0866809110 -2.89E-06
   125 OT SD       0.10E+00   51.9     0.00000142     -6303.0866828512 -1.94E-06
   126 OT SD       0.10E+00   52.2     0.00000142     -6303.0866858475 -3.00E-06
   127 OT SD       0.10E+00   52.0     0.00000143     -6303.0866888384 -2.99E-06
   128 OT SD       0.10E+00   52.5     0.00000145     -6303.0866918224 -2.98E-06
   129 OT SD       0.10E+00   52.5     0.00000153     -6303.0866947677 -2.95E-06
   130 OT SD       0.10E+00   52.2     0.00000185     -6303.0866975240 -2.76E-06
   131 OT SD       0.10E+00   52.2     0.00000286     -6303.0866994100 -1.89E-06
   132 OT SD       0.10E+00   52.1     0.00000545     -6303.0866973379  2.07E-06
   133 OT DIIS     0.10E+00   52.3     0.00001128     -6303.0866772843  2.01E-05
   134 OT DIIS     0.10E+00   51.8     0.00000141     -6303.0866715786  5.71E-06
   135 OT DIIS     0.10E+00   52.2     0.00000141     -6303.0866737908 -2.21E-06
   136 OT DIIS     0.10E+00   52.2     0.00000141     -6303.0866761736 -2.38E-06
   137 OT DIIS     0.10E+00   51.9     0.00000141     -6303.0866804545 -4.28E-06
   138 OT SD       0.10E+00   52.1     0.00000141     -6303.0866813225 -8.68E-07
   139 OT SD       0.10E+00   52.1     0.00000141     -6303.0866842764 -2.95E-06
   140 OT SD       0.10E+00   52.4     0.00000141     -6303.0866872317 -2.96E-06
   141 OT SD       0.10E+00   52.3     0.00000141     -6303.0866901890 -2.96E-06
   142 OT SD       0.10E+00   52.4     0.00000142     -6303.0866931480 -2.96E-06
   143 OT DIIS     0.10E+00   52.3     0.00000143     -6303.0866961056 -2.96E-06
   144 OT SD       0.10E+00   52.9     0.00000141     -6303.0867147854 -1.87E-05
   145 OT SD       0.10E+00   52.7     0.00000142     -6303.0867176863 -2.90E-06
   146 OT DIIS     0.10E+00   52.1     0.00000147     -6303.0867205533 -2.87E-06
   147 OT SD       0.10E+00   52.2     0.00000140     -6303.0867260042 -5.45E-06
   148 OT SD       0.10E+00   52.3     0.00000140     -6303.0867289091 -2.90E-06
   149 OT SD       0.10E+00   52.3     0.00000140     -6303.0867318201 -2.91E-06
   150 OT DIIS     0.10E+00   51.8     0.00000141     -6303.0867347371 -2.92E-06

  Leaving inner SCF loop after reaching   150 steps.


  Electronic density on regular grids:      -2391.9999999966        0.0000000034
  Core density on regular grids:             2391.9999999990       -0.0000000010
  Total charge density on r-space grids:        0.0000000024
  Total charge density g-space grids:           0.0000000024

  Overlap energy of the core charge distribution:               0.00001530024306
  Self energy of the core charge distribution:             -15546.49972413128307
  Core Hamiltonian energy:                                   4156.73227009605944
  Hartree energy:                                            6363.36331270107530
  Exchange-correlation energy:                              -1276.07386362660327
  Dispersion energy:                                           -0.60874507661682

  Total energy:                                             -6303.08673473712497

  outer SCF iter =    4 RMS gradient =   0.14E-05 energy =      -6303.0867347371

  ----------------------------------- OT ---------------------------------------
  Minimizer      : DIIS                : direct inversion
                                         in the iterative subspace
                                         using   7 DIIS vectors
                                         safer DIIS on
  Preconditioner : FULL_SINGLE_INVERSE : inversion of 
                                         H + eS - 2*(Sc)(c^T*H*c+const)(Sc)^T
  Precond_solver : INVERSE_UPDATE
  stepsize       :    0.10000000                  energy_gap     :    0.10000000
  eps_taylor     :   0.10000E-15                  max_taylor     :             4
  ----------------------------------- OT ---------------------------------------

  Step     Update method      Time    Convergence         Total energy    Change
  ------------------------------------------------------------------------------


     Lanczos converged:  T threshold:   0.100E-02
     Est. extremal eigenvalues:    0.114E+01   0.785E+00
     Est. condition number :    0.145E+01
     Hotelling iter   1 1.00000000   0.500E-01       3.865   243616.158



     Lanczos converged:  T threshold:   0.100E-02
     Est. extremal eigenvalues:    0.105E+01   0.545E+00
     Est. condition number :    0.193E+01
     Hotelling iter   1 1.00000000   0.124E+00       4.108   229618.931

     1 OT DIIS     0.10E+00  146.5     0.00000148     -6303.0867392540 -4.52E-06
     2 OT DIIS     0.10E+00   51.0     0.00000150     -6303.0867424092 -3.16E-06
     3 OT DIIS     0.10E+00   51.5     0.00000146     -6303.0867435435 -1.13E-06
     4 OT DIIS     0.10E+00   51.7     0.00000146     -6303.0867484337 -4.89E-06
     5 OT SD       0.10E+00   51.6     0.00000146     -6303.0867497384 -1.30E-06
     6 OT SD       0.10E+00   51.7     0.00000147     -6303.0867529110 -3.17E-06
     7 OT SD       0.10E+00   52.0     0.00000147     -6303.0867560939 -3.18E-06
     8 OT SD       0.10E+00   51.7     0.00000147     -6303.0867592910 -3.20E-06
     9 OT SD       0.10E+00   51.9     0.00000148     -6303.0867625056 -3.21E-06
    10 OT SD       0.10E+00   51.8     0.00000151     -6303.0867657359 -3.23E-06
    11 OT DIIS     0.10E+00   51.9     0.00000160     -6303.0867689540 -3.22E-06
    12 OT DIIS     0.10E+00   51.7     0.00000144     -6303.0867712041 -2.25E-06
    13 OT DIIS     0.10E+00   51.4     0.00000143     -6303.0867884450 -1.72E-05
    14 OT DIIS     0.10E+00   51.7     0.00000143     -6303.0868080560 -1.96E-05
    15 OT DIIS     0.10E+00   51.7     0.00000142     -6303.0868367501 -2.87E-05
    16 OT DIIS     0.10E+00   51.7     0.00000142     -6303.0868644892 -2.77E-05
    17 OT SD       0.10E+00   51.4     0.00000142     -6303.0868663970 -1.91E-06
    18 OT SD       0.10E+00   51.3     0.00000142     -6303.0868693830 -2.99E-06
    19 OT SD       0.10E+00   51.4     0.00000142     -6303.0868723729 -2.99E-06
    20 OT SD       0.10E+00   51.5     0.00000143     -6303.0868753717 -3.00E-06
    21 OT DIIS     0.10E+00   51.7     0.00000145     -6303.0868783752 -3.00E-06
    22 OT SD       0.10E+00   51.2     0.00000141     -6303.0868831382 -4.76E-06
    23 OT DIIS     0.10E+00   51.2     0.00000146     -6303.0868859594 -2.82E-06
    24 OT SD       0.10E+00   51.4     0.00000147     -6303.0869960617 -1.10E-04
    25 OT SD       0.10E+00   51.6     0.00000140     -6303.0869987975 -2.74E-06
    26 OT DIIS     0.10E+00   51.9     0.00000142     -6303.0870013458 -2.55E-06
    27 OT DIIS     0.10E+00   51.7     0.00000134     -6303.0870300635 -2.87E-05
    28 OT SD       0.10E+00   51.7     0.00000132     -6303.0870400054 -9.94E-06
    29 OT SD       0.10E+00   51.6     0.00000132     -6303.0870425696 -2.56E-06
    30 OT DIIS     0.10E+00   51.5     0.00000134     -6303.0870451508 -2.58E-06
    31 OT DIIS     0.10E+00   51.4     0.00000128     -6303.0870688607 -2.37E-05
    32 OT DIIS     0.10E+00   51.7     0.00000127     -6303.0870891486 -2.03E-05
    33 OT DIIS     0.10E+00   51.4     0.00000125     -6303.0871250833 -3.59E-05
    34 OT DIIS     0.10E+00   51.5     0.00000128     -6303.0871796602 -5.46E-05
    35 OT SD       0.10E+00   51.7     0.00000133     -6303.0872078198 -2.82E-05
    36 OT SD       0.10E+00   51.4     0.00000125     -6303.0872100337 -2.21E-06
    37 OT DIIS     0.10E+00   51.2     0.00000130     -6303.0872120470 -2.01E-06
    38 OT DIIS     0.10E+00   51.3     0.00000139     -6303.0872347636 -2.27E-05
    39 OT DIIS     0.10E+00   51.3     0.00000116     -6303.0872449149 -1.02E-05
    40 OT SD       0.10E+00   51.3     0.00000116     -6303.0872462057 -1.29E-06
    41 OT DIIS     0.10E+00   51.9     0.00000117     -6303.0872481840 -1.98E-06
    42 OT SD       0.10E+00   51.8     0.00000117     -6303.0872488854 -7.01E-07
    43 OT SD       0.10E+00   51.4     0.00000121     -6303.0872508500 -1.96E-06
    44 OT SD       0.10E+00   51.5     0.00000134     -6303.0872527959 -1.95E-06
    45 OT SD       0.10E+00   51.8     0.00000175     -6303.0872545690 -1.77E-06
    46 OT SD       0.10E+00   51.8     0.00000285     -6303.0872554835 -9.15E-07
    47 OT SD       0.10E+00   51.7     0.00000539     -6303.0872526275  2.86E-06
    48 OT DIIS     0.10E+00   52.2     0.00001082     -6303.0872336505  1.90E-05
    49 OT DIIS     0.10E+00   51.5     0.00000104     -6303.0872413613 -7.71E-06
    50 OT DIIS     0.10E+00   51.3     0.00000103     -6303.0872423979 -1.04E-06
    51 OT SD       0.10E+00   51.6     0.00000103     -6303.0872436878 -1.29E-06
    52 OT SD       0.10E+00   51.8     0.00000104     -6303.0872452770 -1.59E-06
    53 OT SD       0.10E+00   51.3     0.00000105     -6303.0872468815 -1.60E-06
    54 OT SD       0.10E+00   51.3     0.00000106     -6303.0872485063 -1.62E-06
    55 OT SD       0.10E+00   51.6     0.00000107     -6303.0872501557 -1.65E-06
    56 OT SD       0.10E+00   51.6     0.00000110     -6303.0872518314 -1.68E-06
    57 OT SD       0.10E+00   51.4     0.00000116     -6303.0872535251 -1.69E-06
    58 OT SD       0.10E+00   51.7     0.00000134     -6303.0872551883 -1.66E-06
    59 OT SD       0.10E+00   51.6     0.00000185     -6303.0872566196 -1.43E-06
    60 OT SD       0.10E+00   51.8     0.00000306     -6303.0872570275 -4.08E-07
    61 OT SD       0.10E+00   51.7     0.00000567     -6303.0872533267  3.70E-06
    62 OT DIIS     0.10E+00   51.6     0.00001100     -6303.0872333639  2.00E-05
    63 OT SD       0.10E+00   51.8     0.00000100     -6303.0872411124 -7.75E-06
    64 OT SD       0.10E+00   52.1     0.00000100     -6303.0872426034 -1.49E-06
    65 OT SD       0.10E+00   51.8     0.00000101     -6303.0872440984 -1.49E-06
    66 OT SD       0.10E+00   51.3     0.00000101     -6303.0872455986 -1.50E-06
    67 OT SD       0.10E+00   51.7     0.00000102     -6303.0872471042 -1.51E-06
    68 OT SD       0.10E+00   51.8     0.00000105     -6303.0872486100 -1.51E-06
    69 OT SD       0.10E+00   51.7     0.00000115     -6303.0872500874 -1.48E-06
    70 OT SD       0.10E+00   51.6     0.00000151     -6303.0872514048 -1.32E-06
    71 OT SD       0.10E+00   51.8     0.00000254     -6303.0872519743 -5.69E-07
    72 OT SD       0.10E+00   51.7     0.00000498     -6303.0872491702  2.80E-06
    73 OT DIIS     0.10E+00   51.4     0.00001035     -6303.0872312121  1.80E-05
    74 OT SD       0.10E+00   51.9     0.00000099     -6303.0872417179 -1.05E-05

  *** SCF run converged in    74 steps ***


  Electronic density on regular grids:      -2392.0000001989       -0.0000001989
  Core density on regular grids:             2391.9999999990       -0.0000000010
  Total charge density on r-space grids:       -0.0000001999
  Total charge density g-space grids:          -0.0000001999

  Overlap energy of the core charge distribution:               0.00001530024306
  Self energy of the core charge distribution:             -15546.49972413128307
  Core Hamiltonian energy:                                   4156.72962675798226
  Hartree energy:                                            6363.36512736660279
  Exchange-correlation energy:                              -1276.07354193480410
  Dispersion energy:                                           -0.60874507661682

  Total energy:                                             -6303.08724171787526

  outer SCF iter =    5 RMS gradient =   0.99E-06 energy =      -6303.0872417179
  outer SCF loop converged in   5 iterations or  674 steps


  Integrated spin density:                                          0.0000000081
  Integrated absolute spin density:                                 0.0431153057
  Ideal and single determinant S**2 :                    0.000000       0.001153

 ENERGY| Total FORCE_EVAL ( QS ) energy [hartree]          -6303.087243163262428

 OPT| **************************************************************************
 OPT| Step number                                                              0
 OPT| Optimization method                                                   BFGS
 OPT| Total energy [hartree]                                    -6303.0872431633
 OPT| Used time [s]                                                    36833.744
 OPT| **************************************************************************
 OPT| Estimated peak process memory [MiB]                                  42134

 --------------------------
 OPTIMIZATION STEP:      1
 --------------------------

 Extrapolation method: ASPC

 Spin 1

 Number of electrons:                                                       1196
 Number of occupied orbitals:                                               1196
 Number of molecular orbitals:                                              1196

 Spin 2

 Number of electrons:                                                       1196
 Number of occupied orbitals:                                               1196
 Number of molecular orbitals:                                              1196

 Number of orbital functions:                                               6195
 Number of independent orbital functions:                                   6195


 SCF WAVEFUNCTION OPTIMIZATION

  ----------------------------------- OT ---------------------------------------
  Minimizer      : DIIS                : direct inversion
                                         in the iterative subspace
                                         using   7 DIIS vectors
                                         safer DIIS on
  Preconditioner : FULL_SINGLE_INVERSE : inversion of 
                                         H + eS - 2*(Sc)(c^T*H*c+const)(Sc)^T
  Precond_solver : INVERSE_UPDATE
  stepsize       :    0.10000000                  energy_gap     :    0.10000000
  eps_taylor     :   0.10000E-15                  max_taylor     :             4
  ----------------------------------- OT ---------------------------------------

  Step     Update method      Time    Convergence         Total energy    Change
  ------------------------------------------------------------------------------


     Lanczos converged:  T threshold:   0.100E-02
     Est. extremal eigenvalues:    0.666E+01   0.137E+00
     Est. condition number :    0.485E+02
     Hotelling iter   1 1.00000000   0.925E+00       3.892   242561.922
     Hotelling iter   2 1.00000000   0.739E+00       3.599   263508.390
     Hotelling iter   3 1.00000000   0.344E+00       3.332   285016.257



     Lanczos converged:  T threshold:   0.100E-02
     Est. extremal eigenvalues:    0.653E+01   0.135E+00
     Est. condition number :    0.485E+02
     Hotelling iter   1 1.00000000   0.925E+00       4.180   226409.338
     Hotelling iter   2 1.00000000   0.739E+00       3.541   267865.050
     Hotelling iter   3 1.00000000   0.344E+00       3.406   278866.607

     1 OT DIIS     0.10E+00   65.3     0.00016735     -6303.0875718814 -6.30E+03
     2 OT DIIS     0.10E+00   51.9     0.00011611     -6303.1211957432 -3.36E-02
     3 OT DIIS     0.10E+00   52.1     0.00008000     -6303.1458203101 -2.46E-02
     4 OT DIIS     0.10E+00   52.2     0.00004830     -6303.1591467965 -1.33E-02
     5 OT DIIS     0.10E+00   52.2     0.00003165     -6303.1637090991 -4.56E-03
     6 OT DIIS     0.10E+00   52.3     0.00002362     -6303.1647265047 -1.02E-03
     7 OT DIIS     0.10E+00   52.2     0.00001308     -6303.1653532909 -6.27E-04
     8 OT DIIS     0.10E+00   52.6     0.00000837     -6303.1655819577 -2.29E-04
     9 OT DIIS     0.10E+00   52.3     0.00000661     -6303.1656664860 -8.45E-05
    10 OT DIIS     0.10E+00   52.4     0.00000417     -6303.1657163225 -4.98E-05
    11 OT DIIS     0.10E+00   52.6     0.00000336     -6303.1657494858 -3.32E-05
    12 OT DIIS     0.10E+00   52.3     0.00000262     -6303.1657635424 -1.41E-05
    13 OT DIIS     0.10E+00   52.6     0.00000215     -6303.1657748814 -1.13E-05
    14 OT DIIS     0.10E+00   52.1     0.00000195     -6303.1657839614 -9.08E-06
    15 OT DIIS     0.10E+00   52.2     0.00000186     -6303.1657922968 -8.34E-06
    16 OT DIIS     0.10E+00   52.5     0.00000176     -6303.1657987419 -6.45E-06
    17 OT DIIS     0.10E+00   53.0     0.00000173     -6303.1658037790 -5.04E-06
    18 OT SD       0.10E+00   52.7     0.00000173     -6303.1658064006 -2.62E-06
    19 OT SD       0.10E+00   52.2     0.00000178     -6303.1658108679 -4.47E-06
    20 OT SD       0.10E+00   52.1     0.00000187     -6303.1658155781 -4.71E-06
    21 OT SD       0.10E+00   52.4     0.00000203     -6303.1658206105 -5.03E-06
    22 OT SD       0.10E+00   52.6     0.00000243     -6303.1658259125 -5.30E-06
    23 OT SD       0.10E+00   52.7     0.00000348     -6303.1658308396 -4.93E-06
    24 OT SD       0.10E+00   52.4     0.00000609     -6303.1658321242 -1.28E-06
    25 OT SD       0.10E+00   52.5     0.00001199     -6303.1658149488  1.72E-05
    26 OT DIIS     0.10E+00   52.4     0.00002466     -6303.1657135953  1.01E-04
    27 OT DIIS     0.10E+00   52.0     0.00000122     -6303.1658099115 -9.63E-05
    28 OT DIIS     0.10E+00   52.6     0.00000120     -6303.1658136456 -3.73E-06
    29 OT DIIS     0.10E+00   52.7     0.00000119     -6303.1658176087 -3.96E-06
    30 OT DIIS     0.10E+00   52.0     0.00000118     -6303.1658232078 -5.60E-06
    31 OT SD       0.10E+00   52.2     0.00000118     -6303.1658252765 -2.07E-06
    32 OT SD       0.10E+00   52.6     0.00000119     -6303.1658273499 -2.07E-06
    33 OT SD       0.10E+00   52.5     0.00000120     -6303.1658294480 -2.10E-06
    34 OT SD       0.10E+00   52.2     0.00000121     -6303.1658315790 -2.13E-06
    35 OT SD       0.10E+00   52.4     0.00000123     -6303.1658337489 -2.17E-06
    36 OT SD       0.10E+00   52.3     0.00000126     -6303.1658359600 -2.21E-06
    37 OT SD       0.10E+00   52.3     0.00000134     -6303.1658382003 -2.24E-06
    38 OT SD       0.10E+00   52.5     0.00000155     -6303.1658404042 -2.20E-06
    39 OT SD       0.10E+00   52.5     0.00000213     -6303.1658422982 -1.89E-06
    40 OT SD       0.10E+00   52.4     0.00000356     -6303.1658427946 -4.96E-07
    41 OT SD       0.10E+00   52.3     0.00000667     -6303.1658375528  5.24E-06
    42 OT DIIS     0.10E+00   52.3     0.00001309     -6303.1658090296  2.85E-05
    43 OT SD       0.10E+00   52.2     0.00000110     -6303.1658174963 -8.47E-06
    44 OT SD       0.10E+00   52.2     0.00000111     -6303.1658192922 -1.80E-06
    45 OT SD       0.10E+00   52.4     0.00000111     -6303.1658211037 -1.81E-06
    46 OT SD       0.10E+00   52.4     0.00000112     -6303.1658229363 -1.83E-06
    47 OT SD       0.10E+00   52.6     0.00000114     -6303.1658247920 -1.86E-06
    48 OT SD       0.10E+00   52.5     0.00000120     -6303.1658266618 -1.87E-06
    49 OT SD       0.10E+00   52.3     0.00000139     -6303.1658284878 -1.83E-06
    50 OT SD       0.10E+00   52.4     0.00000199     -6303.1658300012 -1.51E-06
    51 OT SD       0.10E+00   52.2     0.00000352     -6303.1658300230 -2.17E-08
    52 OT DIIS     0.10E+00   52.3     0.00000697     -6303.1658234344  6.59E-06
    53 OT SD       0.10E+00   52.5     0.00000105     -6303.1658225900  8.44E-07
    54 OT SD       0.10E+00   52.5     0.00000106     -6303.1658242330 -1.64E-06
    55 OT SD       0.10E+00   52.2     0.00000106     -6303.1658258910 -1.66E-06
    56 OT SD       0.10E+00   52.4     0.00000107     -6303.1658275675 -1.68E-06
    57 OT SD       0.10E+00   52.4     0.00000109     -6303.1658292644 -1.70E-06
    58 OT SD       0.10E+00   52.5     0.00000112     -6303.1658309789 -1.71E-06
    59 OT SD       0.10E+00   52.2     0.00000121     -6303.1658326888 -1.71E-06
    60 OT SD       0.10E+00   52.5     0.00000152     -6303.1658342886 -1.60E-06
    61 OT SD       0.10E+00   52.6     0.00000237     -6303.1658353218 -1.03E-06
    62 OT SD       0.10E+00   52.4     0.00000442     -6303.1658338429  1.48E-06
    63 OT DIIS     0.10E+00   52.2     0.00000886     -6303.1658215394  1.23E-05
    64 OT SD       0.10E+00   52.6     0.00000102     -6303.1658155535  5.99E-06
    65 OT SD       0.10E+00   52.4     0.00000102     -6303.1658170954 -1.54E-06
    66 OT SD       0.10E+00   52.2     0.00000102     -6303.1658186424 -1.55E-06
    67 OT SD       0.10E+00   52.5     0.00000103     -6303.1658201970 -1.55E-06
    68 OT SD       0.10E+00   52.5     0.00000104     -6303.1658217601 -1.56E-06
    69 OT SD       0.10E+00   52.3     0.00000107     -6303.1658233287 -1.57E-06
    70 OT SD       0.10E+00   52.4     0.00000115     -6303.1658248804 -1.55E-06
    71 OT SD       0.10E+00   52.5     0.00000146     -6303.1658263104 -1.43E-06
    72 OT SD       0.10E+00   52.5     0.00000233     -6303.1658271624 -8.52E-07
    73 OT DIIS     0.10E+00   52.4     0.00000440     -6303.1658254721  1.69E-06
    74 OT SD       0.10E+00   52.5     0.00000100     -6303.1658240754  1.40E-06

  *** SCF run converged in    74 steps ***


  Electronic density on regular grids:      -2391.9999999944        0.0000000056
  Core density on regular grids:             2391.9999999990       -0.0000000010
  Total charge density on r-space grids:        0.0000000046
  Total charge density g-space grids:           0.0000000046

  Overlap energy of the core charge distribution:               0.00001272613385
  Self energy of the core charge distribution:             -15546.49972413128307
  Core Hamiltonian energy:                                   4151.68271075223674
  Hartree energy:                                            6367.04108088496741
  Exchange-correlation energy:                              -1274.78109881831415
  Dispersion energy:                                           -0.60880548910763

  Total energy:                                             -6303.16582407536771

  outer SCF iter =    1 RMS gradient =   0.10E-05 energy =      -6303.1658240754
  outer SCF loop converged in   1 iterations or   74 steps


  Integrated spin density:                                          0.0000000000
  Integrated absolute spin density:                                 0.0643175674
  Ideal and single determinant S**2 :                    0.000000       0.001732

 ENERGY| Total FORCE_EVAL ( QS ) energy [hartree]          -6303.165825550979207

 OPT| **************************************************************************
 OPT| Step number                                                              1
 OPT| Optimization method                                                   BFGS
 OPT| Total energy [hartree]                                    -6303.1658255510
 OPT| Effective energy change [hartree]                            -0.0785823877
 OPT| Predicted energy change [hartree]                            -0.0955599735
 OPT| Scaling factor                                                0.0000000000
 OPT| Step size                                                     0.3136826427
 OPT| Trust radius                                                  0.4724315332
 OPT| Decrease in energy                                                     YES
 OPT| Used time [s]                                                     4136.416
 OPT|
 OPT| Maximum step size                                             0.3136826427
 OPT| Convergence limit for maximum step size                       0.0030000000
 OPT| Maximum step size is converged                                          NO
 OPT|
 OPT| RMS step size                                                 0.0279058964
 OPT| Convergence limit for RMS step size                           0.0015000000
 OPT| RMS step size is converged                                              NO
 OPT|
 OPT| Maximum gradient                                              0.0289425156
 OPT| Convergence limit for maximum gradient                        0.0004500000
 OPT| Maximum gradient is converged                                           NO
 OPT|
 OPT| RMS gradient                                                  0.0054730401
 OPT| Convergence limit for RMS gradient                            0.0003000000
 OPT| RMS gradient is converged                                               NO
 OPT| **************************************************************************
 OPT| Estimated peak process memory after this step [MiB]                  42134

 --------------------------
 OPTIMIZATION STEP:      2
 --------------------------

 Extrapolation method: ASPC

 Spin 1

 Number of electrons:                                                       1196
 Number of occupied orbitals:                                               1196
 Number of molecular orbitals:                                              1196

 Spin 2

 Number of electrons:                                                       1196
 Number of occupied orbitals:                                               1196
 Number of molecular orbitals:                                              1196

 Number of orbital functions:                                               6195
 Number of independent orbital functions:                                   6195


 SCF WAVEFUNCTION OPTIMIZATION

  ----------------------------------- OT ---------------------------------------
  Minimizer      : DIIS                : direct inversion
                                         in the iterative subspace
                                         using   7 DIIS vectors
                                         safer DIIS on
  Preconditioner : FULL_SINGLE_INVERSE : inversion of 
                                         H + eS - 2*(Sc)(c^T*H*c+const)(Sc)^T
  Precond_solver : INVERSE_UPDATE
  stepsize       :    0.10000000                  energy_gap     :    0.10000000
  eps_taylor     :   0.10000E-15                  max_taylor     :             4
  ----------------------------------- OT ---------------------------------------

  Step     Update method      Time    Convergence         Total energy    Change
  ------------------------------------------------------------------------------


     Lanczos converged:  T threshold:   0.100E-02
     Est. extremal eigenvalues:    0.213E+01   0.436E+00
     Est. condition number :    0.488E+01
     Hotelling iter   1 1.00000000   0.459E+00       3.975   237878.794
     Hotelling iter   2 1.00000000   0.885E-01       3.830   247877.906



     Lanczos converged:  T threshold:   0.100E-02
     Est. extremal eigenvalues:    0.213E+01   0.436E+00
     Est. condition number :    0.488E+01
     Hotelling iter   1 1.00000000   0.459E+00       4.138   228155.410
     Hotelling iter   2 1.00000000   0.885E-01       3.538   268321.949

     1 OT DIIS     0.10E+00   59.1     0.00019255     -6303.1289711017 -6.30E+03
     2 OT DIIS     0.10E+00   52.1     0.00012618     -6303.1720289133 -4.31E-02
     3 OT DIIS     0.10E+00   51.9     0.00008032     -6303.1992514412 -2.72E-02
     4 OT DIIS     0.10E+00   51.5     0.00004114     -6303.2148291257 -1.56E-02
     5 OT DIIS     0.10E+00   52.2     0.00003029     -6303.2172737074 -2.44E-03
     6 OT DIIS     0.10E+00   52.7     0.00002073     -6303.2180995667 -8.26E-04
     7 OT DIIS     0.10E+00   52.8     0.00000958     -6303.2184684040 -3.69E-04
     8 OT DIIS     0.10E+00   52.3     0.00000658     -6303.2186025758 -1.34E-04
     9 OT DIIS     0.10E+00   52.4     0.00000548     -6303.2186390888 -3.65E-05
    10 OT DIIS     0.10E+00   52.7     0.00000315     -6303.2186680190 -2.89E-05
    11 OT DIIS     0.10E+00   51.9     0.00000260     -6303.2186844321 -1.64E-05
    12 OT DIIS     0.10E+00   52.3     0.00000250     -6303.2186938613 -9.43E-06
    13 OT DIIS     0.10E+00   52.2     0.00000242     -6303.2187007062 -6.84E-06
    14 OT SD       0.10E+00   52.3     0.00000243     -6303.2187034432 -2.74E-06
    15 OT SD       0.10E+00   52.9     0.00000256     -6303.2187123765 -8.93E-06
    16 OT SD       0.10E+00   52.4     0.00000277     -6303.2187222530 -9.88E-06
    17 OT SD       0.10E+00   52.4     0.00000311     -6303.2187333588 -1.11E-05
    18 OT SD       0.10E+00   52.8     0.00000383     -6303.2187456191 -1.23E-05
    19 OT SD       0.10E+00   52.7     0.00000555     -6303.2187574991 -1.19E-05
    20 OT SD       0.10E+00   51.9     0.00000958     -6303.2187613266 -3.83E-06
    21 OT SD       0.10E+00   52.0     0.00001835     -6303.2187238685  3.75E-05
    22 OT DIIS     0.10E+00   52.4     0.00003661     -6303.2185056317  2.18E-04
    23 OT DIIS     0.10E+00   52.7     0.00000137     -6303.2186805342 -1.75E-04
    24 OT DIIS     0.10E+00   52.4     0.00000136     -6303.2186823089 -1.77E-06
    25 OT DIIS     0.10E+00   52.4     0.00000136     -6303.2186840964 -1.79E-06
    26 OT DIIS     0.10E+00   52.8     0.00000136     -6303.2186849252 -8.29E-07
    27 OT SD       0.10E+00   52.0     0.00000136     -6303.2186854168 -4.92E-07
    28 OT SD       0.10E+00   52.5     0.00000139     -6303.2186881644 -2.75E-06
    29 OT SD       0.10E+00   52.5     0.00000143     -6303.2186909636 -2.80E-06
    30 OT SD       0.10E+00   52.4     0.00000154     -6303.2186937875 -2.82E-06
    31 OT SD       0.10E+00   52.7     0.00000190     -6303.2186964882 -2.70E-06
    32 OT SD       0.10E+00   52.2     0.00000291     -6303.2186984061 -1.92E-06
    33 OT SD       0.10E+00   52.3     0.00000539     -6303.2186966700  1.74E-06
    34 OT SD       0.10E+00   52.5     0.00001087     -6303.2186786460  1.80E-05
    35 OT DIIS     0.10E+00   52.1     0.00002266     -6303.2185880069  9.06E-05
    36 OT DIIS     0.10E+00   52.4     0.00000112     -6303.2186534558 -6.54E-05
    37 OT DIIS     0.10E+00   52.0     0.00000110     -6303.2186541767 -7.21E-07
    38 OT DIIS     0.10E+00   52.1     0.00000111     -6303.2186548985 -7.22E-07
    39 OT SD       0.10E+00   52.4     0.00000111     -6303.2186556475 -7.49E-07
    40 OT SD       0.10E+00   52.4     0.00000112     -6303.2186574738 -1.83E-06
    41 OT SD       0.10E+00   52.5     0.00000114     -6303.2186593443 -1.87E-06
    42 OT SD       0.10E+00   52.5     0.00000116     -6303.2186612744 -1.93E-06
    43 OT SD       0.10E+00   51.9     0.00000120     -6303.2186632790 -2.00E-06
    44 OT SD       0.10E+00   52.3     0.00000128     -6303.2186653639 -2.08E-06
    45 OT SD       0.10E+00   52.1     0.00000148     -6303.2186674906 -2.13E-06
    46 OT SD       0.10E+00   52.3     0.00000205     -6303.2186694242 -1.93E-06
    47 OT SD       0.10E+00   52.2     0.00000350     -6303.2186700910 -6.67E-07
    48 OT DIIS     0.10E+00   52.7     0.00000677     -6303.2186648452  5.25E-06
    49 OT SD       0.10E+00   52.6     0.00000100     -6303.2186650536 -2.08E-07

  *** SCF run converged in    49 steps ***


  Electronic density on regular grids:      -2391.9999999933        0.0000000067
  Core density on regular grids:             2391.9999999990       -0.0000000010
  Total charge density on r-space grids:        0.0000000057
  Total charge density g-space grids:           0.0000000057

  Overlap energy of the core charge distribution:               0.00001070007910
  Self energy of the core charge distribution:             -15546.49972413128307
  Core Hamiltonian energy:                                   4146.72948611551965
  Hartree energy:                                            6370.66599806699469
  Exchange-correlation energy:                              -1273.50580677074549
  Dispersion energy:                                           -0.60862903415934

  Total energy:                                             -6303.21866505359321

  outer SCF iter =    1 RMS gradient =   0.10E-05 energy =      -6303.2186650536
  outer SCF loop converged in   1 iterations or   49 steps


  Integrated spin density:                                          0.0000000000
  Integrated absolute spin density:                                 0.0724405948
  Ideal and single determinant S**2 :                    0.000000       0.002257

 ENERGY| Total FORCE_EVAL ( QS ) energy [hartree]          -6303.218666520346233

 OPT| **************************************************************************
 OPT| Step number                                                              2
 OPT| Optimization method                                                   BFGS
 OPT| Total energy [hartree]                                    -6303.2186665203
 OPT| Effective energy change [hartree]                            -0.0528409694
 OPT| Predicted energy change [hartree]                            -0.0434466678
 OPT| Scaling factor                                                0.0000000000
 OPT| Step size                                                     0.1604913285
 OPT| Trust radius                                                  0.4724315332
 OPT| Decrease in energy                                                     YES
 OPT| Used time [s]                                                     2815.199
 OPT|
 OPT| Maximum step size                                             0.1604913285
 OPT| Convergence limit for maximum step size                       0.0030000000
 OPT| Maximum step size is converged                                          NO
 OPT|
 OPT| RMS step size                                                 0.0208993067
 OPT| Convergence limit for RMS step size                           0.0015000000
 OPT| RMS step size is converged                                              NO
 OPT|
 OPT| Maximum gradient                                              0.0102869603
 OPT| Convergence limit for maximum gradient                        0.0004500000
 OPT| Maximum gradient is converged                                           NO
 OPT|
 OPT| RMS gradient                                                  0.0020339630
 OPT| Convergence limit for RMS gradient                            0.0003000000
 OPT| RMS gradient is converged                                               NO
 OPT| **************************************************************************
 OPT| Estimated peak process memory after this step [MiB]                  42155

 --------------------------
 OPTIMIZATION STEP:      3
 --------------------------

 Extrapolation method: ASPC

 Spin 1

 Number of electrons:                                                       1196
 Number of occupied orbitals:                                               1196
 Number of molecular orbitals:                                              1196

 Spin 2

 Number of electrons:                                                       1196
 Number of occupied orbitals:                                               1196
 Number of molecular orbitals:                                              1196

 Number of orbital functions:                                               6195
 Number of independent orbital functions:                                   6195


 SCF WAVEFUNCTION OPTIMIZATION

  ----------------------------------- OT ---------------------------------------
  Minimizer      : DIIS                : direct inversion
                                         in the iterative subspace
                                         using   7 DIIS vectors
                                         safer DIIS on
  Preconditioner : FULL_SINGLE_INVERSE : inversion of 
                                         H + eS - 2*(Sc)(c^T*H*c+const)(Sc)^T
  Precond_solver : INVERSE_UPDATE
  stepsize       :    0.10000000                  energy_gap     :    0.10000000
  eps_taylor     :   0.10000E-15                  max_taylor     :             4
  ----------------------------------- OT ---------------------------------------

  Step     Update method      Time    Convergence         Total energy    Change
  ------------------------------------------------------------------------------


     Lanczos converged:  T threshold:   0.100E-02
     Est. extremal eigenvalues:    0.181E+01   0.497E+00
     Est. condition number :    0.364E+01
     Hotelling iter   1 1.00000000   0.348E+00       4.325   218326.415



     Lanczos converged:  T threshold:   0.100E-02
     Est. extremal eigenvalues:    0.180E+01   0.496E+00
     Est. condition number :    0.363E+01
     Hotelling iter   1 1.00000000   0.348E+00       4.241   222780.790

     1 OT DIIS     0.10E+00   53.4     0.00016355     -6303.1683640430 -6.30E+03
     2 OT DIIS     0.10E+00   52.2     0.00010945     -6303.2000129792 -3.16E-02
     3 OT DIIS     0.10E+00   52.3     0.00006899     -6303.2219360156 -2.19E-02
     4 OT DIIS     0.10E+00   51.6     0.00003953     -6303.2328320415 -1.09E-02
     5 OT DIIS     0.10E+00   51.8     0.00002596     -6303.2352210747 -2.39E-03
     6 OT DIIS     0.10E+00   52.5     0.00001871     -6303.2358648938 -6.44E-04
     7 OT DIIS     0.10E+00   52.6     0.00000810     -6303.2362524240 -3.88E-04
     8 OT DIIS     0.10E+00   56.9     0.00000613     -6303.2363714841 -1.19E-04
     9 OT DIIS     0.10E+00   52.7     0.00000493     -6303.2364089857 -3.75E-05
    10 OT DIIS     0.10E+00   53.5     0.00000329     -6303.2364407595 -3.18E-05
    11 OT DIIS     0.10E+00   52.3     0.00000300     -6303.2364614977 -2.07E-05
    12 OT DIIS     0.10E+00   52.7     0.00000293     -6303.2364731905 -1.17E-05
    13 OT SD       0.10E+00   52.5     0.00000295     -6303.2364803328 -7.14E-06
    14 OT SD       0.10E+00   57.7     0.00000311     -6303.2364934958 -1.32E-05
    15 OT SD       0.10E+00   52.5     0.00000333     -6303.2365081376 -1.46E-05
    16 OT SD       0.10E+00   53.0     0.00000363     -6303.2365247921 -1.67E-05
    17 OT SD       0.10E+00   52.7     0.00000409     -6303.2365438891 -1.91E-05
    18 OT SD       0.10E+00   52.5     0.00000491     -6303.2365655038 -2.16E-05
    19 OT SD       0.10E+00   52.6     0.00000657     -6303.2365883655 -2.29E-05
    20 OT SD       0.10E+00   52.5     0.00001007     -6303.2366063637 -1.80E-05
    21 OT SD       0.10E+00   52.2     0.00001708     -6303.2365964444  9.92E-06
    22 OT SD       0.10E+00   52.3     0.00003059     -6303.2364766310  1.20E-04
    23 OT DIIS     0.10E+00   52.0     0.00005612     -6303.2359602802  5.16E-04
    24 OT DIIS     0.10E+00   52.8     0.00000144     -6303.2364463550 -4.86E-04
    25 OT DIIS     0.10E+00   52.5     0.00000134     -6303.2364473893 -1.03E-06
    26 OT DIIS     0.10E+00   52.2     0.00000132     -6303.2364483649 -9.76E-07
    27 OT DIIS     0.10E+00   52.8     0.00000132     -6303.2364498545 -1.49E-06
    28 OT SD       0.10E+00   56.4     0.00000132     -6303.2364511746 -1.32E-06
    29 OT SD       0.10E+00   52.4     0.00000134     -6303.2364537754 -2.60E-06
    30 OT SD       0.10E+00   52.2     0.00000137     -6303.2364564694 -2.69E-06
    31 OT SD       0.10E+00   52.8     0.00000140     -6303.2364592817 -2.81E-06
    32 OT SD       0.10E+00   52.8     0.00000144     -6303.2364622369 -2.96E-06
    33 OT SD       0.10E+00   57.3     0.00000149     -6303.2364653601 -3.12E-06
    34 OT SD       0.10E+00   52.3     0.00000155     -6303.2364686758 -3.32E-06
    35 OT SD       0.10E+00   52.3     0.00000164     -6303.2364722015 -3.53E-06
    36 OT SD       0.10E+00   52.3     0.00000180     -6303.2364759232 -3.72E-06
    37 OT SD       0.10E+00   52.4     0.00000220     -6303.2364796984 -3.78E-06
    38 OT SD       0.10E+00   52.2     0.00000319     -6303.2364828868 -3.19E-06
    39 OT SD       0.10E+00   56.5     0.00000546     -6303.2364829080 -2.12E-08
    40 OT SD       0.10E+00   52.3     0.00001024     -6303.2364695847  1.33E-05
    41 OT DIIS     0.10E+00   52.5     0.00001994     -6303.2364027952  6.68E-05
    42 OT SD       0.10E+00   53.1     0.00000107     -6303.2364432884 -4.05E-05
    43 OT SD       0.10E+00   52.5     0.00000108     -6303.2364449850 -1.70E-06
    44 OT SD       0.10E+00   53.4     0.00000109     -6303.2364467048 -1.72E-06
    45 OT SD       0.10E+00   52.3     0.00000111     -6303.2364484577 -1.75E-06
    46 OT SD       0.10E+00   56.0     0.00000116     -6303.2364502449 -1.79E-06
    47 OT SD       0.10E+00   52.8     0.00000127     -6303.2364520471 -1.80E-06
    48 OT SD       0.10E+00   52.2     0.00000157     -6303.2364537677 -1.72E-06
    49 OT SD       0.10E+00   52.9     0.00000234     -6303.2364550258 -1.26E-06
    50 OT SD       0.10E+00   61.5     0.00000405     -6303.2364543836  6.42E-07
    51 OT DIIS     0.10E+00   52.3     0.00000752     -6303.2364464591  7.92E-06
    52 OT SD       0.10E+00   52.1     0.00000099     -6303.2364439357  2.52E-06

  *** SCF run converged in    52 steps ***


  Electronic density on regular grids:      -2391.9999999934        0.0000000066
  Core density on regular grids:             2391.9999999990       -0.0000000010
  Total charge density on r-space grids:        0.0000000057
  Total charge density g-space grids:           0.0000000057

  Overlap energy of the core charge distribution:               0.00000993094951
  Self energy of the core charge distribution:             -15546.49972413128307
  Core Hamiltonian energy:                                   4144.24394468280116
  Hartree energy:                                            6372.49375089922887
  Exchange-correlation energy:                              -1272.86702908545067
  Dispersion energy:                                           -0.60739623194131

  Total energy:                                             -6303.23644393569612

  outer SCF iter =    1 RMS gradient =   0.99E-06 energy =      -6303.2364439357
  outer SCF loop converged in   1 iterations or   52 steps


  Integrated spin density:                                         -0.0000000000
  Integrated absolute spin density:                                 0.0921675465
  Ideal and single determinant S**2 :                    0.000000       0.003927

 ENERGY| Total FORCE_EVAL ( QS ) energy [hartree]          -6303.236445379287943

 OPT| **************************************************************************
 OPT| Step number                                                              3
 OPT| Optimization method                                                   BFGS
 OPT| Total energy [hartree]                                    -6303.2364453793
 OPT| Effective energy change [hartree]                            -0.0177788589
 OPT| Predicted energy change [hartree]                            -0.0143579292
 OPT| Scaling factor                                                0.0000000000
 OPT| Step size                                                     0.0714151500
 OPT| Trust radius                                                  0.4724315332
 OPT| Decrease in energy                                                     YES
 OPT| Used time [s]                                                     3029.695
 OPT|
 OPT| Maximum step size                                             0.0714151500
 OPT| Convergence limit for maximum step size                       0.0030000000
 OPT| Maximum step size is converged                                          NO
 OPT|
 OPT| RMS step size                                                 0.0157555837
 OPT| Convergence limit for RMS step size                           0.0015000000
 OPT| RMS step size is converged                                              NO
 OPT|
 OPT| Maximum gradient                                              0.0115708409
 OPT| Convergence limit for maximum gradient                        0.0004500000
 OPT| Maximum gradient is converged                                           NO
 OPT|
 OPT| RMS gradient                                                  0.0015909849
 OPT| Convergence limit for RMS gradient                            0.0003000000
 OPT| RMS gradient is converged                                               NO
 OPT| **************************************************************************
 OPT| Estimated peak process memory after this step [MiB]                  42339

 --------------------------
 OPTIMIZATION STEP:      4
 --------------------------

 Extrapolation method: ASPC

 Spin 1

 Number of electrons:                                                       1196
 Number of occupied orbitals:                                               1196
 Number of molecular orbitals:                                              1196

 Spin 2

 Number of electrons:                                                       1196
 Number of occupied orbitals:                                               1196
 Number of molecular orbitals:                                              1196

 Number of orbital functions:                                               6195
 Number of independent orbital functions:                                   6195


 SCF WAVEFUNCTION OPTIMIZATION

  ----------------------------------- OT ---------------------------------------
  Minimizer      : DIIS                : direct inversion
                                         in the iterative subspace
                                         using   7 DIIS vectors
                                         safer DIIS on
  Preconditioner : FULL_SINGLE_INVERSE : inversion of 
                                         H + eS - 2*(Sc)(c^T*H*c+const)(Sc)^T
  Precond_solver : INVERSE_UPDATE
  stepsize       :    0.10000000                  energy_gap     :    0.10000000
  eps_taylor     :   0.10000E-15                  max_taylor     :             4
  ----------------------------------- OT ---------------------------------------

  Step     Update method      Time    Convergence         Total energy    Change
  ------------------------------------------------------------------------------


     Lanczos converged:  T threshold:   0.100E-02
     Est. extremal eigenvalues:    0.154E+01   0.366E+00
     Est. condition number :    0.422E+01
     Hotelling iter   1 1.00000000   0.404E+00       4.192   225126.211
     Hotelling iter   2 1.00000000   0.641E-01       3.495   271654.764



     Lanczos converged:  T threshold:   0.100E-02
     Est. extremal eigenvalues:    0.155E+01   0.367E+00
     Est. condition number :    0.422E+01
     Hotelling iter   1 1.00000000   0.404E+00       4.223   223551.135
     Hotelling iter   2 1.00000000   0.641E-01       3.375   281346.492

     1 OT DIIS     0.10E+00   58.8     0.00012373     -6303.2060869673 -6.30E+03
     2 OT DIIS     0.10E+00   52.0     0.00008447     -6303.2245916658 -1.85E-02
     3 OT DIIS     0.10E+00   51.8     0.00004944     -6303.2389906452 -1.44E-02
     4 OT DIIS     0.10E+00   52.0     0.00003506     -6303.2443833800 -5.39E-03
     5 OT DIIS     0.10E+00   51.8     0.00002263     -6303.2455258460 -1.14E-03
     6 OT DIIS     0.10E+00   52.5     0.00001174     -6303.2459745224 -4.49E-04
