     464
 i =        1, E =     -6303.1658255510
 Ca         4.3335303963        1.6291340439        5.1212811591
 Ca        -1.0047184150        7.2115477288        7.7966408914
 Ca        -2.1525808837        5.5623515430        4.6616312014
 Ca       -19.7914634206       24.4300766628        8.3428023070
 Ca        16.0492751872        8.0567751300        5.4343245123
 Ca        22.3070174236        0.9245578183        7.2382600730
 Ca       -14.1014822044       24.3819722017        4.3030751853
 Ca         4.1325555684        6.2673185798        7.4779310513
 Ca       -16.9317401343       22.6302331124        6.2975754103
 Ca         1.2164233373        3.7537790062        5.6900198714
 Ca         1.1901082682       22.7493625173        3.2712525704
 Ca        19.0977482586        3.4711826338        5.6644170958
  S       -21.0235405585       24.2856708130        5.5179263377
  S        -1.9292971578        4.2965516424        7.6093504871
  S        -1.4937638713        8.6619539434        4.3600138912
  S         4.2448542720        2.8211752079        7.8885271358
  S         1.1127440220        0.9896688862        3.0346324841
  S        -4.7181632371        6.5340994283        6.0124961943
  S         0.9302885427        5.6645575548        2.7331697378
  S         7.3522555588        0.4400240184        6.3232614228
  S         4.4362631463        4.3806944353        4.1666269149
  S       -14.6268747569       23.6422890334        8.7719125810
  S        -1.8047528443        2.6216916620        3.9705700769
  S        -6.7724791479        8.8036212422        8.7991045648
  O       -20.1385432443       23.2088171604        5.9903434122
  O        -1.5523899079        3.0129330952        8.2183307037
  O        -2.3000857640        9.6364311217        5.1383533018
  O         4.2433671041        4.1090372107        8.6200040655
  O       -22.3980331321       23.7986883946        5.2776299867
  O        -3.0368271217        4.1331684688        6.6461979404
  O        -0.4858083852        9.4273300633        3.5864268429
  O         5.4755150146        2.7177958686        7.0370076440
  O       -20.4649625510       24.9023454510        4.2851117998
  O        -0.7982383784        4.8409725633        6.7514544350
  O        -2.3379836583        7.7487689964        3.5687760832
  O         3.1000531844        2.7566264773        6.9453676961
  O         3.1246172411        0.0184466372        6.5639296220
  O        -2.2274266903        5.2933216934        8.6463909800
  O        -0.7112066028        7.7609249147        5.3039399671
  O         4.2556012407        1.6897075162        8.8333446816
  O       -23.7676226715       24.9918357978        3.0121035390
  O        -5.2833162034        5.6998734759        7.0965517783
  O         1.0736075392        7.0193721594        2.1507990882
  O         8.0072435239        1.4717605956        7.1685577555
  O       -15.8443445675       24.7723396075        5.9131767276
  O         2.0010132022        5.3772669612        7.2045166028
  O        -5.5881787057        7.6937263017        5.7232472710
  O         2.4140608329       22.6631162275        8.3367903056
  O         1.3472830157        1.4628260596        4.4258747105
  O        -3.3588727036        7.0288505061        6.3522750464
  O         1.2239017328        5.7154317265        4.2174358435
  O       -17.9350150653       25.1062955994        7.0403490419
  O         3.2114415904        3.5268531091        4.2170796277
  O       -14.1817158075       25.0399276220        8.6730610231
  O        -1.5029347268        1.8731609417        2.7553596317
  O        16.5248967797        7.8300591828        7.9899717612
  O         4.4375816304        5.2413295277        2.9859078039
  O       -15.8896610144       23.9550213685        3.0840770099
  O        22.2435958060        1.6433993462        5.1029865246
  O        -7.2150844486        8.9531690429        3.5914867323
  O         5.6064608401        3.4413949959        4.1707890862
  O       -13.6649276514       22.7091291392        8.1417492354
  O        -3.0868880909        3.3786371080        3.9376522597
  O        -7.5176469507       10.0152420239        9.1229036008
  O         4.5195359769        5.2084137701        5.3983323714
  O       -16.0214108081       23.4232555236        8.4139601726
  O        -0.7406489562        3.6531494471        4.2480038205
  O        -5.3880985739        8.9873612152        8.3915751302
  O         6.7792445398        1.1444352391        5.1306671166
  O         1.2331909366        6.6253217573        7.0878119162
  O        -4.5489920205        5.6751822043        4.7948742844
  O         1.7313296417       22.4286289522        9.3772118971
  O       -18.0210724861       23.0404897008        4.1761369097
  O         0.5557472040        1.6427648530        7.1469588747
  O         3.2101376414        7.7197671632        5.7918622823
  O         8.4474685132        0.0750158721        2.9859160833
  O        -0.8896902737       24.4235731625        5.9434311950
  O        16.7212955805        7.5138617079        3.2652179606
  H         3.4058175078        8.6188875907        6.1483338220
  H         7.7479794038        0.4204042701        3.5761075778
  H        -1.0422194458       23.4816173295        6.1881494113
  H        -6.4616762034        7.1419690349        3.4395075372
  H         1.9022814609        7.1821041497        6.5758669068
  H       -14.5664092475       23.3975075489       10.0987727351
  H         0.0802935586       24.4211462497        5.7731142901
  H        -6.6729339171        8.1536818433        9.9925307941
  H       -17.2284236509       23.4076184539        3.6232031261
  H         1.3409190026        1.0907479652        6.9702762667
  H        -5.8108457174        9.3682896680        3.6598635397
  H         0.8125362158        2.2255195935        7.9237668609
 Ca        -7.6859283506       14.0220356442        5.5038862660
 Ca       -13.9014403736       20.2704315820        8.3111537474
 Ca       -14.0893815854       18.1423068273        4.9096083348
 Ca        -6.6672426677       12.4013954724        8.9358695094
 Ca       -19.7824407809       20.9869909574        4.3976253909
 Ca         9.7417287291       14.2027729771        8.3324890081
 Ca        -1.5535821069       11.8539013692        4.1859199656
 Ca        -9.0066702202       18.3989985948        8.2533232006
 Ca        -4.4828336934        9.8431531581        6.2439927025
 Ca       -11.0131404024       15.7004534105        5.8655838054
 Ca        12.5240110933        9.8119411164        5.4122784136
 Ca         6.7779342676       16.5029748903        6.2787591416
  S        -8.0305620607       11.0602042214        5.9259533178
  S       -14.3880602275       17.2271829451        8.3215458363
  S       -13.9282534101       21.2072710941        4.7425357560
  S        -8.2862981669       14.9959847467        8.3127245503
  S       -10.1807522720       12.7511876475        3.4657579192
  S       -17.0848421322       19.5713362904        6.3816625225
  S       -11.5155501618       18.1522585354        3.1084363719
  S        -4.3347372893       12.9411642703        6.4476584727
  S        -7.7819848286       17.2292257616        5.0465381870
  S        -1.5822608859       10.2412803146        8.3519158501
  S         9.6463963970       15.0245952929        4.8286423256
  S       -18.6631265979       21.7857147576        9.3459674374
  O        -6.8815914843       10.1441085815        6.1205082793
  O       -13.3210397542       16.3150240158        8.7845512543
  O       -14.9966072927       22.1530562688        5.1642804005
  O        -8.3087497100       16.3189245112        8.9579187093
  O        -9.2561215226       10.2056456233        5.9725015088
  O       -15.5467382147       16.3902991555        7.8984857945
  O       -12.8470360355       22.0841521470        4.1821561823
  O        -6.9162507014       14.6744333817        7.7512700946
  O        -7.9297965696       11.7998501832        4.6453536857
  O       -13.9050983058       18.0472519270        7.1773354363
  O       -14.3898357463       20.2267744614        3.7483374977
  O        -9.1916196802       14.9637873969        7.1326293516
  O        -8.0804217357       12.0863148992        7.0053502765
  O       -14.7868433405       18.1732750151        9.3813681381
  O       -13.4093305510       20.4400505443        5.9092854541
  O        -8.6252423456       13.9419759165        9.2742060727
  O       -11.0503579075       11.7789731316        4.1481864376
  O         6.0047680701       18.7566263019        7.1476951944
  O       -11.1916930280       19.5696490704        2.7448989669
  O        -3.5783490638       13.9222777898        7.2666979823
  O        -3.4520018642       12.1295808680        5.5902261074
  O       -10.5346329408       19.8500127060        8.8857602590
  O       -17.7636736157       20.5401678501        5.4849467842
  O       -12.1594890696       14.3099230983        7.4190012446
  O        -9.8696611859       13.9492212234        4.2958858279
  O       -16.2101445449       20.3622144086        7.2738758431
  O       -11.6303484591       17.9971192267        4.6326904160
  O        -5.0409971606       11.9620239819        7.3213401121
  O        -7.4678534567       18.2174203836        4.0234264716
  O        -2.0064059084       11.6089380425        8.0936021816
  O         9.6702856695       14.1577410846        3.6506462352
  O       -19.3894085059       20.5220373099        9.4892821279
  O        -7.8738283514       17.9810227099        6.3576018442
  O        -2.5490635474       10.9157766245        2.3939967721
  O         9.4277861039       14.1569296598        6.0176680557
  O       -20.6497121456       22.5860612081        2.9732561119
  O        -6.7239422818       16.1786197811        5.1836371961
  O        -0.2612827915        9.8813588639        7.7930687958
  O         8.5836238931       16.0832209078        4.7583238343
  O       -19.1700618451       22.9057524258       10.1509422893
  O        -9.0552801652       16.5297225827        4.7844645984
  O        -2.6422568396        9.2719914855        8.0041377073
  O       -13.1570202273       15.8191222118        4.9416258329
  O       -18.5847647208       22.2350110790        7.9137569891
  O        -5.3297909534       13.7170054709        5.6590738427
  O       -11.5809541860       19.8435605894        7.8450446173
  O       -16.3038217113       18.5962593343        5.5712782915
  O       -11.7127183883       13.5739922935        6.3554228603
  O        -4.8250529532        9.6806019880        3.8615686364
  O       -11.0477574559       17.3950974014        7.5798112259
  O       -10.1665719893       20.0831401400        5.7767556927
  O        -3.6090433425       11.6787004627        2.8433428502
  O        10.9473535194       11.4886926044        6.1526566320
  O         3.2338637689       21.3298603416        2.1654841402
  H       -10.7838930475       20.1470227460        6.6413415241
  H        -4.2638834511       10.9631325754        3.1896997103
  H        10.5649132968       11.4719271833        7.0536960620
  H       -20.2807275799       21.5395073146        1.3950595347
  H       -10.5328877455       19.2676020264        5.3628968323
  H        -1.4402113150       10.0852920138        9.6888050396
  H        11.5228880572       12.3552414860        6.2054158224
  H       -17.3789249180       21.5209941620        9.7333021850
  H        -4.2123151071        9.0294936884        3.4734655393
  H       -11.6446015670       16.9119063842        8.1955251381
  H       -18.7688521730       23.6337597965        3.9857315250
  H       -11.4625300967       18.3647018486        7.5911864797
 Ca        16.0199880581        1.4903576867        5.4064856407
 Ca        10.4035686257        7.9128575727        7.8503875014
 Ca        10.1269276779        5.7810884213        4.4989711492
 Ca        -7.9486618853       24.8796299014        8.6668899137
 Ca         4.8353893822        7.2877209571        3.8910473847
 Ca        10.4974210781        1.6313239261        7.5062807589
 Ca        -2.2203229239       24.8103029405        3.8133502568
 Ca        16.5580602345        5.4414707150        7.8117962495
 Ca        -4.9695268494       22.7912540505        6.0912756142
 Ca        13.0462461925        4.4956516739        6.3561208328
 Ca       -10.6069817585       21.5362904827        3.8661745628
 Ca         7.3589273360        3.4608531096        5.7783767078
  S        -8.6651135788       23.8302868624        5.4516202152
  S        10.3569685494        4.8119829142        7.8777101729
  S         9.7199786684        8.8435890395        4.4433366960
  S        16.5759475988        2.5389780195        8.4373756704
  S        13.1959424573        0.6721287150        3.1947885305
  S         7.2763716155        6.4737193309        6.5528245712
  S        13.3873213673        6.9213905675        3.3943409592
  S        19.2532672705        0.4810979393        6.3900675290
  S        15.9539694256        4.4425402800        4.6028725557
  S        -2.3106531993       23.1739952225        8.7730323995
  S        10.4197838233        2.7086325160        4.3121296586
  S         5.1513286415        9.6002851946        9.1793510361
  O        -7.7355740596       22.7579268527        5.8676124448
  O        11.4911018140        3.9088504612        8.1987276102
  O         8.5556264066        9.4964531042        5.0768555936
  O        16.0387762383        3.6631465903        9.2189111416
  O       -10.0334346634       23.3252398451        5.1851634497
  O         9.2421852253        3.9631477518        7.3917511184
  O        10.5652171401        9.8818442315        3.8097134761
  O        17.3467994095        3.1402694120        7.2840588160
  O        -8.1400240957       24.6028758953        4.2927858559
  O        10.8253022742        5.7465629900        6.7883748682
  O         9.3233326052        7.7692507217        3.5188383950
  O        15.4639559709        1.7551338035        7.7833903670
  O        -8.8030890585       24.8316724095        6.5522302904
  O         9.9567587245        5.6586012852        9.0145311271
  O        10.5761948500        8.1827807671        5.5133482531
  O        17.3800423806        1.6019429713        9.2206370299
  O       -11.9611407311       24.9172349360        3.3591009513
  O         6.6245472608        5.4396828922        7.3968662905
  O        13.7720537111        8.0840715443        4.2740653471
  O        19.9030627967        1.5332122143        7.1944087573
  O        -3.8655034524       24.9761523419        5.7950483720
  O        14.1050773366        6.6435130327        6.5909087860
  O         6.2144245490        7.3637798256        5.9941577272
  O       -10.2164582529       24.8448179889        9.0448732392
  O        13.7451017488        1.1563668612        4.4968580399
  O         8.2210925796        7.2923655565        7.3033763632
  O        12.4155878866        6.0235855216        4.1191787704
  O        -5.8322971106       24.9551078424        7.1761669898
  O        15.3733931635        4.9214701513        3.3788424276
  O        -1.9393157629       24.5914400961        8.8128920938
  O        10.9180566194        2.3119474898        3.0196632997
  O         5.2870679675        8.4093151450        8.3109969088
  O        16.4623036955        5.5487804578        5.4771836356
  O        -3.9768652175       24.3974359659        2.5845334142
  O        10.1907740488        1.5247120248        5.2084991914
  O         3.5051798778        8.9765791114        3.1350025920
  O        17.0703448840        3.4564403904        4.3920932255
  O        -1.1682411857       22.2627497571        8.8278649952
  O         9.1437486991        3.5173055646        4.2278948529
  O         3.7918401819       10.1597640311        9.2671935461
  O        14.9494940552        3.6584694816        5.4306320586
  O        -3.2972498783       22.8457298616        7.7547336998
  O        11.3606609659        3.6281767676        5.0358122125
  O         6.2066050558       10.5747207600        8.8836588206
  O        18.4468175252        1.1602386818        5.3172670249
  O        14.3191412918        5.7366126001        7.7554770055
  O         7.9399357966        5.7619425119        5.4212510271
  O        -9.6028445162       24.8832882778       10.2394404892
  O        -5.7994148152       23.2896356274        3.9302142839
  O        12.8451248885        1.9569105745        6.9606319642
  O        12.5464425134        8.5451629560        7.4000854077
  O        20.0255165009        0.4714923148        2.9593378700
  O       -12.5560035059       24.4587582751        6.2456911650
  O         4.1866370944        8.3328992944        1.9859327735
  H        13.1440473065        8.9069869562        8.0709457369
  H        19.2745505269        0.4659076787        3.5842596659
  H       -12.7754412900       23.7853515603        6.9265157235
  H         4.7102609308        9.0816428463        1.6520066987
  H        13.4520311064        7.3458171268        6.9665169187
  H        -2.9457862718       22.9981475756        9.9556728346
  H       -11.6622758294       24.1950951727        5.9407495261
  H         5.4082128780        9.1562279379       10.4328185420
  H        -5.0760311260       23.6718737161        3.2927149720
  H        13.0270197574        1.4882898367        6.1141999560
  H         5.1303637684       10.0578859667        3.8456433551
  H        13.6191721969        1.7242105622        7.5233928914
 Ca         4.0646065803       14.0632922505        5.5763727448
 Ca        -0.8611225729       20.2442614612        7.6779049172
 Ca        -2.3712834749       18.2569972593        4.9938410512
 Ca         3.3652883185       12.5534336471        8.8295485285
 Ca        -7.6783160089       20.2688261887        5.3101915901
 Ca        -1.0914943875       13.7837782639        8.0094238018
 Ca         9.0251325818       11.9902880441        4.5102451268
 Ca         3.7839103568       18.7432300599        8.1557698072
 Ca         6.6807598722        9.7632889541        6.5441598931
 Ca         0.7633312079       16.5863671883        5.6736010455
 Ca         1.5555172185        8.4331206558        4.1176112242
 Ca        -4.8890545535       15.9649052145        6.7111778214
  S         3.3104984506       11.1616625249        5.6227614457
  S        -1.7212255140       17.3917552751        8.1873729523
  S        -1.8678503667       21.6823402673        4.4869969668
  S         4.1291289232       15.5741440069        8.7111436307
  S         1.4070609236       13.9450779033        3.4892625222
  S        -4.5943546537       19.4345546262        6.6400363845
  S         1.0203781622       19.4356457202        3.7734084467
  S         6.6459940437       13.1320781351        6.9383094526
  S         3.6083690176       17.4077926320        4.9082069960
  S         9.3996370372       10.4973018200        9.0164000280
  S        -1.8775188620       15.3152739421        4.6975042073
  S        -7.2478831076       21.5759995788        8.6782311859
  O         4.2538178294       10.2378077297        6.2950120280
  O        -1.1221435108       16.2525776532        8.9276345166
  O        -3.0577819135       22.5295578012        4.7358255336
  O         3.2570013728       16.6648136923        9.1842236185
  O         2.1632120869       10.4265981470        5.0769804632
  O        -3.0133554447       16.9934719738        7.6270426515
  O        -1.0529817592       22.4399598781        3.4703789276
  O         5.3376497109       16.1665096529        8.0916729549
  O         4.0289258895       11.9370638123        4.5690306581
  O        -0.8525503990       17.8044455197        7.0064629854
  O        -2.2198119440       20.3597585987        3.9583307798
  O         3.3772049665       14.7991660947        7.6347645267
  O         2.7673279222       12.1708393077        6.5936990429
  O        -1.8211373632       18.5634986605        9.0693976433
  O        -1.0504798571       21.5762980683        5.7252441927
  O         4.4621200795       14.5931227256        9.7536804679
  O         0.5957686749       12.7106818990        3.3929107141
  O        -5.1613473343       19.1871150321        7.9585529110
  O         1.6646162455       20.6964240765        4.3131950828
  O         7.4500408261       13.5983445742        8.0644714686
  O         7.3116853773       11.9618922135        6.2874624717
  O         1.4282063222       19.5724378884        8.2598610988
  O        -5.3672318695       20.5130382128        5.9360948274
  O         0.9935487200       12.6981069240        8.8797652953
  O         1.7078716251       14.3217067714        4.9351151529
  O        -3.1559332126       19.8416755490        6.6960414026
  O         0.1167957764       18.8203466805        4.8092800149
  O         5.2775550734       12.7607678365        7.3522836487
  O         2.5460823942       16.8862613324        4.0290986812
  O         9.9533698034       11.8293786297        8.7460631788
  O        -1.0403743092       16.4164325899        4.0882181908
  O        -7.7948642343       20.4879755846        7.8487057952
  O         4.2328395722       18.6248891837        4.3900335326
  O         7.5425144462       11.2006876912        3.0274065892
  O        -1.9663030756       14.1584190737        3.8227211800
  O        -8.5318519359       21.3702860936        3.5082806850
  O         4.6719414838       16.3532987106        5.0937463470
  O        10.3357339533        9.5700081278        9.6555953211
  O        -3.2007488375       15.9435004571        4.9611049834
  O        -8.2502351246       22.5342039074        9.1552666742
  O         2.9522391897       17.6528597683        6.2442310003
  O         8.8070486766        9.8725297790        7.8191757912
  O        -1.1718505385       14.9719361109        5.9647884298
  O        -6.0380027529       22.2127338682        8.1823429498
  O         6.4571614736       14.1974728883        5.8946310815
  O         1.2801973890       20.2779218545        7.0879950618
  O        -4.6520891592       18.2229358994        5.7627929889
  O         1.5904777113       13.5222457346        9.8036604188
  O         5.9596349911        9.5937432345        4.1232483956
  O         0.8885516404       15.3728274120        7.6649314247
  O         3.6541237447       20.5376147581        6.5935091821
  O         6.8978742405       12.4468922447        3.5098146863
  O        -0.1161264222       12.2360897528        6.2209119547
  O        -7.1370977247       21.0967500688        3.2095460079
  H       -20.0712566437       21.3252620595        7.0610431214
  H         6.1129995621       12.1296532824        4.0017646133
  H         0.0658323339       11.4052207779        6.7142215800
  H        -6.6984267766       21.9828379422        3.3789476575
  H         2.6180875490       20.5843827088        6.7207251755
  H         8.3702196963       10.7111532992        9.8741991502
  H         0.7919304323       12.5423762447        6.0235479688
  H        -6.8343277616       20.9324009053        9.8027169960
  H         6.6832158999       10.1540427752        3.6024906528
  H         1.8230450336       15.0858085304        7.8257466432
  H        -6.5870697300       23.8747748157        3.8877323294
  H         0.6168285429       15.8801019726        8.4546492917
  O         7.1427691830       17.5161470864       13.1029978893
  H       -15.9888362956       17.4583417211       12.8340118221
  H       -17.1462898278       18.4480299595       12.9714832651
  O         3.0039265037        7.2201900633        9.2944680545
  H         2.0606566926        6.8343477572        9.5086246814
  H         2.8597726960        8.1793104708        9.2031235645
  O        -5.9051556143       12.8610058890       12.6256380030
  H        -5.9625239954       12.8445674293       13.5877821139
  H        -6.7659291956       12.5360294084       12.2906653122
  O         9.8081085090        2.1594289455        9.8023033956
  H        10.3607988476        2.7755628141       10.3798153425
  H         9.7979684235        1.2845121461       10.2217154828
  O        -3.0994600880       16.0913165395       10.8054559402
  H        -3.1477245394       16.5428225345       11.6575299366
  H        -2.2506123841       16.3559691566       10.3859926152
  O         4.1796686867        7.0747217036       11.7487940730
  H         4.1400848545        8.0329735857       12.0122264523
  H         3.6796857859        7.1065230184       10.8959827229
  O         1.1800039923        3.4963224902        8.9243122412
  H         1.4862429720        4.3220927157        8.4320826533
  H         0.3386069969        3.8059276496        9.2977409503
  O        -8.0242657603       12.0794858290       11.0437018392
  H        -8.5388773852       11.2650429484       10.9400167558
  H        -8.6160930299       12.8029465817       10.7538916099
  O         1.1828604550       10.0427248670       10.9419082449
  H         1.0051765514        9.9561634530        9.9918818206
  H         0.8195946466        9.2014515980       11.3426198910
  O        -5.7417350364       14.1915014225       10.2268131575
  H        -5.6652999352       14.1070794423       11.1938436831
  H        -5.9231356247       15.1230792505        9.9994869026
  O       -21.5056276173       25.0212783733        9.7875854900
  H         2.7062211614        0.5255177541       10.2372189553
  H       -21.9594938714       24.3573194235       10.3340591732
  O        -5.2751814979       16.6869577734        9.1046061551
  H        -4.4270042221       16.5405685850        9.5769119966
  H        -5.2600977591       17.6421056085        8.8701653335
  O         5.3829069394        4.7403501010       11.0410656534
  H         5.2201243249        5.6694272916       11.3346597951
  H         4.9270710054        4.6877761002       10.1749530483
  O       -14.4029254107       17.3270586336       11.8951959241
  H       -14.5301705558       17.4601848300       10.9234186896
  H       -14.4249061631       19.0012977736       12.2123490771
  O         9.1974110965       14.3878801101       10.6029813730
  H       -13.8952141109       16.5070493138       11.9636669848
  H         9.1125082359       13.6224577032       11.1850352429
  O        -2.1900350324       13.5377195170       10.0841409624
  H        -2.6147458781       14.3176393119       10.4885605480
  H        -1.5101508555       13.1608698335       10.7557398613
  O        11.1580500739        4.0871774699       11.0061679254
  H        10.6176079344        4.8012321059       10.6168685374
  H        11.9052337291        4.0509603289       10.3858552095
  O         3.1193929282        9.1227771530       14.6848039350
  H         2.6351225014        8.2707256642       14.5006392563
  H         2.7698542880        9.4647885347       15.5140320081
  O         2.0961970230        6.8365395598       13.7605549181
  H         2.8725107104        6.7130612914       13.1795640514
  H         1.4078846382        7.1735532123       13.1061398265
  O         3.7994360456        9.7706624223       12.1273341781
  H         2.9552204222        9.9439522328       11.6554074340
  H         3.5257198386        9.7769570781       13.0737983669
  N        -0.2782508784       12.5901107605       11.6582549617
  H         0.5020273023       13.1980453612       11.3870189981
  H         0.0965621177       11.6568538537       11.4511587901
  H        -0.4039430694       12.6392379204       12.6638472705
  N         2.4425906188        4.2752733708       11.3414757106
  H         2.3666221466        3.5391299208       10.6337100305
  H         3.4300704459        4.4441111914       11.5624291937
  H         1.9621780266        5.1023945392       10.8848383093
  N        -4.6559984406       11.5471936132       10.1123893057
  H        -4.7159637035       11.4961886302       11.1267504244
  H        -3.8999252667       12.2131911831        9.9104528266
  H        -4.3214774902       10.6499252637        9.7667552615
  N         0.6461597217        4.2927054516       13.4706259036
  H         1.0476251976        5.1083060946       13.9464242152
  H        -0.2313159973        4.6317711453       13.0748119797
  H         0.4130829971        3.6116676040       14.1866425747
  H         1.8401436300        4.0895393938       12.1989173292
  N         7.2361319164        3.4287264981        9.4495602106
  H         8.1762456845        3.0318353099        9.6206671802
  H         6.7672869087        3.8230327308       10.2886789919
  H         6.6445010746        2.7024190226        9.0310447354
  H         7.2938638489        4.1911669545        8.7567870247
  N         7.0682553461       15.7647111903       10.6497609967
  H         7.1796376328       16.4045265802        9.8651630268
  H         6.8866131376       16.3281066225       11.4853489372
  H         8.2475093344       14.9502519124       10.6859610681
  H         6.2242852140       15.2321968780       10.4346288075
  N       -10.9822814543       22.2117675844        9.8056565453
  H       -10.6496842612       21.2663587800        9.3661909288
  H       -11.9053011859       21.9864926546       10.2147790060
  H       -11.0432787093       22.9812082562        9.1309570969
  H       -10.3409133060       22.5543458712       10.5186854829
  P       -14.5564901867       20.9311518893       11.1859212744
  O       -13.1784241659       20.7903860796       10.5856193078
  O       -14.8229444081       19.9005236291       12.3493457732
  O       -15.6018255070       20.9893858297       10.1068622900
  O       -14.6859737959       22.3040044931       12.0205399684
  H       -14.6579806896       22.1587910137       12.9766017392
  P        -0.1359798941        6.8983216541       10.8387099370
  O         0.9324679305        6.0681351534       10.0897570761
  O        -0.8776182731        7.7920101302        9.8619999010
  O         0.3930889731        7.6882804928       12.0118012535
  O        -1.2063056712        5.8361174002       11.4116918287
  H        -1.7751436168        5.5197966209       10.6835195135
     464
 i =        2, E =     -6303.2186665203
 Ca         4.3272012342        1.6031621862        5.1178097932
 Ca        -1.0003244658        7.2118621499        7.7753661638
 Ca        -2.1611597025        5.5961811099        4.6691134934
 Ca       -19.8256029514       24.3933367821        8.3411838896
 Ca        16.0345992397        8.0427351401        5.4046523696
 Ca        22.3043998002        0.9162775346        7.2385424181
 Ca       -14.1143185862       24.3708192588        4.2734040780
 Ca         4.1361051145        6.3008875438        7.4501943024
 Ca       -16.9419405676       22.6234529170        6.2994131142
 Ca         1.2047649501        3.7528354564        5.6954991746
 Ca         1.1809644634       22.7495570471        3.2537762895
 Ca        19.0972898157        3.4661594626        5.6685539176
  S       -21.0244701469       24.2791719264        5.5128608197
  S        -1.9239700723        4.2912607528        7.6142181204
  S        -1.4925239222        8.6519479224        4.3668938087
  S         4.2473254012        2.8199151910        7.8999009721
  S         1.1437007135        0.9837264909        3.0251827484
  S        -4.7103327938        6.5326058614        6.0144192689
  S         0.9297515654        5.6590555303        2.7195673306
  S         7.3515399369        0.4397869787        6.3281331773
  S         4.4344942769        4.3594121422        4.1505782605
  S       -14.6295237078       23.6322981815        8.7933261710
  S        -1.8073170288        2.6190714468        3.9580442288
  S        -6.7745535257        8.7892786164        8.8347956814
  O       -20.1282480941       23.2060185977        5.9929415304
  O        -1.5468651428        3.0028859454        8.2346308110
  O        -2.2963018392        9.6471002077        5.1324096173
  O         4.2360473468        4.1183245216        8.6298356551
  O       -22.4077844089       23.7954493521        5.2754740806
  O        -3.0331882104        4.1228192989        6.6401441646
  O        -0.4913462087        9.4232133918        3.5751623378
  O         5.4792606010        2.7134486925        7.0360150330
  O       -20.4600148452       24.8886651688        4.2657710274
  O        -0.7811678702        4.8533982818        6.7704253919
  O        -2.3517714002        7.7601175443        3.5482087325
  O         3.0987126720        2.7538911702        6.9480277338
  O         3.1188509975        0.0263771976        6.5582817322
  O        -2.2319003717        5.2895140298        8.6599962202
  O        -0.6873661121        7.7403512628        5.2974540771
  O         4.2633860176        1.6870532113        8.8571335929
  O       -23.7790956131       24.9938910553        2.9922380814
  O        -5.2845624212        5.6932599916        7.1038751011
  O         1.0730537933        7.0249738725        2.1343992171
  O         8.0101741389        1.4840647062        7.1761735843
  O       -15.8304736401       24.7728763862        5.9254222596
  O         2.0063475253        5.3768451600        7.2007128542
  O        -5.6002054698        7.6862941319        5.7276521593
  O         2.3978856347       22.6458235894        8.3008343267
  O         1.3523468612        1.4665042027        4.4327416541
  O        -3.3362109144        7.0088201283        6.3533634876
  O         1.2243400338        5.7087837180        4.2153337096
  O       -17.9495606748       25.1024308384        7.0372956242
  O         3.2028361715        3.5025341603        4.2089991364
  O       -14.1842408437       25.0408209166        8.6953224275
  O        -1.5106519621        1.8725696562        2.7320656778
  O        16.5159633387        7.8412157532        7.9845442886
  O         4.4278616480        5.2211513293        2.9572008377
  O       -15.8856914789       23.9421535884        3.0671274344
  O        22.2445863178        1.6377268041        5.1003985147
  O        -7.2271027391        8.9542589720        3.5715149701
  O         5.6091265473        3.4135974078        4.1511128670
  O       -13.6650048816       22.7125388855        8.1397595284
  O        -3.0943404854        3.3850818060        3.9292915883
  O        -7.5306991298       10.0124688316        9.1225248193
  O         4.5263975009        5.2158309746        5.3686095017
  O       -16.0267877179       23.4300621788        8.4117644943
  O        -0.7379031484        3.6610807361        4.2323064991
  O        -5.3956007584        8.9828778424        8.3902409902
  O         6.7807824165        1.1467648983        5.1225227207
  O         1.2414933528        6.6265206675        7.0912101787
  O        -4.5698519239        5.6664160300        4.7836222281
  O         1.7502311043       22.4333182879        9.3998478543
  O       -18.0177561220       23.0365781704        4.1713930204
  O         0.5637552186        1.6499993112        7.1389294146
  O         3.1913624485        7.7125425257        5.7971639998
  O         8.4380625536        0.0730929454        2.9624751803
  O        -0.8923566250       24.4198153464        5.9456325852
  O        16.7245330887        7.5110804334        3.2487918134
  H         3.3992410546        8.6108889360        6.1471208308
  H         7.7483503199        0.4116436232        3.5707179111
  H        -1.0410225063       23.4714384465        6.1860727107
  H        -6.4534837659        7.1498234692        3.4286757571
  H         1.9116790848        7.1715519006        6.5590846215
  H       -14.5628352856       23.3848645712       10.1177527203
  H         0.0803040877       24.4226511244        5.7749849693
  H        -6.6632053385        8.1430604442       10.0219975485
  H       -17.2104297526       23.4221062537        3.6270033452
  H         1.3473259193        1.0853967372        6.9800180195
  H        -5.8268395090        9.3501365639        3.6540297934
  H         0.8130527297        2.2256244437        7.9302816787
 Ca        -7.6841421966       14.0314877073        5.4996422957
 Ca       -13.8916232166       20.2545496158        8.3200234625
 Ca       -14.0887729708       18.1378766081        4.9053125274
 Ca        -6.6758014307       12.4247061928        8.9684380652
 Ca       -19.7794989952       20.9799055713        4.3873724712
 Ca         9.7640236955       14.2090931259        8.3296433157
 Ca        -1.5638372648       11.8665343141        4.1358298503
 Ca        -9.0201594014       18.4043837970        8.2587519486
 Ca        -4.4723662183        9.8572682954        6.2185019439
 Ca       -11.0237200181       15.6642877822        5.8855932893
 Ca        12.5253322025        9.8324964669        5.4165164065
 Ca         6.7771283929       16.5051259456        6.2886846272
  S        -8.0347346490       11.0601083707        5.9235661150
  S       -14.3870672647       17.2308827882        8.3352928394
  S       -13.9268314038       21.2110205132        4.7383992711
  S        -8.2836130193       14.9958016857        8.3236107685
  S       -10.1703313149       12.7316654574        3.4442103856
  S       -17.0827839548       19.5694456498        6.3825552934
  S       -11.4976670956       18.1412132222        3.0971536788
  S        -4.3343458737       12.9484120122        6.4534355367
  S        -7.7806415515       17.2306379309        5.0371702404
  S        -1.5734314452       10.2455128510        8.3662894826
  S         9.6386622854       15.0266881432        4.8124812978
  S       -18.6435729822       21.7780849464        9.3683524830
  O        -6.8837582174       10.1361585582        6.1223521399
  O       -13.3112621831       16.3243009279        8.8101504205
  O       -15.0019850496       22.1589175788        5.1675926288
  O        -8.3103944347       16.3217725582        8.9819227706
  O        -9.2652546056       10.1965020633        5.9677638233
  O       -15.5458446609       16.3819485181        7.9034845760
  O       -12.8434387556       22.0961903467        4.1703488230
  O        -6.9065976581       14.6673439385        7.7585832983
  O        -7.9224074420       11.7937403058        4.6310227108
  O       -13.8979852604       18.0529764647        7.1822108418
  O       -14.3929221919       20.2301648168        3.7322378545
  O        -9.1820122913       14.9696237922        7.1287934925
  O        -8.0836925101       12.0908457466        7.0105819451
  O       -14.7983159581       18.1874528750        9.3930493863
  O       -13.4001638690       20.4376543021        5.9085465847
  O        -8.6335377765       13.9321649295        9.2844944487
  O       -11.0853654701       11.7886876796        4.1368412088
  O         6.0006261003       18.7495598368        7.1510470182
  O       -11.1896559036       19.5698172523        2.7238871715
  O        -3.5794044200       13.9376815464        7.2796033305
  O        -3.4443731679       12.1316046986        5.5951896319
  O       -10.5360034491       19.8468052452        8.8964414441
  O       -17.7618017021       20.5477447210        5.4800361373
  O       -12.1799990367       14.3087481480        7.4123279139
  O        -9.8761770132       13.9542500663        4.2603512341
  O       -16.2005949807       20.3623658023        7.2801514312
  O       -11.6348432518       17.9956565715        4.6313936274
  O        -5.0546598965       11.9634340010        7.3290655314
  O        -7.4645217645       18.2186998497        4.0006765970
  O        -2.0153603786       11.6135031465        8.1045843209
  O         9.6773647096       14.1606921220        3.6222285692
  O       -19.3887512389       20.5189497864        9.5079798809
  O        -7.8671823305       17.9898046938        6.3546163652
  O        -2.5443720573       10.9062625822        2.3785252297
  O         9.4159902453       14.1496320893        6.0036192708
  O       -20.6527400525       22.5933534840        2.9547390935
  O        -6.7144521443       16.1749385870        5.1775412409
  O        -0.2481630379        9.8888938306        7.8006902264
  O         8.5667777153       16.0887516891        4.7424058635
  O       -19.1631417456       22.9051832820       10.1686134761
  O        -9.0661801710       16.5309563829        4.7766338809
  O        -2.6315559426        9.2678197562        8.0062842909
  O       -13.1614972030       15.8302291134        4.9280498191
  O       -18.5950229050       22.2346175244        7.9292610086
  O        -5.3382207838       13.7191204859        5.6536218405
  O       -11.5771050127       19.8565969200        7.8381388406
  O       -16.2996189151       18.5901389660        5.5629747900
  O       -11.6849104764       13.5495151046        6.3577515992
  O        -4.8341461005        9.6708469501        3.8602792691
  O       -11.0514135274       17.3999182911        7.5790645011
  O       -10.1618961075       20.0807886421        5.7744111609
  O        -3.6037376596       11.6911135119        2.8367760919
  O        10.9487565731       11.4936328237        6.1479049567
  O         3.2312008075       21.3398872385        2.1550281272
  H       -10.7863298373       20.1476403175        6.6466935795
  H        -4.2683122422       10.9807203752        3.1661424184
  H        10.5635560901       11.4703328679        7.0466658571
  H       -20.2770771989       21.5348580128        1.3834825899
  H       -10.5351909201       19.2618838690        5.3666650870
  H        -1.4313249703       10.0950734971        9.7031456792
  H        11.5400900706       12.3688846557        6.2054831448
  H       -17.3508116653       21.5166666211        9.7353404517
  H        -4.2059567266        9.0362654215        3.4632148427
  H       -11.6442557324       16.9109293964        8.1984192395
  H       -18.7671609960       23.6324027944        3.9862382725
  H       -11.4672278923       18.3755752909        7.5983519433
 Ca        16.0358467492        1.4829543005        5.4116719051
 Ca        10.4082245603        7.8974410826        7.8464445643
 Ca        10.1214604063        5.7861686999        4.4924118260
 Ca        -7.9950107201       24.8864524007        8.7010932208
 Ca         4.8627949470        7.3726493103        3.9508603675
 Ca        10.5066884609        1.6226686781        7.5034642438
 Ca        -2.2401119893       24.8072024240        3.7964619270
 Ca        16.5615745455        5.4452368116        7.8153531981
 Ca        -4.9831962479       22.7930364800        6.0860756471
 Ca        13.0509936746        4.5162199337        6.3502889337
 Ca       -10.5935792851       21.5311513839        3.8495968804
 Ca         7.3588089350        3.4679643472        5.7831335054
  S        -8.6660783568       23.8313548252        5.4491681288
  S        10.3557340774        4.8081481200        7.8827759820
  S         9.7176942720        8.8477900729        4.4403673731
  S        16.5790075815        2.5415844602        8.4442782558
  S        13.2223673417        0.6541966188        3.1782832091
  S         7.2665197328        6.4753727852        6.5492203504
  S        13.3728793860        6.9398010191        3.3779028945
  S        19.2543520517        0.4766304649        6.3930938869
  S        15.9593021858        4.4344026740        4.5966841434
  S        -2.3224618453       23.1694229950        8.8006192756
  S        10.4169058688        2.7061623699        4.3030136146
  S         5.1488663989        9.5934395480        9.2101070197
  O        -7.7275214757       22.7590377700        5.8733710947
  O        11.4968498082        3.9017321314        8.2029350654
  O         8.5527244961        9.4999889469        5.0877814376
  O        16.0286322871        3.6664149704        9.2341468837
  O       -10.0448426234       23.3258580515        5.1837549802
  O         9.2354370900        3.9544987932        7.3881069241
  O        10.5705095229        9.8865129083        3.7995937905
  O        17.3471007312        3.1507266271        7.2812354520
  O        -8.1391165516       24.6011772065        4.2748972335
  O        10.8320823435        5.7492961184        6.7893537022
  O         9.3166838505        7.7723464859        3.5033317729
  O        15.4636676922        1.7544360963        7.7824979104
  O        -8.8060369097       24.8499424602        6.5467672111
  O         9.9465290639        5.6553918086        9.0281092532
  O        10.5886157019        8.1737708839        5.5062147380
  O        17.3974180840        1.6106864619        9.2331426096
  O       -11.9742846355       24.9183370226        3.3346168277
  O         6.6190021281        5.4324351497        7.4062368825
  O        13.7697133845        8.0994963814        4.2792959163
  O        19.9074559911        1.5403229362        7.1990117624
  O        -3.8532112492       24.9712534304        5.7997970044
  O        14.1065514215        6.6410352518        6.5976145911
  O         6.2037259732        7.3718715898        5.9923774297
  O       -10.2066932926       24.8584115005        9.0409645377
  O        13.7469306174        1.1638505151        4.4947108811
  O         8.2215489236        7.2912205636        7.3100545729
  O        12.4161109682        6.0106131963        4.1148771118
  O        -5.8428075197       24.9482714212        7.1773687065
  O        15.3816698786        4.9078780819        3.3594439946
  O        -1.9407072765       24.5959388397        8.8366187422
  O        10.9126645152        2.3197430149        2.9982353147
  O         5.2954986677        8.4177285901        8.3143642951
  O        16.4654061254        5.5488296816        5.4779602266
  O        -3.9833689495       24.3978247144        2.5603235190
  O        10.1936789180        1.5123113351        5.2019946402
  O         3.5096654693        8.9432200552        3.1095740687
  O        17.0834812903        3.4467482135        4.3829995351
  O        -1.1644559653       22.2689447046        8.8379520866
  O         9.1321672062        3.5150443563        4.2137623416
  O         3.7843423362       10.1522703656        9.2573294073
  O        14.9465609342        3.6503063585        5.4337462497
  O        -3.2923257829       22.8560909022        7.7528651965
  O        11.3653734291        3.6258736365        5.0364259366
  O         6.2099284291       10.5667395545        8.8970161489
  O        18.4482720560        1.1573437366        5.3072062183
  O        14.3052921473        5.7447724434        7.7725509387
  O         7.9451104289        5.7517752385        5.4184762702
  O        -9.6040760360       24.8773384766       10.2615410400
  O        -5.7899192523       23.3013436640        3.9326307319
  O        12.8531693677        1.9603260162        6.9605519540
  O        12.5492458187        8.5478617057        7.4014069658
  O        20.0126212815        0.4731597760        2.9345194837
  O       -12.5555642366       24.4594370412        6.2429912409
  O         4.1624056245        8.3466035026        1.9290108466
  H        13.1419726329        8.9120158678        8.0783906139
  H        19.2786841654        0.4567832745        3.5841591297
  H       -12.7705457845       23.7900371325        6.9310385871
  H         4.7169681512        9.0906731940        1.6200348845
  H        13.4454670121        7.3445246975        6.9644747051
  H        -2.9640801398       22.9921688698        9.9768085338
  H       -11.6552377083       24.1983001215        5.9440517898
  H         5.4013770108        9.1479030318       10.4611278818
  H        -5.0608576710       23.6946442421        3.2900186561
  H        13.0278142936        1.4859246490        6.1118376202
  H         5.1256309853       10.0716530801        3.8778692913
  H        13.6203016701        1.7108194572        7.5322703704
 Ca         4.0732773438       14.0563425810        5.5877856981
 Ca        -0.8298870622       20.2347631674        7.6931367613
 Ca        -2.3885610693       18.2625921840        4.9884514162
 Ca         3.3272137266       12.5652789754        8.8435670202
 Ca        -7.6847306316       20.2550334843        5.3066273251
 Ca        -1.0682261232       13.7796295251        8.0225078654
 Ca         9.0200346641       12.0011025534        4.4942098406
 Ca         3.7556882262       18.7611934173        8.1724140077
 Ca         6.6521783841        9.7410907108        6.5152666383
 Ca         0.7534711298       16.5892774636        5.6789094666
 Ca         1.5545281978        8.4474207571        4.1287510478
 Ca        -4.8942200440       15.9634629858        6.7193652883
  S         3.3148066717       11.1610302505        5.6184710056
  S        -1.7227900500       17.3883207524        8.1960659483
  S        -1.8725689284       21.6898029283        4.4845120102
  S         4.1296044765       15.5773068912        8.7215595016
  S         1.4134315134       13.9418023884        3.4752531487
  S        -4.5960707672       19.4378450022        6.6461460247
  S         1.0097225857       19.4464781292        3.7538630609
  S         6.6511583397       13.1339055059        6.9457417751
  S         3.6118342322       17.3988330204        4.8997608854
  S         9.3987113185       10.5044344946        9.0397687784
  S        -1.8776836382       15.3175301117        4.6915129138
  S        -7.2368868941       21.5629808699        8.6997791984
  O         4.2552060118       10.2345972699        6.3078695533
  O        -1.1162414737       16.2471514457        8.9434267070
  O        -3.0706811585       22.5389109308        4.7316729621
  O         3.2458571181       16.6665084108        9.2023911613
  O         2.1533063915       10.4311155875        5.0712769186
  O        -3.0206503961       16.9886970876        7.6283748192
  O        -1.0577724553       22.4521475770        3.4550436635
  O         5.3424532709       16.1710060314        8.0910674325
  O         4.0436144511       11.9287980881        4.5497801248
  O        -0.8495142965       17.8047553143        7.0053498331
  O        -2.2194189512       20.3598779493        3.9428034101
  O         3.3733502526       14.7969776599        7.6373650150
  O         2.7621561693       12.1874149392        6.5784176985
  O        -1.8265312127       18.5669099591        9.0832939467
  O        -1.0447977795       21.5880523085        5.7267025873
  O         4.4717445572       14.5899734196        9.7666376013
  O         0.5936470029       12.7042695571        3.3673625561
  O        -5.1641889585       19.1890521712        7.9737629094
  O         1.6846173120       20.6997704112        4.3101532939
  O         7.4511383193       13.6042107606        8.0833711696
  O         7.3290737861       11.9568430411        6.2940721696
  O         1.4453014439       19.5914408030        8.2746305883
  O        -5.3737918331       20.5172285791        5.9305020166
  O         1.0060151872       12.6950933262        8.8702017711
  O         1.7072470217       14.3284298996        4.9314074618
  O        -3.1483728798       19.8441573321        6.6969572509
  O         0.1132909487       18.8159675888        4.8006484418
  O         5.2725004424       12.7508193820        7.3468124069
  O         2.5467867863       16.8737748578        4.0111214632
  O         9.9688600171       11.8345162296        8.7669071863
  O        -1.0319563731       16.4213076363        4.0734323975
  O        -7.7874168325       20.4974198406        7.8316547261
  O         4.2387855853       18.6236766076        4.3730666118
  O         7.5489593747       11.2017759067        3.0188359458
  O        -1.9713752093       14.1610577895        3.8031228399
  O        -8.5302571661       21.3569977571        3.4849082591
  O         4.6854386599       16.3437940727        5.0873354315
  O        10.3395521816        9.5712923011        9.6819714946
  O        -3.2070125209       15.9501227896        4.9576895829
  O        -8.2531738458       22.5253048412        9.1562950480
  O         2.9475420661       17.6460173656        6.2406148937
  O         8.8281772973        9.8764484886        7.8257575691
  O        -1.1616416815       14.9718458792        5.9638990541
  O        -6.0329884997       22.2192168024        8.1903007778
  O         6.4542921929       14.1987150063        5.8872338588
  O         1.2886390225       20.2914188901        7.0870575164
  O        -4.6547698123       18.2203697694        5.7593033657
  O         1.5893430253       13.5359948681        9.8146888918
  O         5.9651819277        9.6121087921        4.1118976804
  O         0.8901646741       15.3729880130        7.6683608854
  O         3.6600258685       20.5371067034        6.5921234648
  O         6.8935587434       12.4505635717        3.4767493784
  O        -0.1165919194       12.2342727843        6.2175082470
  O        -7.1428518642       21.0849804075        3.2001471301
  H       -20.0816923346       21.3224891876        7.0794375899
  H         6.1237094900       12.1294098576        3.9971353833
  H         0.0602753487       11.4042569925        6.7220871005
  H        -6.6913942610       21.9704127785        3.3637544158
  H         2.6131570329       20.5848958927        6.7212330946
  H         8.3554816582       10.7115356435        9.8760177442
  H         0.7967891375       12.5356012223        6.0190874778
  H        -6.8265155414       20.9201290017        9.8191266387
  H         6.7105099454       10.1673630546        3.6014742921
  H         1.8255984204       15.0798183282        7.8298559569
  H        -6.5894949326       23.8744383935        3.8889210437
  H         0.6163363893       15.8862962341        8.4561506191
  O         7.1421269563       17.5174110872       13.1157245170
  H       -15.9936067682       17.4548236483       12.8247344027
  H       -17.1497871357       18.4491755097       12.9669262749
  O         3.0001312397        7.2294118661        9.3128118987
  H         2.0599409597        6.8252368083        9.5219361909
  H         2.8579395568        8.1895835391        9.2060904670
  O        -5.8961571475       12.8520518592       12.6338925262
  H        -5.9702213000       12.8499001067       13.5978159470
  H        -6.7661927376       12.5450552352       12.2976226841
  O         9.7940563766        2.1622736246        9.8139548476
  H        10.3627643453        2.7818521718       10.3781866322
  H         9.8058547451        1.2828712558       10.2313395864
  O        -3.1105571217       16.1053312949       10.8029035139
  H        -3.1401874588       16.5534010114       11.6603291626
  H        -2.2472585103       16.3435295134       10.3883931734
  O         4.1913238915        7.0779400388       11.7442808737
  H         4.1349204533        8.0398173198       12.0182293146
  H         3.6761354037        7.1092828189       10.8950585596
  O         1.1801207228        3.4935955945        8.9411205287
  H         1.4923745755        4.3120545776        8.4276206807
  H         0.3286342507        3.7996805311        9.2972759486
  O        -8.0341469212       12.0827522240       11.0591162411
  H        -8.5371457157       11.2595399075       10.9340291754
  H        -8.6219616245       12.8047133825       10.7514490175
  O         1.1909578559       10.0347621088       10.9413368049
  H         1.0007281603        9.9620670503        9.9894038618
  H         0.8207794150        9.1975919858       11.3478643458
  O        -5.7331016714       14.1962890152       10.2314612955
  H        -5.6599161831       14.1115681148       11.1997227702
  H        -5.9335482978       15.1258702346       10.0026635687
  O       -21.5002173780       25.0344870918        9.7954576846
  H         2.6860667076        0.5342353982       10.2576054132
  H       -21.9642497848       24.3519855924       10.3205481373
  O        -5.2790114347       16.6905008227        9.1131909211
  H        -4.4213325084       16.5469018526        9.5736678687
  H        -5.2566487535       17.6464354959        8.8687620360
  O         5.3950373325        4.7455390342       11.0382815700
  H         5.2180543035        5.6712341505       11.3486961287
  H         4.9273837590        4.6770404973       10.1764379650
  O       -14.3940802052       17.3258158196       11.9009775192
  H       -14.5389115415       17.4613876053       10.9275583343
  H       -14.4122395553       19.0165669572       12.2087759599
  O         9.2100922268       14.3875027872       10.6138203345
  H       -13.8787744602       16.5059993818       11.9578574847
  H         9.1132337193       13.6193923082       11.1937085143
  O        -2.1854869221       13.5420406222       10.0828976680
  H        -2.6193168864       14.3124448493       10.4995439303
  H        -1.5043113075       13.1580441042       10.7570634508
  O        11.1598421104        4.0785071518       11.0179022708
  H        10.6204364041        4.7941602045       10.6211141162
  H        11.9152458140        4.0510564789       10.4023127500
  O         3.1360288206        9.1203095904       14.6996276549
  H         2.6367003803        8.2788637508       14.4923653840
  H         2.7538237970        9.4692620571       15.5168634012
  O         2.1088870078        6.8361414541       13.7667025927
  H         2.8803394609        6.7144332172       13.1777204623
  H         1.4089886279        7.1668280621       13.1141413002
  O         3.7956769814        9.7607439245       12.1334718199
  H         2.9550307862        9.9387570080       11.6502772219
  H         3.5298867605        9.7722063133       13.0842907442
  N        -0.2894375013       12.5881474626       11.6658684191
  H         0.4879216962       13.2018025441       11.3848854140
  H         0.0891198275       11.6554560877       11.4605523025
  H        -0.3957449379       12.6382875101       12.6759939031
  N         2.4409727918        4.2742332218       11.3478386181
  H         2.3623030205        3.5402631438       10.6333128122
  H         3.4293657335        4.4380163618       11.5717910972
  H         1.9541823441        5.1067691228       10.8885294256
  N        -4.6602486962       11.5403512239       10.1176043298
  H        -4.7053620988       11.4884023710       11.1348703859
  H        -3.9023573109       12.2066278264        9.9107798760
  H        -4.3200381749       10.6420215251        9.7732684701
  N         0.6507788028        4.2842519875       13.4664139012
  H         1.0522615624        5.1021562482       13.9434204464
  H        -0.2285462462        4.6259177146       13.0709989152
  H         0.4071233195        3.6116082346       14.1920676832
  H         1.8325653522        4.0851472095       12.2099400464
  N         7.2367667614        3.4291979123        9.4528435606
  H         8.1775784163        3.0282631599        9.6283812242
  H         6.7626065762        3.8258111310       10.2913981578
  H         6.6449715215        2.7026195970        9.0283203495
  H         7.2983530877        4.1961337714        8.7595756392
  N         7.0745020384       15.7613897184       10.6540484190
  H         7.1731414596       16.4078394015        9.8676302849
  H         6.8824355762       16.3295801023       11.4870943991
  H         8.2523719749       14.9502039098       10.6862447124
  H         6.2211473776       15.2364984261       10.4397151854
  N       -10.9848748623       22.2115174508        9.8053213262
  H       -10.6568215179       21.2500041115        9.3633613344
  H       -11.9070551245       21.9939719439       10.2222028275
  H       -11.0468874631       22.9933337450        9.1390737978
  H       -10.3379585173       22.5506313887       10.5184323521
  P       -14.5623727426       20.9407755313       11.1871015886
  O       -13.1773654427       20.7705678985       10.6025387627
  O       -14.8345810261       19.9085615779       12.3587819712
  O       -15.6038694758       20.9858715004       10.1011323102
  O       -14.6987419245       22.3215388264       12.0204888968
  H       -14.6434819575       22.1519203273       12.9751344343
  P        -0.1506258864        6.9071391881       10.8642658544
  O         0.9106654689        6.0733147274       10.0991062999
  O        -0.8872298538        7.7994419904        9.8751761922
  O         0.3976908310        7.6823913527       12.0392800588
  O        -1.2108518321        5.8236139500       11.4356420267
  H        -1.7647544531        5.5325181531       10.6793185934
     464
 i =        3, E =     -6303.2364453793
 Ca         4.3405293380        1.6013445426        5.1347204255
 Ca        -1.0171893892        7.2313349851        7.7393409134
 Ca        -2.1704415104        5.6028177995        4.6832430579
 Ca       -19.8419859996       24.3738542965        8.3372413966
 Ca        16.0440665471        8.0374055920        5.4077181943
 Ca        22.3055846243        0.9033755861        7.2373756418
 Ca       -14.1157493834       24.3727096538        4.2728912457
 Ca         4.1406623506        6.3035160160        7.4321945008
 Ca       -16.9485141674       22.6373073026        6.3112493852
 Ca         1.1972393492        3.7551327532        5.7093433027
 Ca         1.1839646540       22.7570583062        3.2453273390
 Ca        19.1036016399        3.4657047073        5.6755758268
  S       -21.0287782995       24.2709166381        5.4990969313
  S        -1.9196994635        4.2936245678        7.6261150068
  S        -1.4930168077        8.6564434955        4.3679313256
  S         4.2466720936        2.8213120602        7.9067552006
  S         1.1574446461        0.9803944701        3.0175999881
  S        -4.7064099591        6.5356918671        6.0221884376
  S         0.9367881167        5.6541823541        2.7068058428
  S         7.3508220417        0.4391048968        6.3350747899
  S         4.4319126113        4.3661543635        4.1274605144
  S       -14.6294905723       23.6295097882        8.8114149218
  S        -1.8098362326        2.6261603587        3.9456529970
  S        -6.7743374231        8.7947900180        8.8291068037
  O       -20.1333091801       23.2009357832        5.9958891423
  O        -1.5443633076        2.9975886413        8.2426591351
  O        -2.2914303449        9.6520587711        5.1427260455
  O         4.2337788299        4.1292130551        8.6290322067
  O       -22.4152197037       23.7846020067        5.2678172857
  O        -3.0197065603        4.1180006136        6.6367564947
  O        -0.4864873790        9.4216196136        3.5674800374
  O         5.4802148429        2.7134634017        7.0383722328
  O       -20.4564289897       24.8820677778        4.2486377458
  O        -0.7720376423        4.8683105706        6.7908922717
  O        -2.3584512524        7.7638345440        3.5464755503
  O         3.0945565293        2.7470795602        6.9516125060
  O         3.1107866202        0.0232777438        6.5460041477
  O        -2.2339988077        5.3010484897        8.6674810054
  O        -0.6889311912        7.7249409910        5.2877188165
  O         4.2675180790        1.6908871290        8.8734604544
  O       -23.7777022982       24.9918956498        2.9738697379
  O        -5.2802467625        5.6874811014        7.1132308941
  O         1.0700359025        7.0262567671        2.1235234802
  O         8.0116448973        1.4908859307        7.1831735597
  O       -15.8286861052       24.7716157312        5.9275383727
  O         2.0088008668        5.3739732137        7.2013658911
  O        -5.5916383667        7.6952710347        5.7352070521
  O         2.3820475178       22.6436810860        8.2864338896
  O         1.3557860156        1.4619622062        4.4332811496
  O        -3.3254102503        7.0131291558        6.3498838640
  O         1.2238635014        5.7116347790        4.2072558184
  O       -17.9603476119       25.0986635496        7.0330318243
  O         3.2054209614        3.4926554428        4.2005195803
  O       -14.1796196001       25.0418810066        8.7128950592
  O        -1.5160498340        1.8787531927        2.7156593646
  O        16.5057694075        7.8261709120        8.0014332968
  O         4.4235375293        5.2378832049        2.9349304175
  O       -15.9009088621       23.9309155931        3.0472717280
  O        22.2455239333        1.6349363746        5.0858348248
  O        -7.2260921910        8.9517078127        3.5477288921
  O         5.5996018811        3.4059104033        4.1365499037
  O       -13.6681048813       22.7123038872        8.1457028866
  O        -3.1039394079        3.3885480527        3.9197859817
  O        -7.5389015699       10.0118000813        9.1469406480
  O         4.5360967978        5.2271390397        5.3452201895
  O       -16.0256528383       23.4296214383        8.4151356844
  O        -0.7349977505        3.6723415582        4.2192936803
  O        -5.3870587682        8.9794571958        8.3956094207
  O         6.7868512420        1.1383977381        5.1144844108
  O         1.2462118884        6.6265549221        7.0909515181
  O        -4.5696624102        5.6707045619        4.7816491510
  O         1.7662576673       22.4226431334        9.4082504393
  O       -18.0078833374       23.0400625691        4.1708201650
  O         0.5677337038        1.6519408649        7.1408175959
  O         3.1844986682        7.7168172984        5.7787688192
  O         8.4291851551        0.0639015405        2.9473251848
  O        -0.8947315493       24.4140076226        5.9440808685
  O        16.7290218728        7.5087864992        3.2231236907
  H         3.3982255813        8.6063287552        6.1419514700
  H         7.7472914787        0.4045019858        3.5641333676
  H        -1.0411046389       23.4649354365        6.1850592635
  H        -6.4468833285        7.1569032650        3.4159724523
  H         1.9160865386        7.1663904801        6.5439042904
  H       -14.5654862542       23.3674046321       10.1321460514
  H         0.0786339116       24.4246024581        5.7767428007
  H        -6.6635265958        8.1473649188       10.0157899740
  H       -17.1971396182       23.4270108982        3.6221613472
  H         1.3517863809        1.0866779504        6.9868820261
  H        -5.8397691675        9.3372509938        3.6497205227
  H         0.8140312793        2.2280240476        7.9338812583
 Ca        -7.6851737090       14.0313533607        5.4966708957
 Ca       -13.8923817603       20.2663452061        8.3229915237
 Ca       -14.0974703360       18.1398580804        4.9046911209
 Ca        -6.6696665891       12.4012032558        8.9678727516
 Ca       -19.7789880191       20.9826600295        4.3813209270
 Ca         9.7576912332       14.1954869074        8.3371710441
 Ca        -1.5790240385       11.8658442709        4.1347435100
 Ca        -9.0172175985       18.4045012631        8.2537855649
 Ca        -4.4529565489        9.8373744459        6.2428351649
 Ca       -11.0318198034       15.6464066200        5.8905825485
 Ca        12.5168501621        9.8412353526        5.4312868320
 Ca         6.7762713946       16.5045380477        6.2942942037
  S        -8.0305845969       11.0551154818        5.9265873595
  S       -14.3852902084       17.2339541398        8.3466349416
  S       -13.9237838668       21.2114972763        4.7332056121
  S        -8.2838977732       14.9987909097        8.3327164281
  S       -10.1661825596       12.7174102523        3.4288171364
  S       -17.0822424732       19.5671274575        6.3839601806
  S       -11.4764637112       18.1287889796        3.0840007995
  S        -4.3357917553       12.9501354807        6.4592182485
  S        -7.7836782608       17.2280713632        5.0268536124
  S        -1.5743849381       10.2347434374        8.3796158759
  S         9.6323009384       15.0288377416        4.7933448993
  S       -18.6285917374       21.7712295800        9.3864818683
  O        -6.8770484512       10.1276416594        6.1165955628
  O       -13.3039816376       16.3346287020        8.8326151099
  O       -14.9993273914       22.1641247077        5.1649373295
  O        -8.3120970811       16.3248620648        8.9988335602
  O        -9.2697873745       10.1946253335        5.9583359795
  O       -15.5382660758       16.3715722118        7.9110586322
  O       -12.8402453279       22.1005762864        4.1587417923
  O        -6.9010127410       14.6663141099        7.7713327818
  O        -7.9243947427       11.7939687785        4.6310718738
  O       -13.8900256607       18.0585423587        7.1907105830
  O       -14.3917292314       20.2261604044        3.7254782589
  O        -9.1745477578       14.9833439438        7.1270915746
  O        -8.0862449830       12.0971459602        7.0075826056
  O       -14.8078663326       18.1971716077        9.3998944651
  O       -13.3930612267       20.4346679390        5.9044778863
  O        -8.6382458752       13.9277496510        9.2905702951
  O       -11.1159914132       11.7983539094        4.1218004653
  O         5.9979952050       18.7447514237        7.1525154066
  O       -11.1876450817       19.5650985116        2.7075639789
  O        -3.5850469480       13.9493855646        7.2841389590
  O        -3.4441279803       12.1260190535        5.6039390977
  O       -10.5446824777       19.8586162197        8.9105695381
  O       -17.7593671713       20.5506521016        5.4772121166
  O       -12.1805533866       14.3085561817        7.4065786519
  O        -9.8730830203       13.9582416464        4.2249492401
  O       -16.1936238492       20.3624325244        7.2799697416
  O       -11.6347457197       18.0025223786        4.6225414627
  O        -5.0598030980       11.9589979675        7.3333838198
  O        -7.4671973332       18.2189834040        3.9865397844
  O        -2.0145495777       11.6062529479        8.1135359705
  O         9.6802235328       14.1647313275        3.5958832922
  O       -19.3804839169       20.5119373456        9.5281810696
  O        -7.8613279085       17.9934550137        6.3460790363
  O        -2.5508318094       10.8953832316        2.3485921148
  O         9.4059640282       14.1450525327        5.9836955151
  O       -20.6588543284       22.5936358567        2.9448325901
  O        -6.7147966075       16.1684538396        5.1723815708
  O        -0.2478232667        9.8806633910        7.8080885221
  O         8.5586401789       16.0950103436        4.7239073835
  O       -19.1511901335       22.9039005764       10.1832319354
  O        -9.0736325929       16.5248993081        4.7711087393
  O        -2.6192039914        9.2523070254        7.9854135942
  O       -13.1653635964       15.8349338613        4.9221295451
  O       -18.6047190503       22.2298146297        7.9421757177
  O        -5.3361954288       13.7246477976        5.6488169996
  O       -11.5667691809       19.8594127156        7.8302402161
  O       -16.3012401092       18.5816483215        5.5615613927
  O       -11.6740242425       13.5254201512        6.3598836376
  O        -4.8428380415        9.6672833678        3.8505818067
  O       -11.0566584954       17.4019927526        7.5797836964
  O       -10.1599256762       20.0778202490        5.7695544012
  O        -3.6011606634       11.6974898438        2.8224995444
  O        10.9452448898       11.5050699928        6.1448413710
  O         3.2295987397       21.3426002299        2.1439081380
  H       -10.7860923426       20.1495246184        6.6501457621
  H        -4.2717609895       10.9990050646        3.1462011944
  H        10.5596046140       11.4675213932        7.0419079189
  H       -20.2749862559       21.5347508196        1.3744980036
  H       -10.5378575912       19.2565935887        5.3709913194
  H        -1.4223606512       10.1062828830        9.7182919917
  H        11.5587468040       12.3771817305        6.2048877748
  H       -17.3288696293       21.5116557781        9.7408238582
  H        -4.2042139467        9.0414121718        3.4576792579
  H       -11.6462459245       16.9148872390        8.2033908781
  H       -18.7618019735       23.6302474858        3.9853453081
  H       -11.4727572121       18.3794360758        7.5981173223
 Ca        16.0492933833        1.4894116433        5.4215148222
 Ca        10.4114152159        7.9032621211        7.8557545637
 Ca        10.1183782021        5.7809810787        4.4951624536
 Ca        -7.9867093672       24.8881091563        8.7138729213
 Ca         4.8782470223        7.4086687824        3.9886516372
 Ca        10.5042914529        1.6126186811        7.5043580097
 Ca        -2.2463392947       24.8128977084        3.7881235061
 Ca        16.5517016237        5.4494048438        7.8183013603
 Ca        -4.9916516609       22.7947101250        6.1010537029
 Ca        13.0531596932        4.5241025506        6.3478952097
 Ca       -10.5922040506       21.5281670651        3.8405169283
 Ca         7.3477440838        3.4627195547        5.7893577310
  S        -8.6689608019       23.8329887773        5.4465524094
  S        10.3545052572        4.8016533391        7.8862958724
  S         9.7190530854        8.8500980471        4.4331279129
  S        16.5803226480        2.5485551391        8.4525031499
  S        13.2353763258        0.6470893028        3.1632854181
  S         7.2619006416        6.4757715519        6.5481956376
  S        13.3633438081        6.9533440744        3.3645954684
  S        19.2545374544        0.4755919107        6.3969502039
  S        15.9652888791        4.4271083373        4.5880868828
  S        -2.3298325893       23.1720557613        8.8170055019
  S        10.4166981274        2.7037898209        4.2926245752
  S         5.1535804317        9.5886884137        9.2238858177
  O        -7.7309217372       22.7555291112        5.8704682952
  O        11.5010505692        3.8973222548        8.2062389084
  O         8.5570886922        9.5031548396        5.0916535919
  O        16.0221747762        3.6741018286        9.2452345010
  O       -10.0498523608       23.3199612272        5.1792085638
  O         9.2341352042        3.9457344918        7.3822325751
  O        10.5694140456        9.8955369136        3.7917975565
  O        17.3486728975        3.1603844008        7.2840224394
  O        -8.1409068025       24.6000969973        4.2625495112
  O        10.8360837922        5.7510670953        6.7941209063
  O         9.3094957365        7.7729541204        3.4930531962
  O        15.4689991386        1.7493052560        7.7901508782
  O        -8.8104987416       24.8571868840        6.5452268271
  O         9.9480284572        5.6542424448        9.0342639762
  O        10.5967716295        8.1671714244        5.4962547302
  O        17.3983672805        1.6150135334        9.2425878126
  O       -11.9717145263       24.9148689332        3.3053705680
  O         6.6023554455        5.4338483997        7.4058316064
  O        13.7635380154        8.1119265038        4.2774179617
  O        19.9088190369        1.5462516415        7.2024438634
  O        -3.8504489142       24.9671611380        5.8032697137
  O        14.1044039123        6.6448293116        6.6066315954
  O         6.1985519278        7.3726573310        5.9866793894
  O       -10.2277064526       24.8617488956        9.0555076485
  O        13.7493333411        1.1614565214        4.4860306159
  O         8.2157750509        7.2997137730        7.3103060898
  O        12.4182043448        6.0053598859        4.1078382639
  O        -5.8483134617       24.9427403488        7.1733138490
  O        15.3845546995        4.9011710921        3.3478732959
  O        -1.9450698097       24.6044866207        8.8616203921
  O        10.9125973707        2.3223637627        2.9822527927
  O         5.2958328438        8.4147549670        8.3179254897
  O        16.4666471564        5.5488073518        5.4711713007
  O        -4.0003086152       24.3963320051        2.5407945816
  O        10.1939859376        1.5011228847        5.1867609940
  O         3.5040762355        8.9211623568        3.0865823491
  O        17.0929571539        3.4369092751        4.3756637641
  O        -1.1709432456       22.2681818821        8.8551771589
  O         9.1269487673        3.5126261295        4.2061193780
  O         3.7866579884       10.1467325684        9.2585941473
  O        14.9478795624        3.6428560466        5.4286123445
  O        -3.2889035049       22.8613131114        7.7548114513
  O        11.3649292404        3.6279340011        5.0305833476
  O         6.2139298017       10.5686808853        8.9134045951
  O        18.4564374908        1.1511399461        5.2935778381
  O        14.2955362868        5.7461231890        7.7807740339
  O         7.9403429112        5.7518167164        5.4096510760
  O        -9.6245003650       24.8709135284       10.2829722453
  O        -5.7836784522       23.3107150570        3.9267183259
  O        12.8562455620        1.9536250537        6.9634315865
  O        12.5505488095        8.5530781894        7.4000098678
  O        20.0014936634        0.4719303063        2.9160994832
  O       -12.5512778467       24.4578521322        6.2435090027
  O         4.1583774296        8.3447843378        1.9034097779
  H        13.1391575482        8.9123795023        8.0826315808
  H        19.2802226758        0.4532685534        3.5804317962
  H       -12.7750438329       23.7958705965        6.9352415421
  H         4.7101249312        9.0951418250        1.6030370513
  H        13.4422436512        7.3527487525        6.9649411431
  H        -2.9771876857       22.9817064319        9.9879905702
  H       -11.6498233094       24.2045760543        5.9422779186
  H         5.3840561997        9.1411722992       10.4787858630
  H        -5.0507365609       23.7097084838        3.2809873089
  H        13.0322643012        1.4879611740        6.1113971517
  H         5.1326961305       10.0687476728        3.8944799602
  H        13.6228158916        1.7046668804        7.5344030013
 Ca         4.0833628079       14.0544035684        5.5949688637
 Ca        -0.8218566928       20.2380677361        7.7078128447
 Ca        -2.3911602615       18.2675866024        4.9825511731
 Ca         3.3199167648       12.5604225607        8.8519310469
 Ca        -7.6811934394       20.2537519157        5.3053534138
 Ca        -1.0473537042       13.7775261165        8.0222354371
 Ca         9.0221956471       12.0087716590        4.4900987035
 Ca         3.7449689282       18.7678912109        8.1767515628
 Ca         6.6343931430        9.7265189927        6.5135235747
 Ca         0.7530972853       16.5890413472        5.6736437465
 Ca         1.5511047106        8.4411840915        4.1371475007
 Ca        -4.8937176137       15.9659614415        6.7286162110
  S         3.3123896317       11.1627197811        5.6123467370
  S        -1.7243118878       17.3880302552        8.2055349323
  S        -1.8760807927       21.6945802884        4.4783887982
  S         4.1280352264       15.5816367330        8.7297549632
  S         1.4217119537       13.9427687119        3.4583866522
  S        -4.5973172472       19.4401953148        6.6525123181
  S         1.0048423844       19.4502720916        3.7378910455
  S         6.6569060312       13.1300528855        6.9500324682
  S         3.6154169404       17.3928734552        4.8904567901
  S         9.3983930692       10.5065288946        9.0548522558
  S        -1.8775157155       15.3208883079        4.6822114015
  S        -7.2310046926       21.5636137361        8.7052141735
  O         4.2477045891       10.2306616499        6.3083513652
  O        -1.1143421872       16.2439706915        8.9538366481
  O        -3.0783696190       22.5431014739        4.7267448148
  O         3.2429143777       16.6728298325        9.2152552214
  O         2.1474050559       10.4311289806        5.0629081552
  O        -3.0234040543       16.9835914103        7.6356021078
  O        -1.0648082710       22.4637787297        3.4412246686
  O         5.3436438040       16.1771767850        8.0979643020
  O         4.0561162026       11.9217316558        4.5388846325
  O        -0.8466563793       17.8083692712        7.0103148795
  O        -2.2215142265       20.3596183916        3.9345064274
  O         3.3679572838       14.7914189490        7.6465652995
  O         2.7635781778       12.1996648632        6.5679022004
  O        -1.8284958698       18.5690936887        9.0960971664
  O        -1.0433915686       21.5969520317        5.7225172840
  O         4.4709672942       14.5886883149        9.7737270843
  O         0.5988101038       12.7040148042        3.3452763745
  O        -5.1644260333       19.1942839310        7.9857296934
  O         1.6974277153       20.6966818601        4.3057281040
  O         7.4492350801       13.6149583540        8.0900302147
  O         7.3441164531       11.9529747571        6.2929615228
  O         1.4502724903       19.6066265155        8.2901938216
  O        -5.3798774745       20.5182937699        5.9311797881
  O         1.0088451220       12.6972724545        8.8715596971
  O         1.7022342204       14.3259507301        4.9220313100
  O        -3.1450553042       19.8459521462        6.6930711528
  O         0.1108902009       18.8222254039        4.7934345296
  O         5.2733450654       12.7444229085        7.3470551958
  O         2.5473996410       16.8655260018        3.9994622444
  O         9.9844112678       11.8340601506        8.7877077832
  O        -1.0295412624       16.4315556303        4.0672397155
  O        -7.7801631173       20.4927049601        7.8355826125
  O         4.2410761531       18.6231005637        4.3593062180
  O         7.5511484963       11.1953036258        3.0072402655
  O        -1.9751183800       14.1647208336        3.7869961718
  O        -8.5281302801       21.3482853134        3.4673898752
  O         4.6915023320       16.3355573290        5.0818053896
  O        10.3394562956        9.5708522312        9.7016234924
  O        -3.2086520492       15.9556338641        4.9554501800
  O        -8.2531712002       22.5213722090        9.1686635157
  O         2.9478171687       17.6390934850        6.2347317772
  O         8.8499474191        9.8805482816        7.8247828495
  O        -1.1565560231       14.9706915063        5.9558259486
  O        -6.0193882316       22.2205604542        8.2036852267
  O         6.4563051475       14.1982378526        5.8866811942
  O         1.3051511441       20.3020662480        7.0926004997
  O        -4.6595698373       18.2170389998        5.7634303508
  O         1.5690306515       13.5522520381        9.8320909305
  O         5.9730207445        9.6125756946        4.1123799864
  O         0.8922801476       15.3742291260        7.6738121346
  O         3.6619181321       20.5413348237        6.6009976226
  O         6.8933533372       12.4477676710        3.4488405944
  O        -0.1144370322       12.2314267535        6.2129633800
  O        -7.1411483327       21.0775658893        3.1945562589
  H       -20.0778014066       21.3220282111        7.0907443635
  H         6.1333817139       12.1332899465        3.9885336101
  H         0.0480260966       11.4015181431        6.7237149042
  H        -6.6855054565       21.9608218258        3.3488570009
  H         2.6075102226       20.5814659085        6.7054877034
  H         8.3461150717       10.7141757259        9.8792358635
  H         0.7988018859       12.5301486349        6.0128054593
  H        -6.8255825446       20.9078358339        9.8175518188
  H         6.7130259798       10.1874823437        3.5951860545
  H         1.8284561494       15.0782018980        7.8309246606
  H        -6.5892208891       23.8767008647        3.8885601784
  H         0.6159140645       15.8914003237        8.4581317466
  O         7.1426160461       17.5192670420       13.1212200028
  H       -15.9964111827       17.4512514669       12.8205691413
  H       -17.1524075238       18.4486285252       12.9640173719
  O         2.9964345427        7.2329894346        9.3199039642
  H         2.0588986953        6.8269908640        9.5358923504
  H         2.8496832371        8.1929050579        9.2152720258
  O        -5.8900786675       12.8427245732       12.6423176896
  H        -5.9759182496       12.8568505348       13.6057864415
  H        -6.7648597711       12.5513049447       12.3038962370
  O         9.7910297747        2.1649988159        9.8223381438
  H        10.3609295676        2.7889615879       10.3805277978
  H         9.8099347238        1.2852438200       10.2379678929
  O        -3.1135003548       16.1103511071       10.8054187601
  H        -3.1333905096       16.5647338855       11.6595088453
  H        -2.2461217893       16.3321411230       10.3906878845
  O         4.1921310632        7.0842743453       11.7455864132
  H         4.1352627394        8.0464049510       12.0227925497
  H         3.6805757714        7.1103905963       10.8934084405
  O         1.1772807541        3.4883954236        8.9466123215
  H         1.4978357942        4.3022053286        8.4300932818
  H         0.3236994035        3.7949946965        9.2966012440
  O        -8.0451640571       12.0865988722       11.0748765446
  H        -8.5322659971       11.2559695343       10.9289442287
  H        -8.6316460602       12.8043999613       10.7548996108
  O         1.1978935857       10.0291969291       10.9424326357
  H         0.9961922832        9.9631568988        9.9922617714
  H         0.8242320383        9.1950392184       11.3505386230
  O        -5.7259686508       14.2040782563       10.2389485230
  H        -5.6533547671       14.1176558330       11.2078593687
  H        -5.9385326299       15.1317364374       10.0101048999
  O       -21.5002778524       25.0407198834        9.8040178868
  H         2.6672081847        0.5359864009       10.2754920470
  H       -21.9728198163       24.3511576877       10.3110779111
  O        -5.2782035302       16.6959981150        9.1143072909
  H        -4.4204594208       16.5518258384        9.5754927368
  H        -5.2559924074       17.6520278646        8.8685315211
  O         5.4016772434        4.7491731915       11.0399189247
  H         5.2186999567        5.6722891896       11.3560866741
  H         4.9300579933        4.6696237088       10.1803247498
  O       -14.3872619916       17.3254927327       11.9043355958
  H       -14.5466400871       17.4646049611       10.9343750457
  H       -14.4045758192       19.0264202378       12.2167865345
  O         9.2196117129       14.3932183700       10.6240067608
  H       -13.8657735489       16.5086481498       11.9526545075
  H         9.1165439909       13.6199345523       11.1968749789
  O        -2.1779736117       13.5477639015       10.0855086249
  H        -2.6237992918       14.3077924148       10.5078217491
  H        -1.5048006472       13.1534619781       10.7667027965
  O        11.1628762781        4.0723043537       11.0263289535
  H        10.6229651185        4.7859540054       10.6261838544
  H        11.9257185536        4.0500130666       10.4204245888
  O         3.1503680853        9.1196401898       14.7134072559
  H         2.6455087124        8.2847275102       14.4866052371
  H         2.7396721318        9.4741876892       15.5151832082
  O         2.1205040891        6.8360492859       13.7685052204
  H         2.8920129616        6.7145843089       13.1792407987
  H         1.4091998077        7.1628178030       13.1232134736
  O         3.7916297394        9.7525205355       12.1410903283
  H         2.9551135210        9.9305611955       11.6505882658
  H         3.5317407289        9.7669001360       13.0939119379
  N        -0.2920184941       12.5828351780       11.6746788495
  H         0.4741713794       13.2069301142       11.3857880789
  H         0.0803326449       11.6486460642       11.4661118457
  H        -0.3909902353       12.6428871903       12.6854407704
  N         2.4354822544        4.2722793981       11.3548114175
  H         2.3587371449        3.5429856738       10.6348573754
  H         3.4238994221        4.4354397423       11.5774665617
  H         1.9524564207        5.1102615878       10.8958073719
  N        -4.6562024829       11.5314268212       10.1263625705
  H        -4.6958901971       11.4825242468       11.1440215742
  H        -3.9057224016       12.2031840996        9.9120448435
  H        -4.3252691232       10.6320237762        9.7752975407
  N         0.6462304710        4.2826081920       13.4745912239
  H         1.0653083723        5.0977079649       13.9401205919
  H        -0.2268135410        4.6168284256       13.0595400930
  H         0.4044803603        3.6054523865       14.1957685794
  H         1.8251137379        4.0790179528       12.2199615471
  N         7.2360102813        3.4309366101        9.4556046572
  H         8.1745356898        3.0243818683        9.6372924627
  H         6.7592686441        3.8272123094       10.2941205085
  H         6.6479757678        2.7032134442        9.0278155211
  H         7.3051929468        4.1987520606        8.7641073139
  N         7.0732152043       15.7638727218       10.6562158460
  H         7.1723915164       16.4094164233        9.8694581547
  H         6.8869201697       16.3278609824       11.4937183617
  H         8.2553840689       14.9533294832       10.6906915441
  H         6.2237533264       15.2310572689       10.4447526663
  N       -10.9914081174       22.2193630617        9.8103874130
  H       -10.6638583760       21.2490014215        9.3658991957
  H       -11.9102319695       21.9983302118       10.2283718993
  H       -11.0512623340       22.9946260204        9.1381101376
  H       -10.3302464223       22.5371703771       10.5199803424
  P       -14.5699615774       20.9432274950       11.1900064297
  O       -13.1822105288       20.7576221612       10.6144811131
  O       -14.8449923783       19.9093174156       12.3661315007
  O       -15.5987461950       20.9845844641       10.0910600909
  O       -14.7074317648       22.3286565062       12.0227097818
  H       -14.6275921955       22.1551161767       12.9755095355
  P        -0.1595233842        6.9149180324       10.8687557906
  O         0.9014184008        6.0787489228       10.1007890705
  O        -0.9012116456        7.8089308992        9.8812205435
  O         0.3895153936        7.6732345085       12.0564010157
  O        -1.2193569553        5.8286756430       11.4468001672
  H        -1.7620291416        5.5338106841       10.6850483951
