192
Lattice="11.358 0.0 0.0 -5.147950824045998 11.470885982880008 0.0 0.0 0.0 29.527031199999996" Properties=species:S:1:pos:R:3 pbc="T T F"
Ca         9.2947561500       1.4338607500       1.8725948000
Ca         2.3287684400       4.3015822400       9.4735948000
Ca        -0.5107315600       4.3015822400      14.6544364000
Ca         0.7762561500       1.4338607500       7.0534364000
S          2.3287684400       4.3015822400       1.8330696000
S          9.2947561500       1.4338607500       9.4340696000
S          0.7762561500       1.4338607500      14.6939616000
S         -0.5107315600       4.3015822400       7.0929616000
O          7.5969927300       3.1567878200       2.6676594000
O          8.8839804400       0.2890663300      10.2686594000
O          1.1870318500       2.5786551700      13.8593718000
O         -0.0999558500       5.4463766600       6.2583718000
O          2.7395441500       5.4463766600       2.6676594000
O          9.7055318500       2.5786551700      10.2686594000
O          6.0444804400       0.2890663300      13.8593718000
O         -0.9215072700       3.1567878200       6.2583718000
O          9.1232336000       3.8255404800       1.0000000000
O         10.4102213100       0.9578189800       8.6010000000
O         -0.3392090100       1.9099025200      15.5270312000
O         -1.6261967200       4.7776240100       7.9260312000
O          1.2133032800       4.7776240100       1.0000000000
O          8.1792909900       1.9099025200       8.6010000000
O          7.5707213100       0.9578189800      15.5270312000
O          0.6047336000       3.8255404800       7.9260312000
O         -0.7311631200       2.6314212400       3.4307998000
O         -2.0181508300       5.4991427400      11.0317998000
O          9.5151877100       3.1040217500      13.0962314000
O         10.8021754100       0.2363002500       5.4952314000
O          7.9626754100       0.2363002500       3.4307998000
O          0.9966877100       3.1040217500      11.0317998000
O          0.8213491700       5.4991427400      13.0962314000
O          7.7873368800       2.6314212400       5.4952314000
H          0.1380039800       2.8889426300       3.1176386000
H          7.1039916900       0.0212211400      10.7186386000
H          8.6460206000       2.8465003600      13.4093926000
H          1.6800329000       5.7142218500       5.8083926000
H         -1.1594671000       5.7142218500       3.1176386000
H          0.1275206000       2.8465003600      10.7186386000
H          9.9434916900       0.0212211400      13.4093926000
H          8.6565039800       2.8889426300       5.8083926000
H         -0.7691729000       2.8224115000       4.3520410000
H         -2.0561606100       5.6901329900      11.9530410000
H          9.5531974900       2.9130315000      12.1749902000
H         10.8401851900       0.0453100000       4.5739902000
H          8.0006851900       0.0453100000       4.3520410000
H          1.0346974900       2.9130315000      11.9530410000
H          0.7833393900       5.6901329900      12.1749902000
H          7.7493271000       2.8224115000       4.5739902000
Ca         3.6157561500       1.4338607500       1.8725948000
Ca         8.0077684400       4.3015822400       9.4735948000
Ca         5.1682684400       4.3015822400      14.6544364000
Ca         6.4552561500       1.4338607500       7.0534364000
S          8.0077684400       4.3015822400       1.8330696000
S          3.6157561500       1.4338607500       9.4340696000
S          6.4552561500       1.4338607500      14.6939616000
S          5.1682684400       4.3015822400       7.0929616000
O          1.9179927300       3.1567878200       2.6676594000
O          3.2049804400       0.2890663300      10.2686594000
O          6.8660318500       2.5786551700      13.8593718000
O          5.5790441500       5.4463766600       6.2583718000
O          8.4185441500       5.4463766600       2.6676594000
O          4.0265318500       2.5786551700      10.2686594000
O          0.3654804400       0.2890663300      13.8593718000
O          4.7574927300       3.1567878200       6.2583718000
O          3.4442336000       3.8255404800       1.0000000000
O          4.7312213100       0.9578189800       8.6010000000
O          5.3397909900       1.9099025200      15.5270312000
O          4.0528032800       4.7776240100       7.9260312000
O          6.8923032800       4.7776240100       1.0000000000
O          2.5002909900       1.9099025200       8.6010000000
O          1.8917213100       0.9578189800      15.5270312000
O          6.2837336000       3.8255404800       7.9260312000
O          4.9478368800       2.6314212400       3.4307998000
O          3.6608491700       5.4991427400      11.0317998000
O          3.8361877100       3.1040217500      13.0962314000
O          5.1231754100       0.2363002500       5.4952314000
O          2.2836754100       0.2363002500       3.4307998000
O          6.6756877100       3.1040217500      11.0317998000
O          6.5003491700       5.4991427400      13.0962314000
O          2.1083368800       2.6314212400       5.4952314000
H          5.8170039800       2.8889426300       3.1176386000
H          1.4249916900       0.0212211400      10.7186386000
H          2.9670206000       2.8465003600      13.4093926000
H          7.3590329000       5.7142218500       5.8083926000
H          4.5195329000       5.7142218500       3.1176386000
H          5.8065206000       2.8465003600      10.7186386000
H          4.2644916900       0.0212211400      13.4093926000
H          2.9775039800       2.8889426300       5.8083926000
H          4.9098271000       2.8224115000       4.3520410000
H          3.6228393900       5.6901329900      11.9530410000
H          3.8741974900       2.9130315000      12.1749902000
H          5.1611851900       0.0453100000       4.5739902000
H          2.3216851900       0.0453100000       4.3520410000
H          6.7136974900       2.9130315000      11.9530410000
H          6.4623393900       5.6901329900      12.1749902000
H          2.0703271000       2.8224115000       4.5739902000
Ca         1.0417807300       7.1693037400       1.8725948000
Ca         5.4337930300      10.0370252400       9.4735948000
Ca         2.5942930300      10.0370252400      14.6544364000
Ca         3.8812807300       7.1693037400       7.0534364000
S          5.4337930300      10.0370252400       1.8330696000
S          1.0417807300       7.1693037400       9.4340696000
S          3.8812807300       7.1693037400      14.6939616000
S          2.5942930300      10.0370252400       7.0929616000
O         -0.6559826800       8.8922308100       2.6676594000
O          0.6310050300       6.0245093200      10.2686594000
O          4.2920564400       8.3140981600      13.8593718000
O          3.0050687400      11.1818196600       6.2583718000
O          5.8445687400      11.1818196600       2.6676594000
O          1.4525564400       8.3140981600      10.2686594000
O         -2.2084949700       6.0245093200      13.8593718000
O          2.1835173200       8.8922308100       6.2583718000
O          0.8702581900       9.5609834700       1.0000000000
O          2.1572458900       6.6932619700       8.6010000000
O          2.7658155800       7.6453455100      15.5270312000
O          1.4788278700      10.5130670000       7.9260312000
O          4.3183278700      10.5130670000       1.0000000000
O         -0.0736844200       7.6453455100       8.6010000000
O         -0.6822541100       6.6932619700      15.5270312000
O          3.7097581900       9.5609834700       7.9260312000
O          2.3738614700       8.3668642400       3.4307998000
O          1.0868737600      11.2345857300      11.0317998000
O          1.2622122900       8.8394647400      13.0962314000
O          2.5492000000       5.9717432400       5.4952314000
O         -0.2903000000       5.9717432400       3.4307998000
O          4.1017122900       8.8394647400      11.0317998000
O          3.9263737600      11.2345857300      13.0962314000
O         -0.4656385300       8.3668642400       5.4952314000
H          3.2430285700       8.6243856300       3.1176386000
H         -1.1489837200       5.7566641300      10.7186386000
H          0.3930451900       8.5819433500      13.4093926000
H          4.7850574800      11.4496648400       5.8083926000
H          1.9455574800      11.4496648400       3.1176386000
H          3.2325451900       8.5819433500      10.7186386000
H          1.6905162800       5.7566641300      13.4093926000
H          0.4035285700       8.6243856300       5.8083926000
H          2.3358516900       8.5578544900       4.3520410000
H          1.0488639800      11.4255759800      11.9530410000
H          1.3002220800       8.6484744900      12.1749902000
H          2.5872097800       5.7807529900       4.5739902000
H         -0.2522902200       5.7807529900       4.3520410000
H          4.1397220800       8.6484744900      11.9530410000
H          3.8883639800      11.4255759800      12.1749902000
H         -0.5036483100       8.5578544900       4.5739902000
Ca         6.7207807300       7.1693037400       1.8725948000
Ca        -0.2452069700      10.0370252400       9.4735948000
Ca        -3.0847069700      10.0370252400      14.6544364000
Ca        -1.7977192700       7.1693037400       7.0534364000
S         -0.2452069700      10.0370252400       1.8330696000
S          6.7207807300       7.1693037400       9.4340696000
S         -1.7977192700       7.1693037400      14.6939616000
S         -3.0847069700      10.0370252400       7.0929616000
O          5.0230173200       8.8922308100       2.6676594000
O          6.3100050300       6.0245093200      10.2686594000
O         -1.3869435600       8.3140981600      13.8593718000
O         -2.6739312600      11.1818196600       6.2583718000
O          0.1655687400      11.1818196600       2.6676594000
O          7.1315564400       8.3140981600      10.2686594000
O          3.4705050300       6.0245093200      13.8593718000
O         -3.4954826800       8.8922308100       6.2583718000
O          6.5492581900       9.5609834700       1.0000000000
O          7.8362458900       6.6932619700       8.6010000000
O         -2.9131844200       7.6453455100      15.5270312000
O         -4.2001721300      10.5130670000       7.9260312000
O         -1.3606721300      10.5130670000       1.0000000000
O          5.6053155800       7.6453455100       8.6010000000
O          4.9967458900       6.6932619700      15.5270312000
O         -1.9692418100       9.5609834700       7.9260312000
O         -3.3051385300       8.3668642400       3.4307998000
O         -4.5921262400      11.2345857300      11.0317998000
O          6.9412122900       8.8394647400      13.0962314000
O          8.2282000000       5.9717432400       5.4952314000
O          5.3887000000       5.9717432400       3.4307998000
O         -1.5772877100       8.8394647400      11.0317998000
O         -1.7526262400      11.2345857300      13.0962314000
O          5.2133614700       8.3668642400       5.4952314000
H         -2.4359714300       8.6243856300       3.1176386000
H          4.5300162800       5.7566641300      10.7186386000
H          6.0720451900       8.5819433500      13.4093926000
H         -0.8939425200      11.4496648400       5.8083926000
H         -3.7334425200      11.4496648400       3.1176386000
H         -2.4464548100       8.5819433500      10.7186386000
H          7.3695162800       5.7566641300      13.4093926000
H          6.0825285700       8.6243856300       5.8083926000
H         -3.3431483100       8.5578544900       4.3520410000
H         -4.6301360200      11.4255759800      11.9530410000
H          6.9792220800       8.6484744900      12.1749902000
H          8.2662097800       5.7807529900       4.5739902000
H          5.4267097800       5.7807529900       4.3520410000
H         -1.5392779200       8.6484744900      11.9530410000
H         -1.7906360200      11.4255759800      12.1749902000
H          5.1753516900       8.5578544900       4.5739902000
