     192
 i =        1, E =     -2327.3703184216
 Ca         9.2947392967        1.4337248373        1.9366195810
 Ca         2.3288332078        4.3016496370        9.4749196156
 Ca        -0.5107151668        4.3017171726       14.5901534350
 Ca         0.7761952632        1.4337879424        7.0528854460
  S         2.3285831733        4.3016719354        1.7424539291
  S         9.2947821523        1.4338570414        9.4348228499
  S         0.7760704515        1.4339288530       14.7851476533
  S        -0.5107580878        4.3015859269        7.0927018013
  O         7.6097941523        3.1809932039        2.6289011118
  O         8.8830398828        0.2885350842       10.2694833203
  O         1.1747247396        2.5544594158       13.8988577255
  O        -0.0993677870        5.4468405064        6.2578700754
  O         2.7267409121        5.4221854927        2.6289097431
  O         9.7064947520        2.5791835301       10.2694939135
  O         6.0567932234        0.3132498551       13.8988464703
  O        -0.9221192963        3.1563272978        6.2578595671
  O         9.0618195457        3.8426462813        0.8008068770
  O        10.4108205239        0.9578350697        8.6010817263
  O        -0.2775476977        1.8931334529       15.7270312000
  O        -1.6265366147        4.7779392133        7.9265779596
  O         1.2747179409        4.7605508161        0.8008170109
  O         8.1787296078        1.9098723680        8.6010972167
  O         7.5090601983        0.9745564041       15.7270226063
  O         0.6050355439        3.8252399523        7.9265621101
  O        -0.7301168539        2.6307436661        3.4310984126
  O        -2.0188602162        5.4972016525       11.0295832243
  O         9.5137872925        3.1046827575       13.0962937728
  O        10.8030522616        0.2377026105        5.4974862748
  O         7.9616553341        0.2369996196        3.4310766762
  O         0.9975333462        3.1062296508       11.0286218942
  O         0.8227180021        5.4984574292       13.0963147122
  O         7.7863219654        2.6297514613        5.4984471185
  H         0.1394976077        2.8903194307        3.1176231543
  H         7.1046206560        0.0216415470       10.7188350917
  H         8.6441928421        2.8450198187       13.4095287232
  H         1.6793803393        5.7137893716        5.8081763612
  H        -1.1609996877        5.7128792970        3.1174212140
  H         0.1269044033        2.8460598392       10.7189457635
  H         9.9453597582        0.0226651638       13.4097306936
  H         8.6571451318        2.8893938764        5.8080694760
  H        -0.7706154812        2.8218180888        4.3534432838
  H        -2.0556040131        5.6904798634       11.9525563270
  H         9.5546225484        2.9136909660       12.1738991015
  H        10.8396169350        0.0449464836        4.5743986533
  H         8.0021222791        0.0459050213        4.3534196668
  H         1.0339150739        2.9127521251       11.9517008370
  H         0.7819198319        5.6894728977       12.1739221951
  H         7.7501239354        2.8227089594        4.5752584933
 Ca         3.6157433553        1.4337286754        1.9364735629
 Ca         8.0078318845        4.3016539001        9.4749185225
 Ca         5.1682820614        4.3017153438       14.5902982591
 Ca         6.4551946365        1.4337947794        7.0528832189
  S         8.0079552803        4.3015117800        1.7424528373
  S         3.6157814021        1.4338571863        9.4348343057
  S         6.4554401910        1.4337734627       14.7851482549
  S         5.1682425941        4.3015858825        7.0926896844
  O         1.9309053026        3.1809158793        2.6287325086
  O         3.2040335619        0.2885291201       10.2694815998
  O         6.8536237644        2.5545345255       13.8990219594
  O         5.5796386740        5.4468467845        6.2578726796
  O         8.4056339191        5.4222616777        2.6287403707
  O         4.0275012857        2.5791891734       10.2694916102
  O         0.3778874032        0.3131728549       13.8990149672
  O         4.7568745274        3.1563214114        6.2578614368
  O         3.3825761987        3.8425283981        0.8011990481
  O         4.7318280402        0.9578365745        8.6011045049
  O         5.4016943563        1.8932515542       15.7266457675
  O         4.0524559015        4.7779364395        7.9265558244
  O         6.9539583975        4.7606623799        0.8012085568
  O         2.4997215587        1.9098709110        8.6011190823
  O         1.8298225645        0.9744459396       15.7266341482
  O         6.2840430680        3.8252411277        7.9265402277
  O         4.9487927460        2.6307849438        3.4312693418
  O         3.6601416063        5.4972002156       11.0295785635
  O         3.8348831451        3.1046437304       13.0961227090
  O         5.1240513552        0.2377033633        5.4974913802
  O         2.2827447957        0.2369565969        3.4312498041
  O         6.6765309556        3.1062295429       11.0286160642
  O         6.5016276563        5.4984992149       13.0961430865
  O         2.1073245999        2.6297515580        5.4984539662
  H         5.8184830436        2.8902842273        3.1174493205
  H         1.4256236385        0.0216419497       10.7188296894
  H         2.9652138018        2.8450568461       13.4096982054
  H         7.3583771186        5.7137897170        5.8081808524
  H         4.5180170239        5.7129190838        3.1172448840
  H         5.8059011849        2.8460598532       10.7189420792
  H         4.2663363281        0.0226256240       13.4099036701
  H         2.9781490336        2.8893941235        5.8080736532
  H         4.9082102676        2.8217977391        4.3536536246
  H         3.6233948856        5.6904789825       11.9525523513
  H         3.8757954397        2.9137106277       12.1736894004
  H         5.1606170587        0.0449475833        4.5744025614
  H         2.3233021961        0.0459266951        4.3536347458
  H         6.7129171766        2.9127538936       11.9516971915
  H         6.4607421442        5.6894516604       12.1737098830
  H         2.0711216394        2.8227065607        4.5752619116
 Ca         1.0417757132        7.1692471578        1.9366514972
 Ca         5.4338010435       10.0370361627        9.4748356183
 Ca         2.5942975042       10.0370798058       14.5901209746
 Ca         3.8812752928        7.1692868179        7.0529698926
  S         5.4336009563       10.0372328985        1.7427710249
  S         1.0418021833        7.1693070773        9.4347898230
  S         3.8811023296        7.1692617398       14.7848272821
  S         2.5942718700       10.0370222721        7.0927343490
  O        -0.6431645581        8.9164090107        2.6289990021
  O         0.6301228103        6.0239616251       10.2694556182
  O         4.2797338914        8.2899324912       13.8987596264
  O         3.0055976523       11.1822989418        6.2578951650
  O         5.8314076850       11.1572825859        2.6299052112
  O         1.4534993911        8.3146290758       10.2694758734
  O        -2.1958265779        6.0490377811       13.8978591640
  O         2.1829262740        8.8917686808        6.2578761445
  O         0.8087785222        9.5784166714        0.8009535743
  O         2.1578540349        6.6933041669        8.6010571756
  O         2.8275413484        7.6282451761       15.7268824760
  O         1.4784793070       10.5133554309        7.9266024922
  O         4.3799569734       10.4962442615        0.8009443492
  O        -0.0742735999        7.6452985264        8.6010805565
  O        -0.7441287455        6.7097461079       15.7268913473
  O         3.7100866394        9.5606978844        7.9265797222
  O         2.3749330231        8.3661945499        3.4311005822
  O         1.0861260623       11.2324322429       11.0286857128
  O         1.2607863313        8.8401177600       13.0962915356
  O         2.5501185711        5.9733615126        5.4983862282
  O        -0.2914961610        5.9723466887        3.4311824844
  O         4.1025843682        8.8416870117       11.0286146397
  O         3.9279178990       11.2339981486       13.0962072298
  O        -0.4666798627        8.3651792539        5.4984539789
  H         3.2445408594        8.6257616266        3.1175960452
  H        -1.1484848408        5.7570500356       10.7188377076
  H         0.3911987188        8.5804643407       13.4095559451
  H         4.7845317010       11.4492686350        5.8081806915
  H         1.9440890720       11.4482911463        3.1176326198
  H         3.2319506762        8.5815027072       10.7189709579
  H         1.6923175254        5.7581399837       13.4095173567
  H         0.4041479618        8.6248373859        5.8080442901
  H         2.3343875979        8.5572540251        4.3534474962
  H         1.0495456622       11.4258329600       11.9517749584
  H         1.3016685267        8.6491411276       12.1738952319
  H         2.5865109820        5.7804773584        4.5751869989
  H        -0.2506655044        5.7813904377        4.3535549673
  H         4.1389178392        8.6481880112       11.9516868337
  H         3.8867552782       11.4248722688       12.1737844693
  H        -0.5028292299        8.5581596627        4.5752719265
 Ca         6.7207684776        7.1692382555        1.9365124037
 Ca        -0.2451997178       10.0370423157        9.4748344499
 Ca        -3.0846943212       10.0370905648       14.5902590119
 Ca        -1.7977242568        7.1692930899        7.0529673145
  S        -0.2450257575       10.0370674003        1.7427722368
  S         6.7207998835        7.1693059400        9.4348009033
  S        -1.7975270789        7.1691008772       14.7848301980
  S        -3.0847266179       10.0370239819        7.0927237483
  O         5.0359571983        8.9163319340        2.6288267472
  O         6.3091167292        6.0239540701       10.2694541622
  O        -1.3993780305        8.2900076270       13.8989276915
  O        -2.6733961327       11.1823059590        6.2578963293
  O         0.1522961819       11.1573578315        2.6297327378
  O         7.1325049542        8.3146321940       10.2694742083
  O         3.4832723871        6.0489621721       13.8980303105
  O        -3.4960791006        8.8917650974        6.2578786705
  O         6.4875348757        9.5783069514        0.8013437325
  O         7.8368616822        6.6933100237        8.6010772305
  O        -2.8512177024        7.6283559875       15.7264971187
  O        -4.2005283756       10.5133492806        7.9265830769
  O        -1.2987976831       10.4963647950        0.8013415847
  O         5.6047209377        7.6453000602        8.6010984109
  O         4.9346276428        6.7096269858       15.7264984965
  O        -1.9689078040        9.5606957433        7.9265608617
  O        -3.3041458840        8.3662396016        3.4312727775
  O        -4.5928704736       11.2324317078       11.0286802402
  O         6.9398708836        8.8400741509       13.0961192158
  O         8.2291155143        5.9733623198        5.4983920839
  O         5.3875906038        5.9723050323        3.4313520727
  O        -1.5764180864        8.8416865804       11.0286087680
  O        -1.7511706428       11.2340390537       13.0960394575
  O         5.2123231749        8.3651794006        5.4984609326
  H        -2.4344633488        8.6257274368        3.1174172631
  H         4.5305173037        5.7570496853       10.7188354390
  H         6.0702092855        8.5804998537       13.4097307176
  H        -0.8944703469       11.4492688612        5.8081819176
  H        -3.7348986137       11.4483273924        3.1174513999
  H        -2.4470533451        8.5815032280       10.7189672999
  H         7.3712991518        5.7581040580       13.4096952810
  H         6.0831523766        8.6248379525        5.8080487209
  H        -3.3447897172        8.5572334631        4.3536601177
  H        -4.6294571884       11.4258313267       11.9517710967
  H         6.9808447179        8.6491617219       12.1736825727
  H         8.2655132732        5.7804788093        4.5751913803
  H         5.4285123452        5.7814123776        4.3537644447
  H        -1.5400801919        8.6481900898       11.9516835891
  H        -1.7924203094       11.4248506033       12.1735781340
  H         5.1761677955        8.5581570714        4.5752753622
     192
 i =        2, E =     -2328.5635186731
 Ca         9.2947002005        1.4336825964        2.1350314285
 Ca         2.3288001163        4.3016103768        9.4771803342
 Ca        -0.5106756468        4.3017585379       14.3901534350
 Ca         0.7762450672        1.4338297230        7.0528311978
  S         2.3286540563        4.3016095924        1.7692831623
  S         9.2947814200        1.4338629907        9.4370409477
  S         0.7760843211        1.4338725441       14.7595616960
  S        -0.5107590701        4.3015805484        7.0919676525
  O         7.6043852147        3.1777889376        2.6585451403
  O         8.8811913521        0.2866303462       10.2718823960
  O         1.1805490320        2.5581584220       13.8712204004
  O        -0.0985217138        5.4485597265        6.2564756336
  O         2.7321502254        5.4254043869        2.6585467538
  O         9.7083207917        2.5811160318       10.2718870132
  O         6.0509677322        0.3095372466       13.8712166100
  O        -0.9229464934        3.1545822142        6.2564709352
  O         9.0608906644        3.8346194154        0.8270359620
  O        10.4120482805        0.9574312704        8.6011046449
  O        -0.2762802086        1.9013574932       15.7025317942
  O        -1.6270122030        4.7792859419        7.9284495854
  O         1.2756685270        4.7686035512        0.8270795015
  O         8.1774827939        1.9102451749        8.6011243482
  O         7.5077701315        0.9663042300       15.7024902846
  O         0.6055287782        3.8239258301        7.9284276662
  O        -0.7252830626        2.6288545243        3.4314074546
  O        -2.0192684678        5.4935551127       11.0293444898
  O         9.5079485008        3.1064697446       13.0970475855
  O        10.8038873893        0.2397743962        5.4978643964
  O         7.9568977786        0.2389378647        3.4313510764
  O         0.9979546328        3.1098995013       11.0282911470
  O         0.8284797780        5.4966168903       13.0971079411
  O         7.7855009195        2.6276607756        5.4989285319
  H         0.1446423064        2.8946194953        3.1186154409
  H         7.1058594414        0.0224793733       10.7180413594
  H         8.6380654284        2.8404250735       13.4089135406
  H         1.6779953605        5.7128901840        5.8089290086
  H        -1.1662640405        5.7086339427        3.1179916274
  H         0.1255992157        2.8452000513       10.7181231619
  H         9.9516100810        0.0272048782       13.4095410288
  H         8.6586021831        2.8903133765        5.8088609817
  H        -0.7734667724        2.8206062417        4.3562559399
  H        -2.0558264727        5.6922260419       11.9567385588
  H         9.5574451679        2.9151042050       12.1720022193
  H        10.8397866070        0.0431558080        4.5700205652
  H         8.0048960340        0.0470903758        4.3561914730
  H         1.0341404908        2.9110654664       11.9556353493
  H         0.7791781704        5.6880877262       12.1720726082
  H         7.7499609134        2.8244420538        4.5711471062
 Ca         3.6157065125        1.4336906573        2.1348471324
 Ca         8.0077871981        4.3016121145        9.4771785399
 Ca         5.1683209422        4.3017551076       14.3903351004
 Ca         6.4552311693        1.4338356237        7.0528290790
  S         8.0079179539        4.3015738177        1.7692823566
  S         3.6157794921        1.4338632880        9.4370505011
  S         6.4553945726        1.4338313362       14.7595612528
  S         5.1682427857        4.3015807523        7.0919548651
  O         1.9254126041        3.1776674289        2.6584478207
  O         3.2021809140        0.2866167519       10.2718675072
  O         6.8595842294        2.5582600507       13.8713030294
  O         5.5804892863        5.4485747364        6.2564918412
  O         8.4111367943        5.4255263488        2.6584431451
  O         4.0293327032        2.5811273297       10.2718716899
  O         0.3719168134        0.3094334434       13.8713075494
  O         4.7560424777        3.1545697739        6.2564847739
  O         3.3815862776        3.8345635700        0.8270488110
  O         4.7330633762        0.9574354407        8.6011365813
  O         5.4029906471        1.9014435384       15.7023796312
  O         4.0519719053        4.7792772474        7.9284174527
  O         6.9549655618        4.7686357560        0.8270877435
  O         2.4984672668        1.9102437296        8.6011540612
  O         1.8285118540        0.9662404489       15.7023331523
  O         6.2845452852        3.8239275766        7.9283936781
  O         4.9536752156        2.6289192581        3.4316254888
  O         3.6597337309        5.4935547141       11.0293422878
  O         3.8289995575        3.1064028221       13.0968332458
  O         5.1248868662        0.2397727159        5.4978677939
  O         2.2779362975        0.2388694657        3.4315736223
  O         6.6769521130        3.1098958894       11.0282892212
  O         6.5074354327        5.4966881823       13.0968904018
  O         2.1065034110        2.6276643601        5.4989315236
  H         5.8235464108        2.8945590959        3.1184151476
  H         1.4268604549        0.0224800134       10.7180321658
  H         2.9591748907        2.8404872906       13.4091046583
  H         7.3569931654        5.7128915661        5.8089367131
  H         4.5128366343        5.7086969940        3.1178078263
  H         5.8045968939        2.8452005997       10.7181175099
  H         4.2724947363        0.0271415909       13.4097173634
  H         2.9796048721        2.8903128909        5.8088679749
  H         4.9053049063        2.8205755021        4.3565117839
  H         3.6231712671        5.6922229154       11.9567363913
  H         3.8786691540        2.9151335394       12.1717503463
  H         5.1607868245        0.0431596890        4.5700223951
  H         2.3261315962        0.0471228942        4.3564552800
  H         6.7131445032        2.9110702526       11.9556358186
  H         6.4579480015        5.6880562055       12.1718149754
  H         2.0709570695        2.8244364561        4.5711464213
 Ca         1.0418162167        7.1692272598        2.1349507814
 Ca         5.4338387403       10.0370442244        9.4771123680
 Ca         2.5942557563       10.0370992094       14.3902345721
 Ca         3.8812513067        7.1692805852        7.0529003357
  S         5.4337013686       10.0372871617        1.7696539270
  S         1.0418139219        7.1693271556        9.4370105743
  S         3.8810791564        7.1690838540       14.7591650148
  S         2.5942598227       10.0370049935        7.0919966914
  O        -0.6485659875        8.9132557444        2.6586000785
  O         0.6282736830        6.0220364110       10.2718144184
  O         4.2855567182        8.2935773496       13.8711514070
  O         3.0064401108       11.1840385276        6.2565346522
  O         5.8367501983       11.1604798017        2.6599598906
  O         1.4553523052        8.3165830513       10.2718595844
  O        -2.2016586183        6.0453062196       13.8698755582
  O         2.1820749441        8.8900039708        6.2564957234
  O         0.8077660494        9.5703883594        0.8271013662
  O         2.1591105973        6.6928954856        8.6011151082
  O         2.8288911451        7.6364683223       15.7024300708
  O         1.4779761564       10.5147053847        7.9284413740
  O         4.3809467241       10.5041736241        0.8270743165
  O        -0.0755493476        7.6456584032        8.6011451872
  O        -0.7454441682        6.7015925989       15.7024225349
  O         3.7106068548        9.5593946655        7.9284089177
  O         2.3797794167        8.3643155688        3.4314248036
  O         1.0857671062       11.2287772046       11.0283323462
  O         1.2549353526        8.8418940694       13.0970299717
  O         2.5508857382        5.9754408960        5.4988981317
  O        -0.2966543422        5.9740587851        3.4317049524
  O         4.1030063598        8.8453607852       11.0282812074
  O         3.9340752851       11.2323937106       13.0967458586
  O        -0.4675014154        8.3630823183        5.4989372031
  H         3.2496940265        8.6300595817        3.1185738809
  H        -1.1471647658        5.7579223978       10.7180434619
  H         0.3850634190        8.5758729836       13.4089553452
  H         4.7830828973       11.4483463033        5.8089443797
  H         1.9389964727       11.4439881978        3.1187305495
  H         3.2306456380        8.5806391130       10.7181563810
  H         1.6983901698        5.7627388466       13.4087927718
  H         0.4056045953        8.6257613008        5.8088276986
  H         2.3315238537        8.5560440029        4.3562786226
  H         1.0493232268       11.4275174381       11.9556878647
  H         1.3045035191        8.6505527332       12.1719802271
  H         2.5866629890        5.7787445033        4.5711060047
  H        -0.2474415950        5.7826787872        4.3566486066
  H         4.1391360481        8.6464960885       11.9556178606
  H         3.8835569488       11.4233816285       12.1716032317
  H        -0.5029841632        8.5598992601        4.5711631544
 Ca         6.7208008996        7.1692119934        2.1347864682
 Ca        -0.2451729872       10.0370487481        9.4771082158
 Ca        -3.0847268544       10.0371176793       14.3903968742
 Ca        -1.7977598994        7.1692832863        7.0528949071
  S        -0.2450287722       10.0372432235        1.7696532819
  S         6.7208099154        7.1693257444        9.4370224172
  S        -1.7976097305        7.1690368628       14.7591669422
  S        -3.0847375732       10.0370077962        7.0919851637
  O         5.0304642866        8.9131336052        2.6584941876
  O         6.3072636639        6.0220216853       10.2718025055
  O        -1.3934150740        8.2936818609       13.8712439560
  O        -2.6725487226       11.1840525566        6.2565460477
  O         0.1577276855       11.1606008179        2.6598499282
  O         7.1343628310        8.3165921978       10.2718461042
  O         3.4773036976        6.0452020754       13.8699691371
  O        -3.4969345403        8.8899931773        6.2565110519
  O         6.4864613466        9.5703509029        0.8271176411
  O         7.8381251059        6.6929042857        8.6011440699
  O        -2.8498354690        7.6365364492       15.7022894368
  O        -4.2010400711       10.5146946810        7.9284105956
  O        -1.2977417244       10.5042251589        0.8270858989
  O         5.6034391381        7.6456580572        8.6011697462
  O         4.9332766772        6.7015127288       15.7022781270
  O        -1.9683804901        9.5593944146        7.9283811569
  O        -3.2992547370        8.3643799991        3.4316416931
  O        -4.5932284916       11.2287786880       11.0283308804
  O         6.9339798666        8.8418252584       13.0968169987
  O         8.2298817567        5.9754396758        5.4989008548
  O         5.3823957112        5.9740049316        3.4319062301
  O        -1.5759964970        8.8453564501       11.0282788523
  O        -1.7449824524       11.2324516032       13.0965495130
  O         5.2115022778        8.3630859357        5.4989408057
  H        -2.4293942697        8.6300008573        3.1183746725
  H         4.5318364607        5.7579209956       10.7180392145
  H         6.0641654997        8.5759323783       13.4091458787
  H        -0.8959185927       11.4483474154        5.8089467308
  H        -3.7399103561       11.4440497953        3.1185198173
  H        -2.4483590024        8.5806409215       10.7181509307
  H         7.3772838099        5.7626772690       13.4089955369
  H         6.0846088785        8.6257618089        5.8088350917
  H        -3.3477031883        8.5560147489        4.3565328185
  H        -4.6296819257       11.4275131522       11.9556870576
  H         6.9837266509        8.6505824866       12.1717284288
  H         8.2656672317        5.7787484873        4.5711081551
  H         5.4317710374        5.7827082636        4.3568835236
  H        -1.5398606317        8.6465015672       11.9556189986
  H        -1.7956507828       11.4233527268       12.1713745505
  H         5.1760105734        8.5598932890        4.5711628872
     192
 i =        3, E =     -2329.6084353241
 Ca         9.2951867913        1.4343523020        2.3326053661
 Ca         2.3286528064        4.3015753702        9.4875235460
 Ca        -0.5111649385        4.3012617927       14.2596581463
 Ca         0.7762925729        1.4338828577        7.0511403656
  S         2.3273961430        4.3016022052        1.9284822886
  S         9.2947325904        1.4338108838        9.4470641919
  S         0.7768913020        1.4329955972       14.5758639368
  S        -0.5107084870        4.3016227249        7.0909635983
  O         7.5995411352        3.1557110353        2.8373488149
  O         8.8705593006        0.2773580430       10.2802450478
  O         1.2252592149        2.5770323726       13.6826654605
  O        -0.0919819868        5.4575190323        6.2551774674
  O         2.7366939567        5.4475893307        2.8372997405
  O         9.7189230352        2.5902093972       10.2802786721
  O         6.0065514276        0.2904684849       13.6827368734
  O        -0.9294376818        3.1457029989        6.2552365429
  O         9.0222152302        3.8197865888        0.9148429242
  O        10.4196789487        0.9538591887        8.6057954368
  O        -0.2363896265        1.9461981920       15.5692633910
  O        -1.6302325192        4.7868632661        7.9367705163
  O         1.3148353555        4.7831858345        0.9130305362
  O         8.1699019618        1.9140733797        8.6058154174
  O         7.4674437908        0.9218173094       15.5710853661
  O         0.6087906206        3.8161823736        7.9366818931
  O        -0.6631886152        2.6640990230        3.4910663914
  O        -2.0143809831        5.4721758756       11.0360411787
  O         9.4482097210        3.0636957038       13.0467176376
  O        10.8010201881        0.2557661166        5.4917616079
  O         7.8942886528        0.2031431567        3.4919169972
  O         0.9930662006        3.1314189519       11.0346643572
  O         0.8887403050        5.5398849306       13.0458496947
  O         7.7884364640        2.6116811182        5.4937018313
  H         0.2040635700        2.9325194290        3.1187083619
  H         7.1098659285        0.0293901652       10.7112870709
  H         8.5760747631        2.8014349428       13.4093981093
  H         1.6736509035        5.7055038192        5.8149313849
  H        -1.2244605827        5.6705436190        3.1209423345
  H         0.1212446455        2.8382889201       10.7110422993
  H        10.0124006313        0.0664256878       13.4069863394
  H         8.6632333583        2.8976932936        5.8151290511
  H        -0.7543281058        2.8480557708        4.4332235890
  H        -2.0670993243        5.7171143620       11.9766873681
  H         9.5368930955        2.8883399721       12.1012246458
  H        10.8501941768        0.0181848577        4.5493724000
  H         7.9862969982        0.0195485285        4.4345412545
  H         1.0455425404        2.8865311575       11.9744924972
  H         0.7991532384        5.7149329837       12.0998955402
  H         7.7395296201        2.8490024538        4.5520472105
 Ca         3.6161590251        1.4343278827        2.3335857194
 Ca         8.0077083331        4.3015547223        9.4875317434
 Ca         5.1678634715        4.3012561808       14.2586841829
 Ca         6.4553431680        1.4338742019        7.0511420347
  S         8.0086304159        4.3017440727        1.9285173899
  S         3.6157331559        1.4338121975        9.4470513180
  S         6.4551948270        1.4345165504       14.5758142919
  S         5.1683034237        4.3016170045        7.0909659720
  O         1.9170521619        3.1561442038        2.8377812464
  O         3.1915736670        0.2774076564       10.2803167964
  O         6.9064439739        2.5776191116       13.6822986687
  O         5.5870225424        5.4575114547        6.2551722505
  O         8.4191205569        5.4471847554        2.8377760962
  O         4.0399182673        2.5901774933       10.2803222441
  O         0.3254404911        0.2898898750       13.6824155800
  O         4.7495798365        3.1457018660        6.2552218101
  O         3.3442882996        3.8189369711        0.9200517217
  O         4.7406290951        0.9538265413        8.6057343150
  O         5.4435548463        1.9454700089       15.5732945436
  O         4.0487614413        4.7868579205        7.9367444413
  O         6.9927235028        4.7840644961        0.9183871215
  O         2.4909454350        1.9140864060        8.6057560830
  O         1.7874690892        0.9224841320       15.5752204849
  O         6.2877521940        3.8161997008        7.9367649331
  O         5.0142897487        2.6634864431        3.4911106231
  O         3.6646199878        5.4721669026       11.0360452005
  O         3.7708000371        3.0642773409       13.0468699803
  O         5.1220220337        0.2557684056        5.4917591972
  O         2.2168515504        0.2037940427        3.4919384644
  O         6.6720725835        3.1314291151       11.0346624395
  O         6.5661203219        5.5392835121       13.0460159918
  O         2.1094271392        2.6116744161        5.4937137000
  H         5.8811134089        2.9323114509        3.1195714514
  H         1.4308472176        0.0294073163       10.7112908873
  H         2.8992766864        2.8016585399       13.4083251411
  H         7.3526624399        5.7054940121        5.8149287640
  H         4.4564445779        5.6707658445        3.1217233743
  H         5.8002574730        2.8382748540       10.7110510190
  H         4.3312555376        0.0661977133       13.4060131416
  H         2.9842211443        2.8977073093        5.8151271641
  H         4.9249418041        2.8481388968        4.4330554338
  H         3.6119115158        5.7171074709       11.9766903799
  H         3.8574617743        2.8882553912       12.1016160756
  H         5.1711709328        0.0182011535        4.5493684541
  H         2.3070060546        0.0194656845        4.4343378171
  H         6.7245248982        2.8865419652       11.9744875072
  H         6.4785903663        5.7150146781       12.1003059122
  H         2.0605558951        2.8489831311        4.5520559963
 Ca         1.0411337536        7.1686239915        2.3339458439
 Ca         5.4337188004       10.0370458962        9.4878101752
 Ca         2.5950302873       10.0376442937       14.2583367498
 Ca         3.8813382818        7.1693136836        7.0508798880
  S         5.4334644238       10.0378944118        1.9299429703
  S         1.0415605613        7.1689255523        9.4472916966
  S         3.8813552999        7.1682986420       14.5759928845
  S         2.5944907291       10.0373951496        7.0907354038
  O        -0.6528420939        8.8913139306        2.8376117611
  O         0.6178440689        6.0130491939       10.2817694822
  O         4.3297211767        8.3125175836       13.6830736449
  O         3.0127220643       11.1928727620        6.2538503259
  O         5.8421931168       11.1829269253        2.8410074311
  O         1.4658557825        8.3254161052       10.2803145278
  O        -2.2445229789        6.0279411856       13.6779675762
  O         2.1756853106        8.8813407609        6.2552321884
  O         0.7684391810        9.5555804387        0.9139481754
  O         2.1664964239        6.6892991163        8.6057757838
  O         2.8697995895        7.6815787476       15.5721776663
  O         1.4749060369       10.5222212132        7.9367450269
  O         4.4199152100       10.5195657026        0.9159573151
  O        -0.0828234890        7.6496356928        8.6056222263
  O        -0.7864655000        6.6573265160       15.5723985193
  O         3.7136205740        9.5515680215        7.9368062279
  O         2.4417350459        8.3995147038        3.4910386001
  O         1.0905046408       11.2070833803       11.0345495157
  O         1.1953155476        8.7991192897       13.0467566796
  O         2.5480597026        5.9914773480        5.4938718838
  O        -0.3572621313        5.9401970638        3.4898350553
  O         4.0980684544        8.8669245506       11.0346519110
  O         3.9921772085       11.2742988338       13.0480367139
  O        -0.4645031582        8.3470572211        5.4936507377
  H         3.3090637055        8.6679335483        3.1188501273
  H        -1.1427406316        5.7649493150       10.7112191320
  H         0.3230916641        8.5369062219       13.4092569599
  H         4.7786116750       11.4409434428        5.8149451132
  H         1.8792781382       11.4061551632        3.1183157953
  H         3.2262984552        8.5736951493       10.7109837759
  H         1.7606726203        5.8016498929       13.4098316821
  H         0.4102188462        8.6331716964        5.8152011958
  H         2.3507857249        8.5835235781        4.4331908237
  H         1.0380434844       11.4521008520       11.9743402828
  H         1.2838180394        8.6237645270       12.1012623146
  H         2.5970053006        5.7541505779        4.5522253735
  H        -0.2686919251        5.7547995060        4.4317301833
  H         4.1506095973        8.6219800737       11.9744638943
  H         3.9064081882       11.4506291676       12.1027301722
  H        -0.5135065340        8.5844498658        4.5520193101
 Ca         6.7201931078        7.1686998031        2.3347864682
 Ca        -0.2452351968       10.0370233031        9.4878056389
 Ca        -3.0840448432       10.0376094549       14.2574790214
 Ca        -1.7976117949        7.1692924076        7.0508752716
  S        -0.2433273947       10.0380784937        1.9300252979
  S         6.7205602332        7.1689307800        9.4472849432
  S        -1.7981298433        7.1697156163       14.5758849643
  S        -3.0845154155       10.0373922938        7.0907261807
  O         5.0227057014        8.8917397367        2.8380501432
  O         6.2968505216        6.0130902374       10.2818189072
  O        -1.3469072245        8.3130492319       13.6827065184
  O        -2.6662836854       11.1928729655        6.2538450129
  O         0.1666918114       11.1825351010        2.8415373018
  O         7.1448497252        8.3253852890       10.2803672950
  O         3.4320242143        6.0273340210       13.6779690305
  O        -3.5033193079        8.8813364231        6.2552153414
  O         6.4484656605        9.5547310233        0.9189770241
  O         7.8454517976        6.6892681895        8.6057206037
  O        -2.8085131230        7.6809485681       15.5753317656
  O        -4.2040818308       10.5222105374        7.9367617962
  O        -1.2601953824       10.5204012500        0.9212584774
  O         5.5962167253        7.6496473935        8.6055671577
  O         4.8919008205        6.6579896858       15.5757063680
  O        -1.9653812440        9.5515716721        7.9367900491
  O        -3.2387878576        8.3988905789        3.4910979093
  O        -4.5885021491       11.2070690946       11.0345465529
  O         6.8759147143        8.7997104712       13.0468894917
  O         8.2270645470        5.9914828674        5.4938743679
  O         5.3232180908        5.9407485874        3.4899409940
  O        -1.5809228964        8.8669371323       11.0346486835
  O        -1.6883721955       11.2737648224       13.0481324140
  O         5.2144871141        8.3470479138        5.4936688099
  H        -2.3718993372        8.6677214897        3.1196909396
  H         4.5362507054        5.7649581377       10.7112163282
  H         6.0043115281        8.5371294723       13.4082084202
  H        -0.9003806696       11.4409334118        5.8149454275
  H        -3.7977207019       11.4063660487        3.1192150261
  H        -2.4526924184        8.5736863277       10.7109991481
  H         7.4374486323        5.8014372311       13.4087540415
  H         6.0892096180        8.6331880213        5.8151933469
  H        -3.3279655675        8.5836094519        4.4330350853
  H        -4.6409429371       11.4520932641       11.9743302564
  H         6.9624104916        8.6236834267       12.1016326590
  H         8.2759844603        5.7541622054        4.5522308887
  H         5.4100965526        5.7547202319        4.4316357612
  H        -1.5284152264        8.6219898482       11.9744577254
  H        -1.7722248476       11.4507044341       12.1030548600
  H         5.1655201596        8.5844325772        4.5520360926
     192
 i =        4, E =     -2329.9503407119
 Ca         9.2944314635        1.4333370524        2.4452708087
 Ca         2.3289456009        4.3017767930        9.4921153925
 Ca        -0.5099756168        4.3007774032       14.0618258585
 Ca         0.7760287499        1.4337418842        7.0481971114
  S         2.3408921518        4.2971349138        1.8683453511
  S         9.2947656619        1.4339138349        9.4493030414
  S         0.7667038410        1.4371409684       14.6564324926
  S        -0.5107374381        4.3015458599        7.0939983109
  O         7.5883225680        3.1908750068        2.8459201362
  O         8.8688783373        0.2762159869       10.2859129112
  O         1.2079086568        2.5473276278       13.6880364785
  O        -0.0878814164        5.4591686887        6.2562320506
  O         2.7532922165        5.4103733426        2.8468162748
  O         9.7207534183        2.5916048204       10.2858928279
  O         6.0186213219        0.3223935080       13.6878108998
  O        -0.9337208507        3.1439199298        6.2562979897
  O         9.0551423158        3.7725322938        0.9206234880
  O        10.4188307600        0.9502743980        8.6037659445
  O        -0.2370402022        1.9749855381       15.6709584118
  O        -1.6303290116        4.7927444060        7.9421295307
  O         1.2743917837        4.8338560796        0.9441483238
  O         8.1705900924        1.9173916445        8.6038077153
  O         7.4760147166        0.8902793668       15.6482816972
  O         0.6089450605        3.8104527901        7.9420856099
  O        -0.6501744173        2.6700266818        3.5014325856
  O        -2.0195774613        5.4771197669       11.0284993376
  O         9.4495416703        3.0525869899       13.0410083471
  O        10.8036944978        0.2557219809        5.4943987573
  O         7.8824375681        0.1977403440        3.5017535298
  O         0.9978022945        3.1260231813       11.0272880404
  O         0.8867878050        5.5501724081       13.0410537087
  O         7.7859866488        2.6125793867        5.4961579794
  H         0.2254056504        2.9533890175        3.1596132105
  H         7.1102722337        0.0311756935       10.7090141472
  H         8.5636308153        2.7835160300       13.3684240555
  H         1.6742066214        5.7027841880        5.8169882871
  H        -1.2470679365        5.6497838514        3.1590415762
  H         0.1209065889        2.8365513322       10.7089892786
  H        10.0263866515        0.0841677510       13.3692707822
  H         8.6626579958        2.9003701048        5.8170192073
  H        -0.7171053748        2.8668246221        4.4454749404
  H        -2.0711381174        5.7300894234       11.9734045085
  H         9.5048564262        2.8740599519       12.0930709681
  H        10.8541561430        0.0027266795        4.5492134886
  H         7.9485103797        0.0005391082        4.4459532858
  H         1.0501015994        2.8737970865       11.9717683074
  H         0.8318541909        5.7294506104       12.0929648120
  H         7.7349455810        2.8642475141        4.5513242616
 Ca         3.6154480646        1.4333348710        2.4456474014
 Ca         8.0080614420        4.3016514570        9.4921236060
 Ca         5.1688673140        4.3009787454       14.0635336120
 Ca         6.4551424196        1.4336244293        7.0481922137
  S         8.0018245683        4.3039641457        1.8677269067
  S         3.6157650520        1.4339123166        9.4493119535
  S         6.4588540801        1.4327299806       14.6565080612
  S         5.1682679547        4.3015474438        7.0940344382
  O         1.9235585714        3.1843228745        2.8453124390
  O         3.1898850570        0.2762048377       10.2859173279
  O         6.8985697232        2.5432075915       13.6873290797
  O         5.5911186293        5.4591844934        6.2562828758
  O         8.4178968485        5.4166021353        2.8456200762
  O         4.0417305291        2.5916066339       10.2859112618
  O         0.3279614855        0.3264094910       13.6870788441
  O         4.7453278359        3.1439074544        6.2563273353
  O         3.3557208410        3.7815751197        0.8540519611
  O         4.7398785946        0.9502973152        8.6038427575
  O         5.4263297135        1.9806713879       15.6223218136
  O         4.0486121187        4.7927138432        7.9420825208
  O         6.9745856817        4.8246586884        0.8750513150
  O         2.4915492796        1.9173721293        8.6038790261
  O         1.8127160064        0.8843633292       15.5992575419
  O         6.2879727918        3.8104795896        7.9420921600
  O         5.0292975383        2.6705718771        3.5021307751
  O         3.6595100450        5.4770447133       11.0285317362
  O         3.7717316077        3.0516819817       13.0402512379
  O         5.1245774444        0.2557997698        5.4943366295
  O         2.2029480542        0.1972405050        3.5025213274
  O         6.6767255266        3.1261208674       11.0272572654
  O         6.5648007669        5.5511711354       13.0403905614
  O         2.1071103723        2.6125216449        5.4960394842
  H         5.9040164982        2.9530359256        3.1591969617
  H         1.4312888893        0.0312007120       10.7089661044
  H         2.8861927380        2.7836894814       13.3687066692
  H         7.3531813698        5.7027710107        5.8170605637
  H         4.4322637488        5.6501560311        3.1587483525
  H         5.7998830245        2.8365281369       10.7089373388
  H         4.3458986898        0.0839769783       13.3694657315
  H         2.9836838653        2.9003849713        5.8171072266
  H         4.9614286122        2.8667170615        4.4462528294
  H         3.6077169728        5.7300974401       11.9734106374
  H         3.8263574088        2.8740830998       12.0920585802
  H         5.1753991816        0.0026602380        4.5491931044
  H         2.2700097931        0.0006487576        4.4467949676
  H         6.7292207108        2.8737864083       11.9717147778
  H         6.5103828192        5.7294088784       12.0920212232
  H         2.0556896789        2.8643146087        4.5512561115
 Ca         1.0423957069        7.1701756158        2.4442032013
 Ca         5.4337485522       10.0369532371        9.4916004184
 Ca         2.5937032912       10.0369958032       14.0635435793
 Ca         3.8811183249        7.1694753548        7.0487034131
  S         5.4393121368       10.0355699110        1.8632358202
  S         1.0417657611        7.1693139340        9.4493513784
  S         3.8755779297        7.1716042136       14.6462249406
  S         2.5943243456       10.0371400241        7.0935927539
  O        -0.6693206274        8.9301618855        2.8436370220
  O         0.6155526450        6.0112236460       10.2854964037
  O         4.3178830016        8.2851446000       13.6838567165
  O         3.0167566558       11.1943848305        6.2548221413
  O         5.8527146915       11.1472670750        2.8443527451
  O         1.4677340386        8.3270527297       10.2859266092
  O        -2.2343187559        6.0581495773       13.6786540596
  O         2.1713775694        8.8792529034        6.2562315367
  O         0.8064047912        9.5063595018        0.9332779516
  O         2.1658488349        6.6857079200        8.6037865115
  O         2.8573523380        7.7132521073       15.6367068162
  O         1.4748432714       10.5282608862        7.9419727492
  O         4.3911341974       10.5657534117        0.9073460519
  O        -0.0824260313        7.6528737224        8.6039035474
  O        -0.7738500033        6.6239543210       15.6340122675
  O         3.7139402019        9.5461467021        7.9418881212
  O         2.4551406499        8.4051537496        3.5014243744
  O         1.0858433993       11.2124149290       11.0273919347
  O         1.1964146251        8.7881249728       13.0409372595
  O         2.5505251185        5.9906391758        5.4961487584
  O        -0.3725734807        5.9336223762        3.5018174290
  O         4.1027296286        8.8616911355       11.0276235059
  O         3.9934473710       11.2872321684       13.0401204877
  O        -0.4669768220        8.3476493181        5.4962575381
  H         3.3305665165        8.6888121212        3.1595749679
  H        -1.1428148768        5.7667280207       10.7098887453
  H         0.3105956176        8.5190166425       13.3684809760
  H         4.7794567957       11.4381399340        5.8158897946
  H         1.8587281346       11.3853467756        3.1602811256
  H         3.2260395866        8.5719061993       10.7089549808
  H         1.7727035238        5.8196064656       13.3677761089
  H         0.4096054500        8.6359299335        5.8169733601
  H         2.3878758074        8.6025060577        4.4453431796
  H         1.0334178194       11.4648642008       11.9718134438
  H         1.2519058477        8.6092395372       12.0930623318
  H         2.6016230393        5.7388406559        4.5513509129
  H        -0.3040034907        5.7362275111        4.4457185126
  H         4.1551841002        8.6090009158       11.9719648053
  H         3.9361548927       11.4647338707       12.0920425574
  H        -0.5179566794        8.5999188546        4.5515080786
 Ca         6.7213732930        7.1699852637        2.4446517916
 Ca        -0.2451366017       10.0368213993        9.4916004655
 Ca        -3.0850852991       10.0366736329       14.0651274862
 Ca        -1.7977733355        7.1693575359        7.0487024490
  S        -0.2572785771       10.0421399515        1.8625700438
  S         6.7207639959        7.1693066848        9.4493561537
  S        -1.7930682527        7.1683031823       14.6465855669
  S        -3.0846760818       10.0371435750        7.0936057977
  O         5.0234698303        8.9237876346        2.8429879426
  O         6.2945727076        6.0112239553       10.2855282278
  O        -1.3518138413        8.2819831292       13.6834132685
  O        -2.6622784592       11.1943947246        6.2548229555
  O         0.1596193058       11.1534457106        2.8428699244
  O         7.1467103557        8.3270528822       10.2859341900
  O         3.4350055323        6.0609517778       13.6782671125
  O        -3.5076057526        8.8792412765        6.2562524725
  O         6.4655053264        9.5151151287        0.8685892622
  O         7.8448966244        6.6857284236        8.6038541641
  O        -2.8335958224        7.7178981817       15.5993445189
  O        -4.2041936964       10.5282350976        7.9419380026
  O        -1.2674631404       10.5565583776        0.8402306887
  O         5.5965305898        7.6528539539        8.6039736151
  O         4.9177468834        6.6190970402       15.5947846899
  O        -1.9650173561        9.5461691398        7.9418376607
  O        -3.2233286201        8.4057318014        3.5020921178
  O        -4.5930872499       11.2123175723       11.0273623752
  O         6.8763975542        8.7871699902       13.0402515897
  O         8.2294182399        5.9907066646        5.4960729521
  O         5.3059883584        5.9330067129        3.5023832964
  O        -1.5763509947        8.8617871645       11.0276032932
  O        -1.6866989530       11.2881372612       13.0394629107
  O         5.2121445597        8.3476012261        5.4961521122
  H        -2.3487467220        8.6884412362        3.1591773825
  H         4.5362090374        5.7667472904       10.7098366256
  H         5.9909886623        8.5191896758       13.3687428207
  H        -0.8995768304       11.4381237731        5.8159662808
  H        -3.8198546251       11.3856903051        3.1598218275
  H        -2.4529866275        8.5718870302       10.7089049097
  H         7.4503344365        5.8194282064       13.3680558291
  H         6.0886358613        8.6359431201        5.8170632818
  H        -3.2915894854        8.6023968116        4.4460968712
  H        -4.6456933766       11.4648779807       11.9717601362
  H         6.9313653710        8.6092729328       12.0921206536
  H         8.2808608289        5.7387730872        4.5513203658
  H         5.3753690458        5.7363286775        4.4463689172
  H        -1.5236860430        8.6089897372       11.9719209235
  H        -1.7432806098       11.4647078825       12.0911338679
  H         5.1607845732        8.5999791526        4.5514486835
     192
 i =        5, E =     -2329.3460895782
 Ca         9.2933890319        1.4341114394        2.5690066655
 Ca         2.3290966095        4.3019657426        9.4967014674
 Ca        -0.5105904372        4.3045551938       13.8618258585
 Ca         0.7757583820        1.4336441716        7.0452004230
  S         2.3012379557        4.3113726495        1.7992788938
  S         9.2948126288        1.4339894330        9.4512838905
  S         0.7988165665        1.4266451739       14.7162073658
  S        -0.5107276141        4.3014864410        7.0977235432
  O         7.6014753030        3.2169081499        2.8487191613
  O         8.8669111817        0.2744998397       10.2910422930
  O         1.2296764048        2.5092229405       13.6776350312
  O        -0.0826171493        5.4610686320        6.2581175962
  O         2.7232092837        5.3913016776        2.8490464220
  O         9.7228711120        2.5935400608       10.2909578765
  O         6.0141112463        0.3538614394       13.6792429976
  O        -0.9391305039        3.1418641618        6.2582763137
  O         9.0493850533        3.7351229405        0.8038298932
  O        10.4183931822        0.9462521613        8.6018359632
  O        -0.2959179272        2.0291487266       15.5781913204
  O        -1.6306603250        4.7998194562        7.9476636385
  O         1.3035534316        4.8617401572        0.7564099888
  O         8.1709256831        1.9211666265        8.6019078858
  O         7.5118136940        0.8444423951       15.6309016604
  O         0.6093616205        3.8035346721        7.9477147261
  O        -0.6299428603        2.6822465650        3.5149431553
  O        -2.0246673093        5.4825161191       11.0208493970
  O         9.4467624937        3.0345151858       13.0301876954
  O        10.8066570580        0.2551649599        5.4966873370
  O         7.8629514010        0.1857589776        3.5148282159
  O         1.0023249248        3.1199245777       11.0206359734
  O         0.8881414898        5.5671345606       13.0309859497
  O         7.7831353675        2.6137803531        5.4987284042
  H         0.2547943046        2.9775378110        3.2039863717
  H         7.1106469176        0.0334745102       10.7062421660
  H         8.5460126134        2.7618273899       13.3242587564
  H         1.6751009543        5.6995660294        5.8192258741
  H        -1.2763845758        5.6257175951        3.2007987590
  H         0.1205991445        2.8342965394       10.7064435741
  H        10.0439968843        0.1057469220       13.3278494846
  H         8.6617031179        2.9035503353        5.8190600049
  H        -0.6749518141        2.8888514471        4.4618625647
  H        -2.0760957164        5.7469558399       11.9698065411
  H         9.4681373972        2.8558314496       12.0786943993
  H        10.8590154791       -0.0164376729        4.5490087504
  H         7.9058089332       -0.0217630860        4.4616516559
  H         1.0556420417        2.8571330834       11.9694535791
  H         0.8691390363        5.7478377581       12.0797110178
  H         7.7295831747        2.8832061644        4.5509424198
 Ca         3.6144092956        1.4343268367        2.5658289853
 Ca         8.0083538332        4.3017660450        9.4966844102
 Ca         5.1687300715        4.3039643444       13.8639342657
 Ca         6.4549035832        1.4334138778        7.0452127110
  S         8.0226856979        4.2962119214        1.7974483130
  S         3.6158063105        1.4339856979        9.4512531593
  S         6.4472816863        1.4361250777       14.7170501869
  S         5.1682664114        4.3014991963        7.0977160758
  O         1.8838786000        3.2312809205        2.8521468256
  O         3.1878988381        0.2743895626       10.2908692696
  O         6.8816249986        2.5193342447       13.6809240827
  O         5.5963718129        5.4610524747        6.2580717679
  O         8.4400434102        5.3759430170        2.8507467503
  O         4.0438559901        2.5936169658       10.2908279550
  O         0.3620307868        0.3433097362       13.6817374056
  O         4.7399570469        3.1418802218        6.2582191470
  O         3.4205227440        3.7196660636        0.9619937256
  O         4.7395449711        0.9463127218        8.6020159594
  O         5.4187501770        2.0161240332       15.6918926599
  O         4.0482822840        4.7997865504        7.9475905538
  O         6.9336440007        4.8778459526        0.9089936949
  O         2.4917848443        1.9211258090        8.6020691630
  O         1.7982041164        0.8581704350       15.7415673098
  O         6.2884146666        3.8035892577        7.9476242667
  O         5.0464373607        2.6825963847        3.5167329071
  O         3.6545406542        5.4824116046       11.0210209594
  O         3.7648878949        3.0311083052       13.0292075290
  O         5.1275552906        0.2553152999        5.4967773809
  O         2.1864143756        0.1854491076        3.5167187795
  O         6.6810916357        3.1200281025       11.0208654778
  O         6.5695075133        5.5704428960       13.0298097397
  O         2.1042080527        2.6135982489        5.4989255476
  H         5.9308012881        2.9773504210        3.2035238416
  H         1.4316978682        0.0334936546       10.7060934500
  H         2.8647462548        2.7622184408       13.3263637168
  H         7.3540571517        5.6995245225        5.8192572638
  H         4.4059358757        5.6258608953        3.2004799906
  H         5.7995382312        2.8342749732       10.7062929090
  H         4.3669038695        0.1053868029       13.3296733757
  H         2.9827368703        2.9035901187        5.8191129264
  H         5.0032096507        2.8889069927        4.4638721245
  H         3.6024524180        5.7470213331       11.9699179401
  H         3.7905580831        2.8561971771       12.0768619583
  H         5.1801773761       -0.0164879596        4.5491465430
  H         2.2276824201       -0.0218195447        4.4637618044
  H         6.7351291426        2.8570340093       11.9696193160
  H         6.5466032437        5.7474685634       12.0776581763
  H         2.0504664762        2.8832554796        4.5511850279
 Ca         1.0435339630        7.1699375426        2.5672748006
 Ca         5.4338911073       10.0369218728        9.4955040308
 Ca         2.5927427272       10.0347773570       13.8657124660
 Ca         3.8809562886        7.1695844640        7.0464837275
  S         5.4213944799       10.0418055876        1.8064766591
  S         1.0419333404        7.1696679118        9.4511646025
  S         3.8941695773        7.1665746497       14.7353587668
  S         2.5940951688       10.0368689144        7.0971012666
  O        -0.6400860608        8.9434774908        2.8536903443
  O         0.6129939352        6.0089225497       10.2888862020
  O         4.3244632963        8.2449094699       13.6890792889
  O         3.0218144959       11.1960903592        6.2565200434
  O         5.8445050232       11.1247855654        2.8512720879
  O         1.4699030949        8.3292249081       10.2909596409
  O        -2.2387169481        6.0991198273       13.6832289057
  O         2.1659005097        8.8768868784        6.2580588045
  O         0.7860755482        9.4764944415        0.7731220427
  O         2.1655842644        6.6817289842        8.6019142327
  O         2.8300248220        7.7563217959       15.6520957416
  O         1.4745016403       10.5355546646        7.9473663138
  O         4.3875865029       10.6070993321        0.8264684705
  O        -0.0824029129        7.6565103464        8.6022289947
  O        -0.7504009625        6.5807077204       15.6589574004
  O         3.7144588501        9.5395206571        7.9471224074
  O         2.4745629028        8.4167035371        3.5153743252
  O         1.0813851721       11.2185014093       11.0210503905
  O         1.1940297893        8.7704951574       13.0299581899
  O         2.5533474853        5.9894478922        5.4984369629
  O        -0.3936462343        5.9213695100        3.5171496899
  O         4.1074258818        8.8560069735       11.0202327010
  O         3.9971309348       11.3062265336       13.0269902609
  O        -0.4696543982        8.3489081158        5.4981502137
  H         3.3589014572        8.7130659781        3.2038469581
  H        -1.1428295864        5.7690565650       10.7081176740
  H         0.2934320475        8.4974844522       13.3244766830
  H         4.7806858270       11.4348663552        5.8170631560
  H         1.8298084873       11.3612361952        3.2056020141
  H         3.2257382357        8.5695389737       10.7066251453
  H         1.7892488079        5.8412969882       13.3224686268
  H         0.4086093107        8.6391188401        5.8190643665
  H         2.4298828247        8.6247557404        4.4619878233
  H         1.0276827066       11.4815630411       11.9697891499
  H         1.2154161124        8.5908739248       12.0786651737
  H         2.6071602837        5.7198267910        4.5507182437
  H        -0.3442593152        5.7144288915        4.4639188010
  H         4.1605326316        8.5922040774       11.9689682303
  H         3.9708374515       11.4828081869       12.0751989236
  H        -0.5235259481        8.6191119910        4.5505907303
 Ca         6.7224432888        7.1700696047        2.5640198356
 Ca        -0.2448753050       10.0367022740        9.4955260691
 Ca        -3.0865030224       10.0355903114       13.8674253423
 Ca        -1.7978416293        7.1694092910        7.0464937057
  S        -0.2152698088       10.0265346985        1.8103846042
  S         6.7209255750        7.1696481895        9.4511670584
  S        -1.8082191427        7.1735635377       14.7346266655
  S        -3.0849034397       10.0368653576        7.0970837189
  O         5.0008976697        8.9595842940        2.8542761600
  O         6.2919981694        6.0088595177       10.2888473574
  O        -1.3753444130        8.2530582375       13.6911640028
  O        -2.6572629939       11.1960723595        6.2564383866
  O         0.2044540003       11.1111669915        2.8551694729
  O         7.1488884898        8.3292851570       10.2908585265
  O         3.4604516310        6.0911885432       13.6866976647
  O        -3.5130552331        8.8769187388        6.2579739535
  O         6.5133755045        9.4605303854        0.9225146544
  O         7.8447098523        6.6817644687        8.6020986389
  O        -2.8235000453        7.7457913896       15.7352400914
  O        -4.2045429078       10.5354937583        7.9472931994
  O        -1.3446346380       10.6222355751        0.9909625817
  O         5.5964741972        7.6564755570        8.6024076106
  O         4.9025495405        6.5909076310       15.7442978317
  O        -1.9644996435        9.5395467932        7.9470425914
  O        -3.2073972286        8.4169566040        3.5171953513
  O        -4.5973846561       11.2184111694       11.0213218723
  O         6.8706379524        8.7672564125       13.0288121585
  O         8.2322993979        5.9896357627        5.4987097309
  O         5.2883867694        5.9209647578        3.5188865283
  O        -1.5718120539        8.8561075098       11.0204511865
  O        -1.6794479529       11.3093740203       13.0261432676
  O         5.2093826934        8.3486950357        5.4985000566
  H        -2.3234348642        8.7129441703        3.2034428184
  H         4.5362368513        5.7690835696       10.7080039475
  H         5.9706184230        8.4978013555       13.3265671412
  H        -0.8983496264       11.4348313622        5.8171300952
  H        -3.8462613435       11.3614002908        3.2050641575
  H        -2.4533255129        8.5695208112       10.7064650255
  H         7.4700504455        5.8409661088       13.3246513734
  H         6.0876566752        8.6391626774        5.8190916031
  H        -3.2499250999        8.6248208180        4.4640156636
  H        -4.6518014405       11.4816618080       11.9699941620
  H         6.8958742815        8.5912203473       12.0766898119
  H         8.2862416446        5.7197744311        4.5510137449
  H         5.3355067908        5.7143577703        4.4658980197
  H        -1.5179871398        8.5921213155       11.9691200905
  H        -1.7093901785       11.4824645000       12.0735515383
  H         5.1553917536        8.6191550363        4.5509599251
     192
 i =        6, E =     -2329.9027669421
 Ca         9.2944406008        1.4362105460        2.5544150658
 Ca         2.3288197222        4.3015731082        9.4936647800
 Ca        -0.5127443758        4.2995181013       13.9700494732
 Ca         0.7757057432        1.4338254499        7.0468392842
  S         2.3184720400        4.3057587035        1.8283035894
  S         9.2947804739        1.4338177993        9.4482861011
  S         0.7838276241        1.4311812609       14.6583648805
  S        -0.5106825742        4.3016166760        7.0992994225
  O         7.5797437368        3.1784017866        2.8730763332
  O         8.8652165781        0.2710578659       10.2833543610
  O         1.2250971630        2.5411888356       13.6529611246
  O        -0.0780026446        5.4622417964        6.2624225489
  O         2.7431245870        5.4146775303        2.8468510786
  O         9.7243556656        2.5965568163       10.2833841264
  O         6.0077518370        0.3189605325       13.6446024814
  O        -0.9434821822        3.1407904792        6.2627652730
  O         9.0623590654        3.7249912908        0.9390457341
  O        10.4220832760        0.9456379172        8.6041379831
  O        -0.2463941862        2.0152176196       15.6205497811
  O        -1.6328988130        4.8031028557        7.9445482423
  O         1.3179625035        4.8607505721        0.7979579064
  O         8.1675250438        1.9220450675        8.6041182578
  O         7.4857695880        0.8470105154       15.6007128499
  O         0.6114770344        3.8001338324        7.9446163986
  O        -0.6052952962        2.7147831012        3.5361822483
  O        -2.0178527837        5.4788406989       11.0300541989
  O         9.4046595093        2.9927783350       12.9965799132
  O        10.8060603109        0.2534033838        5.4929059176
  O         7.8377494801        0.1523725079        3.5372164638
  O         0.9962635597        3.1246831139       11.0294886992
  O         0.9317128755        5.6113857178       12.9959131194
  O         7.7834717874        2.6144859946        5.4950015621
  H         0.2798362440        2.9874680956        3.1986558222
  H         7.1105798762        0.0364517525       10.7045040921
  H         8.5102226038        2.7472375100       13.3380992230
  H         1.6765929483        5.6976066392        5.8193448599
  H        -1.3004857158        5.6157134369        3.1989087951
  H         0.1205395659        2.8313315498       10.7044937450
  H        10.0777419979        0.1203538925       13.3367830329
  H         8.6600789350        2.9053729832        5.8195738801
  H        -0.6687374502        2.8992792583        4.4881046709
  H        -2.0814911306        5.7649121154       11.9745689229
  H         9.4612279513        2.8392789382       12.0388416068
  H        10.8618527661       -0.0300791145        4.5480710086
  H         7.9004261700       -0.0320251049        4.4893865473
  H         1.0603015461        2.8389514689       11.9735048150
  H         0.8747969103        5.7642259581       12.0376249192
  H         7.7273405773        2.8972515526        4.5503148362
 Ca         3.6163323334        1.4347626907        2.5528475889
 Ca         8.0079356003        4.3015546008        9.4938269258
 Ca         5.1652114291        4.3033184385       13.9675616345
 Ca         6.4552036093        1.4338237758        7.0468400473
  S         8.0102395401        4.2997859265        1.8794622203
  S         3.6157418145        1.4338056915        9.4483552249
  S         6.4564539888        1.4336229698       14.6379882639
  S         5.1682575014        4.3015765595        7.0993738314
  O         1.8910339490        3.1971522561        2.8465035421
  O         3.1860934516        0.2710502874       10.2834145038
  O         6.9061553405        2.5486580649       13.6452178280
  O         5.6008510889        5.4622512793        6.2625090470
  O         8.4417625378        5.4230362181        2.8707707510
  O         4.0454054790        2.5965559762       10.2834189446
  O         0.3339794319        0.3209707285       13.6573254906
  O         4.7354650115        3.1408138750        6.2627244162
  O         3.3455354668        3.7416833377        0.8431313726
  O         4.7429708189        0.9455523353        8.6041517529
  O         5.4220279408        2.0226842924       15.5922525269
  O         4.0460816236        4.8030105268        7.9446697789
  O         6.9720465266        4.8646217262        0.9130170497
  O         2.4886067731        1.9221224245        8.6040798852
  O         1.7939206844        0.8553925365       15.6579823726
  O         6.2904598831        3.8001327226        7.9446264997
  O         5.0733263542        2.7151001789        3.5370739746
  O         3.6609669421        5.4788934437       11.0300170961
  O         3.7277392209        2.9923215144       12.9967524836
  O         5.1271048691        0.2537162458        5.4936329755
  O         2.1579371016        0.1518955563        3.5379927664
  O         6.6752703599        3.1244074932       11.0300693547
  O         6.6097006623        5.6114027874       12.9963127431
  O         2.1042673565        2.6139691404        5.4965048533
  H         5.9575206146        2.9871931992        3.1989479393
  H         1.4315675256        0.0365117808       10.7046635247
  H         2.8328713445        2.7475185194       13.3371070238
  H         7.3556968519        5.6976660791        5.8196669373
  H         4.3805277684        5.6160083061        3.1990174624
  H         5.7996515064        2.8313372082       10.7044722494
  H         4.3972070315        0.1200226454       13.3358452262
  H         2.9812389270        2.9055122112        5.8193572540
  H         5.0103718383        2.8992697841        4.4890883197
  H         3.5976805576        5.7647938267       11.9745782326
  H         3.7822198225        2.8391692154       12.0388776521
  H         5.1830441052       -0.0301808664        4.5487873573
  H         2.2212407158       -0.0319787184        4.4902527096
  H         6.7392267788        2.8390173688       11.9740761173
  H         6.5540032762        5.7642339918       12.0380631954
  H         2.0483694555        2.8973021273        4.5516731371
 Ca         1.0416751799        7.1655269606        2.5550733240
 Ca         5.4338841571       10.0372245574        9.4938157395
 Ca         2.5972080738       10.0384545530       13.9689508992
 Ca         3.8814058627        7.1693579129        7.0474943925
  S         5.4433438790       10.0354865990        1.8943237008
  S         1.0416476405        7.1691240804        9.4485300544
  S         3.8930307255        7.1656193379       14.6774288634
  S         2.5942104297       10.0370462263        7.0985625952
  O        -0.6720068064        8.9217478806        2.8608158856
  O         0.6121827913        6.0066973185       10.2843812021
  O         4.3340743187        8.2719438294       13.6653631877
  O         3.0261031040       11.1969500552        6.2600079997
  O         5.8714591465       11.1619116003        2.8810914417
  O         1.4713554156        8.3318885167       10.2835267717
  O        -2.2467771487        6.0689125185       13.6569677223
  O         2.1613831504        8.8758934578        6.2625060145
  O         0.7921771385        9.4695947549        0.8890833139
  O         2.1689876625        6.6809797432        8.6043863160
  O         2.8567616207        7.7538509278       15.6306531090
  O         1.4722841792       10.5388480937        7.9440864001
  O         4.3711016768       10.6197502576        0.9911464308
  O        -0.0853974205        7.6577805462        8.6042496452
  O        -0.7735064905        6.5836513579       15.6275638629
  O         3.7163594385        9.5360430819        7.9443076104
  O         2.4998857889        8.4501743175        3.5365510237
  O         1.0872153894       11.2140570369       11.0300950062
  O         1.1523123676        8.7278880408       12.9965068156
  O         2.5534110253        5.9892078174        5.4964224418
  O        -0.4161721145        5.8900415033        3.5359714109
  O         4.1014559383        8.8597129615       11.0291046989
  O         4.0352319617       11.3450052231       12.9968677911
  O        -0.4698028316        8.3497651186        5.4958878048
  H         3.3846732266        8.7230545551        3.1986842266
  H        -1.1421655032        5.7719052526       10.7049303405
  H         0.2574016890        8.4830167160       13.3380908448
  H         4.7819307008       11.4331872329        5.8182453511
  H         1.8045632913       11.3513048421        3.1990633108
  H         3.2255372606        8.5666509494       10.7044587515
  H         1.8264543819        5.8560939721       13.3380394091
  H         0.4070691213        8.6409049643        5.8193639736
  H         2.4362816804        8.6351495087        4.4884240352
  H         1.0231471015       11.4996202218       11.9740635258
  H         1.2083891400        8.5744502562       12.0386448455
  H         2.6088959024        5.7059609123        4.5515814557
  H        -0.3529713985        5.7036088022        4.4874763363
  H         4.1652524142        8.5745664495       11.9733537483
  H         3.9812045184       11.4997702758       12.0393232453
  H        -0.5252805480        8.6326771733        4.5511265163
 Ca         6.7195277205        7.1681413892        2.5537146890
 Ca        -0.2449404227       10.0372318442        9.4936174106
 Ca        -3.0816397345       10.0387020210       13.9664480465
 Ca        -1.7977415165        7.1690827944        7.0474737525
  S        -0.2464421549       10.0373248727        1.8541280451
  S         6.7206419054        7.1691281611        9.4484100631
  S        -1.8072817512        7.1732957458       14.6715807922
  S        -3.0847798262       10.0370866760        7.0986186548
  O         5.0050900056        8.9099917988        2.8778712994
  O         6.2912080251        6.0066281867       10.2841964650
  O        -1.3601906508        8.2803330051       13.6638197197
  O        -2.6528214416       11.1969217235        6.2599763357
  O         0.1867609503       11.1530823231        2.8576419002
  O         7.1503145778        8.3319447975       10.2833684367
  O         3.4460380065        6.0621263016       13.6642753237
  O        -3.5175262919        8.8758777564        6.2625784629
  O         6.4727798551        9.4744385943        0.9127251226
  O         7.8479977342        6.6811113097        8.6042386843
  O        -2.8092972625        7.7459683352       15.6861879124
  O        -4.2067041673       10.5389074667        7.9441160589
  O        -1.2607341556       10.5929626398        0.8463440595
  O         5.5935834034        7.6576604994        8.6040983354
  O         4.8849528225        6.5918186909       15.7063274669
  O        -1.9626420222        9.5360770743        7.9443375982
  O        -3.1795876354        8.4505395335        3.5373622691
  O        -4.5920034443       11.2139754383       11.0295203229
  O         6.8322291091        8.7274130629       12.9967073265
  O         8.2320621618        5.9888484749        5.4950070340
  O         5.2643785944        5.8897263069        3.5371077083
  O        -1.5774248263        8.8596275782       11.0292897868
  O        -1.6455592295       11.3457681144       12.9972175875
  O         5.2095954677        8.3500580480        5.4946021419
  H        -2.2954981845        8.7227302450        3.1988385825
  H         4.5367444885        5.7719472680       10.7050980567
  H         5.9373077273        8.4832851699       13.3372875270
  H        -0.8971839273       11.4330848859        5.8181096369
  H        -3.8741141841       11.3516200073        3.1992601944
  H        -2.4533519357        8.5666213930       10.7045840726
  H         7.5043871638        5.8558055393       13.3370608195
  H         6.0860317659        8.6408556043        5.8197213162
  H        -3.2428197566        8.6350386715        4.4893459029
  H        -4.6555046927       11.4994495983       11.9736159805
  H         6.8872861542        8.5743976697       12.0387563076
  H         8.2886662117        5.7057147572        4.5503911586
  H         5.3263166863        5.7036827665        4.4887857698
  H        -1.5138980822        8.5745998295       11.9735160663
  H        -1.6977442777       11.4998189036       12.0395349097
  H         5.1528826368        8.6329450412        4.5500493323
     192
 i =        7, E =     -2329.9440770582
 Ca         9.2960473419        1.4344740996        2.5417757910
 Ca         2.3286408588        4.3013237370        9.4922143684
 Ca        -0.5138700150        4.2967816730       14.0393578905
 Ca         0.7759373527        1.4340101682        7.0475433961
  S         2.3375566437        4.2990513104        1.9211373153
  S         9.2946899657        1.4337097091        9.4462596323
  S         0.7672244451        1.4365735806       14.6187561804
  S        -0.5107563918        4.3016431765        7.1005098509
  O         7.5807462083        3.1604980561        2.8706331081
  O         8.8640630920        0.2692969817       10.2787663235
  O         1.2163522995        2.5650641818       13.6371108207
  O        -0.0752000456        5.4629715542        6.2655937107
  O         2.7726374406        5.4465051125        2.8810931221
  O         9.7252743997        2.5980745624       10.2788124899
  O         6.0067505848        0.3081504473       13.6422714775
  O        -0.9463909312        3.1401566996        6.2659010989
  O         9.0353063351        3.7316666869        0.9098916956
  O        10.4241557958        0.9450345477        8.6055007833
  O        -0.2062343091        2.0036732516       15.6709411811
  O        -1.6343319336        4.8050397277        7.9427238391
  O         1.2791148748        4.8758451038        0.9979579064
  O         8.1655423539        1.9227624809        8.6053276007
  O         7.4493717978        0.8551836720       15.6502796821
  O         0.6127621292        3.7979938978        7.9426281828
  O        -0.5902638169        2.7345304590        3.5497008323
  O        -2.0137312638        5.4768755789       11.0360922439
  O         9.3795614038        2.9682739170       12.9757408121
  O        10.8057152886        0.2525757862        5.4916023068
  O         7.8214420599        0.1318910038        3.5511667713
  O         0.9926163964        3.1273287650       11.0349800621
  O         0.9591506595        5.6376835519       12.9747125488
  O         7.7836447651        2.6147158376        5.4936680788
  H         0.2949223438        2.9937100343        3.1954681135
  H         7.1105387437        0.0384444715       10.7037274997
  H         8.4887672157        2.7380861065       13.3454946600
  H         1.6777374949        5.6964211568        5.8198656625
  H        -1.3155933323        5.6096613609        3.1977476686
  H         0.1206294764        2.8294228115       10.7034261349
  H        10.0985862057        0.1295314512       13.3414657569
  H         8.6591421160        2.9066556974        5.8198026364
  H        -0.6641544916        2.9061800237        4.5044616855
  H        -2.0848270591        5.7765421251       11.9774558261
  H         9.4558252327        2.8284062943       12.0145528406
  H        10.8635893608       -0.0387498190        4.5487119508
  H         7.8964345964       -0.0387197373        4.5064171893
  H         1.0631359549        2.8272563906       11.9756898479
  H         0.8797247957        5.7749969045       12.0125368012
  H         7.7260545690        2.9061637395        4.5510863434
 Ca         3.6164087904        1.4343300710        2.5416397443
 Ca         8.0078414427        4.3014279695        9.4921797947
 Ca         5.1656043383        4.2962567855       14.0352826841
 Ca         6.4552370885        1.4339484596        7.0475822213
  S         8.0121420069        4.2988419038        1.8948789955
  S         3.6157124451        1.4337202589        9.4462169775
  S         6.4584800011        1.4333480428       14.6278188286
  S         5.1682851244        4.3016611840        7.1005983655
  O         1.8922631053        3.1527979989        2.8780552976
  O         3.1850707277        0.2693388273       10.2787864937
  O         6.9119282451        2.5584925315       13.6426102206
  O         5.6038423706        5.4629734943        6.2656283924
  O         8.4448890837        5.4401680727        2.8667687089
  O         4.0462973543        2.5980683683       10.2788250188
  O         0.3103896266        0.3079952323       13.6405453115
  O         4.7326528331        3.1401896389        6.2659167263
  O         3.3291602892        3.7464326185        0.8840037503
  O         4.7450213468        0.9450691928        8.6052277026
  O         5.4529944586        2.0166180813       15.6262519789
  O         4.0447147502        4.8050719124        7.9427839270
  O         7.0068834939        4.8533572915        0.8767369237
  O         2.4866755674        1.9227129110        8.6050971415
  O         1.7993513616        0.8507321087       15.5756450914
  O         6.2917118840        3.7979699444        7.9427723586
  O         5.0884366340        2.7346866439        3.5501112034
  O         3.6649325543        5.4770971140       11.0360394337
  O         3.7059660030        2.9696650297       12.9767663067
  O         5.1265455201        0.2524568691        5.4910627650
  O         2.1431101793        0.1321447553        3.5516645364
  O         6.6720551460        3.1272711371       11.0344859590
  O         6.6331003251        5.6354596191       12.9754777059
  O         2.1049568642        2.6150276044        5.4926318306
  H         5.9730383345        2.9931781207        3.1964504105
  H         1.4313503257        0.0384834036       10.7039971853
  H         2.8142097618        2.7382406612       13.3424923873
  H         7.3566310050        5.6963387058        5.8198441909
  H         4.3642446010        5.6098658492        3.1984992519
  H         5.7997898842        2.8293572570       10.7037411846
  H         4.4157618678        0.1291730287       13.3388038523
  H         2.9801527856        2.9066762303        5.8200109007
  H         5.0153596882        2.9061570203        4.5049491578
  H         3.5947617040        5.7762569303       11.9775055715
  H         3.7757657379        2.8280033345       12.0159314336
  H         5.1851221345       -0.0389796462        4.5483244794
  H         2.2168676893       -0.0387208274        4.5068585493
  H         6.7413733998        2.8275026438       11.9753802232
  H         6.5598704466        5.7753861223       12.0138537436
  H         2.0462488374        2.9064551252        4.5502243649
 Ca         1.0388466877        7.1685954200        2.5443376121
 Ca         5.4337586174       10.0373667390        9.4927022166
 Ca         2.5998783980       10.0427604995       14.0357730253
 Ca         3.8812173268        7.1691156142        7.0478141775
  S         5.4342096533       10.0396215838        1.8928244972
  S         1.0415061924        7.1688114537        9.4464963618
  S         3.8724387211        7.1721604948       14.6115495174
  S         2.5943508506       10.0372158531        7.0996965336
  O        -0.6792467498        8.8942202898        2.8778759345
  O         0.6117981275        6.0055462541       10.2813430148
  O         4.3269587178        8.3041684912       13.6382486311
  O         3.0291179244       11.1974898549        6.2626471530
  O         5.8597968770       11.1778490086        2.8718160294
  O         1.4721671798        8.3332335166       10.2788746891
  O        -2.2411252851        6.0390345866       13.6336544705
  O         2.1585766515        8.8752568392        6.2658040816
  O         0.7881702135        9.4691731545        0.9461688346
  O         2.1710496527        6.6805052204        8.6056109229
  O         2.8832420113        7.7479008948       15.6369888167
  O         1.4709393090       10.5409265043        7.9420352067
  O         4.4232639986       10.6046723111        0.8898417680
  O        -0.0871815467        7.6586445075        8.6052700868
  O        -0.7988090010        6.5898406991       15.6335312774
  O         3.7175681486        9.5339838667        7.9426292696
  O         2.5156821863        8.4704837113        3.5497081578
  O         1.0905101835       11.2112035533       11.0343882188
  O         1.1261023483        8.7024728710       12.9760588183
  O         2.5529176049        5.9882733232        5.4929650802
  O        -0.4301392419        5.8708723586        3.5479996759
  O         4.0976896292        8.8615655047       11.0355167222
  O         4.0588572419       11.3679303990       12.9783269227
  O        -0.4694868506        8.3506353194        5.4934447415
  H         3.4009268649        8.7290154028        3.1955892231
  H        -1.1419561338        5.7737407608       10.7031196384
  H         0.2347711528        8.4738555630       13.3454975115
  H         4.7826194256       11.4319812125        5.8188807755
  H         1.7884036419       11.3452099298        3.1949696986
  H         3.2256134481        8.5648134019       10.7032095132
  H         1.8498529237        5.8654171896       13.3465560793
  H         0.4060344576        8.6420513037        5.8198884355
  H         2.4407601529        8.6419358772        4.5045680476
  H         1.0207173897       11.5111239922       11.9752461682
  H         1.2027011891        8.5636283948       12.0144951344
  H         2.6106275200        5.6969530614        4.5505058960
  H        -0.3587710011        5.6964564729        4.5022594314
  H         4.1683196076        8.5630761644       11.9765003786
  H         3.9886720164       11.5108486994       12.0176465981
  H        -0.5268888635        8.6414451997        4.5508636920
 Ca         6.7185169984        7.1671379761        2.5426596953
 Ca        -0.2451096176       10.0374657138        9.4928412666
 Ca        -3.0800622672       10.0417669685       14.0315778464
 Ca        -1.7973953288        7.1690462496        7.0477894277
  S        -0.2475160395       10.0375749244        1.9098310720
  S         6.7205193523        7.1688421676        9.4465351196
  S        -1.7911126976        7.1675801821       14.6136154572
  S        -3.0846600314       10.0371880786        7.0997517816
  O         4.9979900083        8.9011931523        2.8669484908
  O         6.2906795165        6.0055660132       10.2813276695
  O        -1.3353304372        8.2976498824       13.6376498520
  O        -2.6498941301       11.1974658917        6.2626619437
  O         0.1942753983       11.1810475520        2.8737038840
  O         7.1512517373        8.3332384801       10.2789466200
  O         3.4164175968        6.0421315720       13.6357565527
  O        -3.5204866131        8.8752840225        6.2657769876
  O         6.4397104122        9.4845304903        0.8746762661
  O         7.8498633614        6.6804216774        8.6054431423
  O        -2.8257270880        7.7555728777       15.5655914727
  O        -4.2079733022       10.5409271040        7.9421665895
  O        -1.2434120597       10.5867605791        0.8768878922
  O         5.5919881007        7.6586822116        8.6050962262
  O         4.9113275106        6.5797243273       15.5537993326
  O        -1.9614596663        9.5339460143        7.9426725247
  O        -3.1639193002        8.4705805587        3.5501128082
  O        -4.5888101061       11.2114842270       11.0345618057
  O         6.8103302574        8.7043399779       12.9767961784
  O         8.2319223717        5.9885992110        5.4936943295
  O         5.2488012167        5.8704891256        3.5481202954
  O        -1.5809047156        8.8615340323       11.0351385666
  O        -1.6250645017       11.3675479136       12.9791926931
  O         5.2095078209        8.3503512882        5.4939299273
  H        -2.2795171989        8.7288393645        3.1964360681
  H         4.5369059912        5.7737845254       10.7034070526
  H         5.9184551277        8.4739810553       13.3425945996
  H        -0.8964026301       11.4319215323        5.8189246441
  H        -3.8892969789       11.3457342467        3.1961149719
  H        -2.4532155187        8.5647611309       10.7035320903
  H         7.5243556190        5.8653056702       13.3434736533
  H         6.0850980056        8.6421330111        5.8198325553
  H        -3.2376869974        8.6418529808        4.5050241602
  H        -4.6576299859       11.5109087869       11.9754885913
  H         6.8806512067        8.5632313974       12.0157376171
  H         8.2900480955        5.6967720834        4.5511850743
  H         5.3195842951        5.6966027391        4.5024838927
  H        -1.5114045813        8.5632734448       11.9761879588
  H        -1.6895986799       11.5111888758       12.0186391656
  H         5.1517456180        8.6416778556        4.5513477239
     192
 i =        8, E =     -2329.8616341137
 Ca         9.2948910410        1.4296933690        2.5870412610
 Ca         2.3287422918        4.3018436785        9.4986809181
 Ca        -0.5108260402        4.3032675429       13.9323816268
 Ca         0.7755614077        1.4338754137        7.0419337306
  S         2.3347326774        4.2995965627        1.9052804965
  S         9.2946920528        1.4338307603        9.4443143128
  S         0.8017023466        1.4267064861       14.6459409860
  S        -0.5107663616        4.3015556494        7.1053853497
  O         7.5803064782        3.1685423303        2.8880951981
  O         8.8633011676        0.2728253150       10.2835247903
  O         1.2422276279        2.5488332664       13.6367477878
  O        -0.0707865711        5.4636022961        6.2711398162
  O         2.7779414609        5.4344176763        2.8943170434
  O         9.7262250433        2.5949870237       10.2832719114
  O         6.0124374199        0.3166958069       13.6435834411
  O        -0.9508529221        3.1393914600        6.2713704638
  O         9.0524696778        3.7056714117        0.9269041936
  O        10.4220466920        0.9404442445        8.6018495583
  O        -0.2517046794        2.0475778950       15.5556344158
  O        -1.6344785348        4.8089362350        7.9466635393
  O         1.2673239698        4.9012393936        1.0042606060
  O         8.1673372599        1.9269156366        8.6017020771
  O         7.4588909845        0.8356132116       15.6486029415
  O         0.6130620530        3.7943822143        7.9466202373
  O        -0.5881944454        2.7446762826        3.5597025588
  O        -2.0191631552        5.4833330089       11.0293175641
  O         9.3838958219        2.9725308571       12.9695393691
  O        10.8057632786        0.2505500733        5.4924057612
  O         7.8212892069        0.1231558288        3.5599312506
  O         0.9976851911        3.1199868558       11.0285141685
  O         0.9517551502        5.6293206681       12.9696970722
  O         7.7839693463        2.6178267331        5.4932723234
  H         0.3080251664        3.0087130251        3.2287630458
  H         7.1093251440        0.0408580464       10.7038874343
  H         8.4825623264        2.7213308099       13.2997503119
  H         1.6783777648        5.6931969481        5.8228976603
  H        -1.3306035842        5.5947737318        3.2283508378
  H         0.1220444223        2.8270575628       10.7038428553
  H        10.1044469372        0.1459378018       13.3006236612
  H         8.6583232783        2.9097727448        5.8227909967
  H        -0.6286285601        2.9257088080        4.5148679278
  H        -2.0862115712        5.7919395921       11.9693951921
  H         9.4158822884        2.8085168205       12.0119194489
  H        10.8687565374       -0.0540394500        4.5514022709
  H         7.8603926305       -0.0583972392        4.5151415752
  H         1.0651452182        2.8123140076       11.9684229889
  H         0.9207569083        5.7953445257       12.0125011613
  H         7.7205800619        2.9212285170        4.5524353164
 Ca         3.6153157337        1.4303306073        2.5871091878
 Ca         8.0082024904        4.3016691085        9.4987397513
 Ca         5.1683922137        4.3023375604       13.9306802365
 Ca         6.4554612092        1.4334130040        7.0420699241
  S         8.0175592293        4.2975716815        1.8877801603
  S         3.6156999981        1.4338507544        9.4442113674
  S         6.4487559520        1.4361262486       14.6595727990
  S         5.1682713831        4.3015609269        7.1053954837
  O         1.8942181949        3.1596978120        2.8889863895
  O         3.1844115198        0.2728279452       10.2834649435
  O         6.8903523903        2.5543781791       13.6445999136
  O         5.6081404369        5.4635302575        6.2709119346
  O         8.4488301552        5.4336638262        2.8825560668
  O         4.0471318705        2.5950180389       10.2832363302
  O         0.3496537786        0.3033638479       13.6438032299
  O         4.7282877835        3.1395095979        6.2710337273
  O         3.3373681360        3.7214159501        0.8935082521
  O         4.7431422220        0.9406189857        8.6017783140
  O         5.4549331541        2.0344970830       15.6757629270
  O         4.0445112354        4.8088567107        7.9465821313
  O         6.9874137522        4.8813179691        0.9170427499
  O         2.4882405478        1.9267418274        8.6016322027
  O         1.7668133339        0.8448725955       15.7140740518
  O         6.2920361578        3.7943650111        7.9466095213
  O         5.0915645542        2.7458775817        3.5596322341
  O         3.6601698867        5.4835298776       11.0302545983
  O         3.7063628689        2.9693997456       12.9706337232
  O         5.1260924170        0.2508507198        5.4915728564
  O         2.1421343965        0.1222458687        3.5603144505
  O         6.6765639013        3.1201251634       11.0286033189
  O         6.6309397999        5.6317293543       12.9699349584
  O         2.1056901172        2.6175161534        5.4923145495
  H         5.9875041780        3.0074763493        3.2291867516
  H         1.4303396565        0.0409160721       10.7037439671
  H         2.8042310083        2.7219441205       13.2998399567
  H         7.3573204522        5.6930345103        5.8229284414
  H         4.3488706728        5.5960648020        3.2289357523
  H         5.8010264940        2.8269526176       10.7038474105
  H         4.4252019073        0.1453611893       13.3007418755
  H         2.9794712856        2.9100228671        5.8230132237
  H         5.0506113509        2.9253026865        4.5154160583
  H         3.5923360085        5.7916723382       11.9702786269
  H         3.7377826541        2.8087464960       12.0121580894
  H         5.1912596158       -0.0544571789        4.5509515084
  H         2.1810941432       -0.0580402291        4.5160281765
  H         6.7442325292        2.8124081356       11.9685119957
  H         6.5990107126        5.7951063428       12.0120124373
  H         2.0398028309        2.9216768055        4.5518698764
 Ca         1.0428113437        7.1723719310        2.5861927422
 Ca         5.4336315936       10.0368170549        9.4979365881
 Ca         2.5927567979       10.0382212749       13.9328121108
 Ca         3.8807655972        7.1696025874        7.0430677921
  S         5.4257536981       10.0430012360        1.8584075513
  S         1.0418143342        7.1694123846        9.4443229538
  S         3.8982919966        7.1633895993       14.6328304320
  S         2.5942631408       10.0370776411        7.1046282692
  O        -0.6804450886        8.9175900442        2.8769030207
  O         0.6099989204        6.0075147336       10.2822798089
  O         4.3410315385        8.2922150673       13.6344473613
  O         3.0343631733       11.1987945549        6.2696930667
  O         5.8560390953       11.1631762839        2.8765966729
  O         1.4734102306        8.3305356636       10.2833194776
  O        -2.2556327613        6.0516842531       13.6393550190
  O         2.1540599558        8.8744646318        6.2712434115
  O         0.7905913350        9.4423903197        0.9058102107
  O         2.1689807564        6.6760061972        8.6016097269
  O         2.8465206277        7.7760564767       15.5500868794
  O         1.4708698945       10.5446811614        7.9462975089
  O         4.4295049000       10.6275573621        0.8368629121
  O        -0.0855629574        7.6628346508        8.6018855707
  O        -0.7690827165        6.5625301767       15.5730566234
  O         3.7178669391        9.5302385089        7.9464394589
  O         2.5177432491        8.4795355095        3.5592512089
  O         1.0857635707       11.2184906792       11.0284332926
  O         1.1322739442        8.7095399660       12.9697627061
  O         2.5524943826        5.9854496240        5.4928834369
  O        -0.4357703325        5.8601839146        3.5603477895
  O         4.1025559243        8.8551580404       11.0296178433
  O         4.0553692268       11.3665565046       12.9693467265
  O        -0.4691167298        8.3525651824        5.4944277275
  H         3.4137903049        8.7438698540        3.2290615276
  H        -1.1436503039        5.7763443235       10.7045454298
  H         0.2311495114        8.4574062424       13.3000209832
  H         4.7835868669       11.4286499661        5.8210729494
  H         1.7767038783       11.3303843022        3.2294320488
  H         3.2271148138        8.5621936184       10.7042229551
  H         1.8528448012        5.8820604845       13.2989796044
  H         0.4053572846        8.6453486631        5.8227355219
  H         2.4764002693        8.6616550276        4.5141939024
  H         1.0185029953       11.5262155383       11.9683659487
  H         1.1631514528        8.5434487847       12.0126805652
  H         2.6164179476        5.6819956560        4.5521460888
  H        -0.3926001291        5.6769452319        4.5150113877
  H         4.1702037308        8.5476028015       11.9694246675
  H         4.0248632869       11.5303578645       12.0115345595
  H        -0.5322860670        8.6566723819        4.5535574476
 Ca         6.7225396934        7.1716485195        2.5853799884
 Ca        -0.2450228716       10.0366110872        9.4980236425
 Ca        -3.0861577322       10.0352025169       13.9304501482
 Ca        -1.7974655237        7.1691625858        7.0430769133
  S        -0.2486877442       10.0377633712        1.8586657630
  S         6.7208140118        7.1694078594        9.4442518422
  S        -1.8154624724        7.1753831209       14.6464576653
  S        -3.0847093816       10.0370619786        7.1046028551
  O         4.9965312226        8.9166588891        2.8699411390
  O         6.2890328768        6.0075787586       10.2823503089
  O        -1.3682707281        8.2994278686       13.6426307327
  O        -2.6446962464       11.1986750698        6.2693508027
  O         0.1839591169       11.1660357343        2.8663542705
  O         7.1523346264        8.3305653723       10.2832464844
  O         3.4464738428        6.0372698831       13.6355915860
  O        -3.5248727648        8.8745499957        6.2709887971
  O         6.4456101269        9.4605555453        0.8699932086
  O         7.8480363558        6.6760432131        8.6016064354
  O        -2.7965839550        7.7635303732       15.6856247553
  O        -4.2080591308       10.5446917009        7.9462210262
  O        -1.2349115950       10.6056767225        0.8123970950
  O         5.5933407643        7.6627048025        8.6018697605
  O         4.8866315931        6.5690212781       15.6560700505
  O        -1.9610890772        9.5303008235        7.9463547914
  O        -3.1616089649        8.4806270642        3.5595934203
  O        -4.5929323873       11.2187379135       11.0293994599
  O         6.8119374443        8.7068257710       12.9704644210
  O         8.2311664972        5.9858803531        5.4926256110
  O         5.2437956988        5.8586629484        3.5598660852
  O        -1.5766394928        8.8554524907       11.0296874566
  O        -1.6251913230       11.3705103167       12.9701954282
  O         5.2102151926        8.3521611834        5.4940364232
  H        -2.2658458490        8.7427031800        3.2293579287
  H         4.5354184167        5.7764141322       10.7044750439
  H         5.9105417804        8.4577291977       13.3005428645
  H        -0.8956178599       11.4283871516        5.8212214070
  H        -3.9022266738       11.3316710970        3.2302090971
  H        -2.4519068453        8.5621389264       10.7040981816
  H         7.5321027879        5.8818302557       13.2993959074
  H         6.0843877851        8.6455288902        5.8227332002
  H        -3.2027450487        8.6610935800        4.5150633640
  H        -4.6607288692       11.5259341303       11.9693709120
  H         6.8429767421        8.5437251258       12.0126496462
  H         8.2964756050        5.6811321676        4.5522354587
  H         5.2863969273        5.6775671707        4.5151838339
  H        -1.5086626667        8.5475251926       11.9694630606
  H        -1.6550505792       11.5300983017       12.0113085202
  H         5.1456454638        8.6574276574        4.5535434975
     192
 i =        9, E =     -2329.9384143196
 Ca         9.2920533393        1.4304945785        2.6452919979
 Ca         2.3287947196        4.3024174824        9.5066522948
 Ca        -0.5067162336        4.3100371524       13.7961162374
 Ca         0.7748730134        1.4337540987        7.0350544042
  S         2.3029320660        4.3102075329        1.8346808795
  S         9.2947956081        1.4339961786        9.4416991474
  S         0.7943668922        1.4314445492       14.6765876060
  S        -0.5107091879        4.3014608584        7.1115539182
  O         7.5869919757        3.1868435696        2.8949853308
  O         8.8624588554        0.2770309438       10.2889258408
  O         1.2309777037        2.5454422934       13.6370906444
  O        -0.0656111012        5.4641063957        6.2776583362
  O         2.7521687110        5.4146598517        2.8859398458
  O         9.7274225511        2.5912664634       10.2884507691
  O         6.0234405941        0.3167805178       13.6317770338
  O        -0.9560005213        3.1387226785        6.2778350036
  O         9.0525234293        3.6805960587        0.8746006825
  O        10.4195685627        0.9347871221        8.5972247442
  O        -0.2509767928        2.0786410289       15.5933426624
  O        -1.6346404764        4.8134567473        7.9517198386
  O         1.3149060695        4.9102009433        0.8042606060
  O         8.1695592543        1.9320839042        8.5972182722
  O         7.4779343868        0.8097494529       15.6206467450
  O         0.6134826624        3.7902259681        7.9518263077
  O        -0.5851714134        2.7570593180        3.5719481508
  O        -2.0255390900        5.4911787837       11.0210942077
  O         9.3886992758        2.9783101801       12.9619542787
  O        10.8057200562        0.2477325477        5.4926885190
  O         7.8195115025        0.1119226219        3.5707548208
  O         1.0035381818        3.1110554817       11.0209623421
  O         0.9441637702        5.6192098627       12.9635455802
  O         7.7841165510        2.6212959706        5.4938419514
  H         0.3244839602        3.0267498064        3.2694538566
  H         7.1078260460        0.0438230700       10.7037510240
  H         8.4749990267        2.7010618978       13.2442517710
  H         1.6790339562        5.6890622017        5.8264056235
  H        -1.3481144374        5.5768496416        3.2657635099
  H         0.1236722719        2.8241272338       10.7040888249
  H        10.1136457266        0.1657379555       13.2513102519
  H         8.6573260737        2.9137615568        5.8262691318
  H        -0.5853079654        2.9496423689        4.5275254385
  H        -2.0881010224        5.8107788033       11.9594707130
  H         9.3673237621        2.7842792808       12.0088182283
  H        10.8751033117       -0.0729698856        4.5541974928
  H         7.8162802551       -0.0826634265        4.5259750294
  H         1.0679466708        2.7939414993       11.9597117564
  H         0.9703128044        5.8200314143       12.0123561794
  H         7.7142938225        2.9397850185        4.5551416533
 Ca         3.6130615145        1.4316029917        2.6446449905
 Ca         8.0085548033        4.3019287365        9.5067757958
 Ca         5.1721590326        4.3114418921       13.7998809978
 Ca         6.4556237831        1.4328594715        7.0353205481
  S         8.0263762738        4.2951572465        1.8465938866
  S         3.6157500348        1.4340074769        9.4416120871
  S         6.4463213438        1.4364373441       14.6697953136
  S         5.1682736022        4.3014450458        7.1114077900
  O         1.8806877236        3.1920546546        2.8810637213
  O         3.1836372144        0.2769832927       10.2888784411
  O         6.8757703927        2.5539694443       13.6325445104
  O         5.6131497532        5.4639426240        6.2770689447
  O         8.4506931507        5.4154256292        2.8875588818
  O         4.0481889075        2.5912924339       10.2884546266
  O         0.3550869381        0.3136015519       13.6428742066
  O         4.7232149596        3.1389270615        6.2770188517
  O         3.3537232285        3.6873857409        0.9110712889
  O         4.7408845568        0.9351221934        8.5974432502
  O         5.4298223697        2.0655524491       15.6440194176
  O         4.0442844945        4.8132346061        7.9514781918
  O         6.9771577307        4.9116213227        0.9133774117
  O         2.4902348952        1.9318250642        8.5973581859
  O         1.7877490280        0.8151177980       15.6925869822
  O         6.2924419018        3.7902013828        7.9515513448
  O         5.0943549296        2.7590283178        3.5714755615
  O         3.6542540684        5.4911268305       11.0222642429
  O         3.7108510716        2.9709082526       12.9622817502
  O         5.1255829152        0.2485673874        5.4916547719
  O         2.1401251796        0.1098762536        3.5709702979
  O         6.6817689024        3.1111924914       11.0221786298
  O         6.6251829295        5.6256785931       12.9627563561
  O         2.1060970584        2.6200457936        5.4937778135
  H         6.0043385403        3.0248300138        3.2694843111
  H         1.4291138436        0.0439706377       10.7033526446
  H         2.7958100942        2.7019580072       13.2473267108
  H         7.3581269510        5.6888083455        5.8264546176
  H         4.3328110601        5.5793362496        3.2663221636
  H         5.8025172594        2.8240063045       10.7037187306
  H         4.4356579053        0.1650879537       13.2538493274
  H         2.9786578584        2.9143540839        5.8262979414
  H         5.0936819244        2.9488985065        4.5282546865
  H         3.5897529525        5.8103646161       11.9605327622
  H         3.6915702650        2.7849549166       12.0069583046
  H         5.1985944076       -0.0736014623        4.5538233750
  H         2.1370885472       -0.0819770316        4.5273149198
  H         6.7478365416        2.7938650619       11.9606681487
  H         6.6465730425        5.8193258609       12.0095772543
  H         2.0326658042        2.9403100156        4.5556400488
 Ca         1.0484564459        7.1705637417        2.6417108321
 Ca         5.4335578338       10.0361664464        9.5045667631
 Ca         2.5862946750       10.0267476859       13.8024526827
 Ca         3.8804557040        7.1701741546        7.0372111982
  S         5.4257803411       10.0431707748        1.8583646412
  S         1.0421015589        7.1701282102        9.4414827681
  S         3.8976677630        7.1636990765       14.6901299698
  S         2.5941353299       10.0368777201        7.1109249041
  O        -0.6612732319        8.9274632077        2.8919120106
  O         0.6077355705        6.0100195032       10.2833995554
  O         4.3251966853        8.2794518668       13.6456059275
  O         3.0403440990       11.2001824721        6.2781790104
  O         5.8663708925       11.1521836851        2.9036166745
  O         1.4748840589        8.3273200905       10.2884011828
  O        -2.2406523102        6.0572324612       13.6495110394
  O         2.1489039993        8.8738328518        6.2775229403
  O         0.7805876958        9.4164206279        0.8225464557
  O         2.1664329709        6.6703924392        8.5967270584
  O         2.8568218589        7.7905949708       15.6254770374
  O         1.4707331073       10.5490968512        7.9517663148
  O         4.3981864516       10.6682958975        0.8992612231
  O        -0.0836858651        7.6679682487        8.5976364862
  O        -0.7770087801        6.5463664353       15.6414048604
  O         3.7182588679        9.5257352895        7.9513195172
  O         2.5197958547        8.4906006928        3.5714689162
  O         1.0803298265       11.2275384103       11.0220720377
  O         1.1382021333        8.7181879837       12.9623842878
  O         2.5522217667        5.9824064427        5.4942825351
  O        -0.4418389516        5.8474025854        3.5757958008
  O         4.1084394429        8.8477100146       11.0216340576
  O         4.0535810440       11.3652084946       12.9587312136
  O        -0.4684567802        8.3554325342        5.4945349516
  H         3.4288303388        8.7620569818        3.2699992288
  H        -1.1455877177        5.7795769356       10.7060648111
  H         0.2255546723        8.4375818092       13.2449919671
  H         4.7848597518       11.4245137731        5.8239480162
  H         1.7611719137       11.3123259570        3.2713798346
  H         3.2288281322        8.5588951178       10.7053578726
  H         1.8575614623        5.9020373197       13.2416581986
  H         0.4044548599        8.6494072890        5.8264437303
  H         2.5200232553        8.6859406456        4.5264786622
  H         1.0155205233       11.5448188918       11.9606175870
  H         1.1151109123        8.5189320895       12.0107696175
  H         2.6231888174        5.6636389589        4.5555774333
  H        -0.4338026332        5.6531048432        4.5308038962
  H         4.1725195599        8.5286902345       11.9599687715
  H         4.0687981386       11.5541747936       12.0043375407
  H        -0.5391591619        8.6755565765        4.5560110220
 Ca         6.7275079692        7.1730176698        2.6410538366
 Ca        -0.2447842878       10.0356523684        9.5044734594
 Ca        -3.0922692781       10.0261691883       13.8049096160
 Ca        -1.7973296462        7.1692885919        7.0372710683
  S        -0.2217177012       10.0284642677        1.8320927689
  S         6.7210646357        7.1700692075        9.4413265741
  S        -1.8090709631        7.1728437724       14.6911648390
  S        -3.0848229791       10.0368930939        7.1107701258
  O         4.9980334186        8.9213748844        2.8942817025
  O         6.2869698656        6.0101146474       10.2836241156
  O        -1.3784441752        8.2884567711       13.6481698320
  O        -2.6387230101       11.1999546709        6.2773948183
  O         0.2010083191       11.1473485621        2.8772504846
  O         7.1535828140        8.3273285344       10.2882502296
  O         3.4605563296        6.0506516698       13.6477403444
  O        -3.5298742519        8.8739790865        6.2769796383
  O         6.4651470314        9.4267483727        0.9113032727
  O         7.8457640934        6.6706488258        8.5969239030
  O        -2.8017897950        7.7883638642       15.7061698931
  O        -4.2082208336       10.5491313999        7.9514525037
  O        -1.2809328162       10.6494299841        0.9155761767
  O         5.5949394428        7.6676629182        8.5977965275
  O         4.8779546524        6.5467369262       15.7218528508
  O        -1.9606604471        9.5258859503        7.9510413865
  O        -3.1608562580        8.4922531624        3.5719058312
  O        -4.5979378017       11.2274595039       11.0228175140
  O         6.8168475969        8.7110412738       12.9621698474
  O         8.2305158904        5.9827855856        5.4923957481
  O         5.2407785959        5.8451568117        3.5750917664
  O        -1.5714126339        8.8481343942       11.0226049532
  O        -1.6263147262       11.3730800792       12.9593268750
  O         5.2112623155        8.3549730468        5.4929368382
  H        -2.2512511667        8.7598599994        3.2699820945
  H         4.5336859311        5.7797243363       10.7058005390
  H         5.9033688759        8.4379390652       13.2488530010
  H        -0.8945229132       11.4239663604        5.8240381506
  H        -3.9186087887       11.3144362910        3.2721226236
  H        -2.4503424922        8.5588572110       10.7047276320
  H         7.5386847336        5.9019323380       13.2452880157
  H         6.0834142087        8.6497119821        5.8264820234
  H        -3.1598395010        8.6849160863        4.5278989810
  H        -4.6642409153       11.5442721674       11.9615115262
  H         6.7972203595        8.5196800365       12.0084124157
  H         8.3039301161        5.6619174594        4.5545784409
  H         5.2462074485        5.6541822160        4.5313770671
  H        -1.5055882417        8.5283198037       11.9607609463
  H        -1.6127719553       11.5534364242       12.0026887130
  H         5.1379579315        8.6769255916        4.5552660294
     192
 i =       10, E =     -2329.9026820658
 Ca         9.2962467808        1.4331451139        2.6380687519
 Ca         2.3287551988        4.3015318172        9.5031378073
 Ca        -0.5136737612        4.2978862178       13.8550801784
 Ca         0.7751865337        1.4340274053        7.0372487407
  S         2.3060748783        4.3091620181        1.8432378134
  S         9.2948171718        1.4337504855        9.4382529096
  S         0.7924310134        1.4321177742       14.6573064358
  S        -0.5107030803        4.3015712231        7.1128448429
  O         7.5892065814        3.1739556061        2.8935448018
  O         8.8614552637        0.2735240183       10.2794477779
  O         1.2234574505        2.5534842220       13.6259251581
  O        -0.0686627792        5.4614649576        6.2748871161
  O         2.7467669716        5.4250397962        2.8811164481
  O         9.7281102643        2.5940885777       10.2793868101
  O         6.0172461806        0.3066068534       13.6231759240
  O        -0.9528018189        3.1416936700        6.2749049010
  O         9.0367692773        3.6917655355        0.8738283921
  O        10.4216734460        0.9352588440        8.5974373030
  O        -0.2270277362        2.0620934606       15.6170140562
  O        -1.6351656548        4.8126685285        7.9517781911
  O         1.3270344356        4.8994692490        0.7972299337
  O         8.1678943264        1.9319037703        8.5973987284
  O         7.4691034664        0.8194093136       15.6031359414
  O         0.6138596932        3.7906339861        7.9516776064
  O        -0.5760833658        2.7631609186        3.5829030448
  O        -2.0195038302        5.4878562059       11.0278795131
  O         9.3674079368        2.9602271056       12.9458898645
  O        10.8057735403        0.2473743863        5.4924052039
  O         7.8093158770        0.1036839517        3.5828053063
  O         0.9980717410        3.1163956551       11.0266069979
  O         0.9702357265        5.6451331966       12.9450654581
  O         7.7838352769        2.6205013852        5.4936814719
  H         0.3259786175        3.0238593877        3.2514890314
  H         7.1082540938        0.0448662637       10.7013185146
  H         8.4639983582        2.7036492666       13.2745312720
  H         1.6796629555        5.6882072336        5.8252317083
  H        -1.3478381410        5.5796390427        3.2517416705
  H         0.1230647889        2.8230309430       10.7012979547
  H        10.1220303151        0.1633838452       13.2761839698
  H         8.6566631105        2.9146168940        5.8252007778
  H        -0.5984459685        2.9481756240        4.5384970021
  H        -2.0905473574        5.8130478130       11.9636376082
  H         9.3848142021        2.7842931196       11.9896404462
  H        10.8726500152       -0.0748100279        4.5557550905
  H         7.8300710740       -0.0809935146        4.5387196234
  H         1.0696272209        2.7907821664       11.9623152562
  H         0.9514240104        5.8195295054       11.9886543199
  H         7.7175320050        2.9420336040        4.5570881676
 Ca         3.6165929254        1.4364256520        2.6378483608
 Ca         8.0079437976        4.3013373645        9.5030428772
 Ca         5.1659622763        4.2996367374       13.8552739570
 Ca         6.4554713912        1.4335331939        7.0376837626
  S         8.0225817315        4.2962815164        1.8641511497
  S         3.6157345935        1.4337743719        9.4381207776
  S         6.4439597114        1.4376953404       14.6430493720
  S         5.1682637526        4.3015428554        7.1126298788
  O         1.8855007598        3.1830464730        2.8774211659
  O         3.1825165925        0.2733921134       10.2792312657
  O         6.8785168966        2.5651448993       13.6230596166
  O         5.6103168420        5.4614829022        6.2746102686
  O         8.4454581337        5.4288857736        2.8865612009
  O         4.0489852965        2.5942407193       10.2790839362
  O         0.3469817648        0.3071199478       13.6373058928
  O         4.7262265940        3.1416172642        6.2744447321
  O         3.3224529007        3.7035118293        0.8632109147
  O         4.7427968648        0.9356020480        8.5973877480
  O         5.4495590752        2.0552860426       15.6517945383
  O         4.0438142097        4.8124801766        7.9515335724
  O         7.0015303172        4.8941446262        0.8839646809
  O         2.4886307562        1.9315446906        8.5972702638
  O         1.7773862872        0.8261522292       15.6876334025
  O         6.2927860514        3.7907156546        7.9514173996
  O         5.1044101465        2.7633773945        3.5821923213
  O         3.6595478213        5.4873851238       11.0279761106
  O         3.6930392900        2.9572065263       12.9469871448
  O         5.1262263434        0.2472060325        5.4897709486
  O         2.1297558599        0.1034491185        3.5830747880
  O         6.6769349375        3.1165415104       11.0275704381
  O         6.6475556861        5.6465762285       12.9452958292
  O         2.1051204505        2.6199855142        5.4937689640
  H         6.0062252890        3.0228377552        3.2522565017
  H         1.4293875812        0.0450953874       10.7016055376
  H         2.7881052828        2.7040968934       13.2752015606
  H         7.3590175726        5.6878788742        5.8247323395
  H         4.3320863164        5.5811361815        3.2520069723
  H         5.8022200956        2.8229394357       10.7015381282
  H         4.4417704165        0.1629682663       13.2759527947
  H         2.9777810876        2.9152772976        5.8247079698
  H         5.0813084558        2.9477856068        4.5383455847
  H         3.5886682559        5.8126400059       11.9637546489
  H         3.7078345205        2.7844523638       11.9897542702
  H         5.1958155068       -0.0755058696        4.5539112342
  H         2.1507060452       -0.0805471644        4.5395773510
  H         6.7480568178        2.7906992048       11.9631491976
  H         6.6298620196        5.8195724035       11.9882690476
  H         2.0360911855        2.9423559486        4.5576047222
 Ca         1.0449312885        7.1608130897        2.6368176042
 Ca         5.4336532180       10.0371816075        9.5024163903
 Ca         2.5995967364       10.0361747188       13.8568682861
 Ca         3.8809641176        7.1695101535        7.0384160811
  S         5.4133481693       10.0491739096        1.8741093460
  S         1.0417883541        7.1693587837        9.4383812105
  S         3.8690168068        7.1727090658       14.6576300744
  S         2.5943548679       10.0371582083        7.1122497288
  O        -0.6888655551        8.9059071818        2.9148565914
  O         0.6082747142        6.0091871182       10.2797101205
  O         4.2991238356        8.3005435190       13.6326784017
  O         3.0363381204       11.1970267900        6.2739686631
  O         5.8483069443       11.1720218838        2.9005295247
  O         1.4752827319        8.3294964416       10.2796390341
  O        -2.2407987378        6.0397309444       13.6223124452
  O         2.1523394855        8.8770367477        6.2745584242
  O         0.8255877904        9.4059784142        1.0225464557
  O         2.1684676402        6.6708140042        8.5973444948
  O         2.9021667420        7.7680369250       15.7167921944
  O         1.4700636170       10.5483248853        7.9514130856
  O         4.4338769740       10.6558785500        0.8364597983
  O        -0.0854208880        7.6680879391        8.5981647171
  O        -0.7776599422        6.5504348963       15.5829555269
  O         3.7187801082        9.5261953364        7.9513197864
  O         2.5308019834        8.4999890741        3.5824533446
  O         1.0855478125       11.2219812618       11.0273101242
  O         1.1144632549        8.6939847131       12.9450598517
  O         2.5526053680        5.9829938304        5.4944955065
  O        -0.4462266499        5.8398890674        3.5838186770
  O         4.1030009052        8.8514299106       11.0274513290
  O         4.0706844647       11.3785583937       12.9458701656
  O        -0.4688791611        8.3563467292        5.4930456231
  H         3.4329884736        8.7593691609        3.2517932778
  H        -1.1444809385        5.7803469271       10.7019120828
  H         0.2110653395        8.4395936391       13.2757481811
  H         4.7852125524       11.4238754918        5.8238694543
  H         1.7588760447       11.3148718241        3.2518144537
  H         3.2280054785        8.5581099565       10.7019801046
  H         1.8737126826        5.8995635505       13.2751239888
  H         0.4036509461        8.6500291070        5.8257591060
  H         2.5069361095        8.6843166499        4.5383640150
  H         1.0142543973       11.5480453287       11.9628650566
  H         1.1321483745        8.5191049752       11.9886871284
  H         2.6201739533        5.6616168737        4.5578493472
  H        -0.4235968408        5.6543586462        4.5392724424
  H         4.1744096950        8.5263384184       11.9631099588
  H         4.0548771224       11.5544602857       11.9893102015
  H        -0.5362221196        8.6774461569        4.5565288601
 Ca         6.7234453199        7.1666688144        2.6354220743
 Ca        -0.2450036531       10.0371132788        9.5024348234
 Ca        -3.0817943213       10.0398893027       13.8569146298
 Ca        -1.7970436072        7.1689614661        7.0384456930
  S        -0.2487648853       10.0372892437        1.9044200087
  S         6.7207069277        7.1693570661        9.4383293929
  S        -1.8104959145        7.1723009721       14.6378534359
  S        -3.0846724251       10.0371437554        7.1121238499
  O         4.9891444325        8.9153734800        2.8933124942
  O         6.2873207924        6.0090724218       10.2795882856
  O        -1.3695931043        8.3028038494       13.6242846912
  O        -2.6425522757       11.1970303871        6.2737014583
  O         0.1871361718       11.1816722081        2.9008701652
  O         7.1541428310        8.3295953726       10.2794887798
  O         3.4305485975        6.0503907433       13.6305326364
  O        -3.5267537159        8.8769848168        6.2743631870
  O         6.4617612627        9.4353489418        0.9442768099
  O         7.8475779061        6.6710256099        8.5974474474
  O        -2.8095467953        7.7823207797       15.6415372485
  O        -4.2088560611       10.5482562185        7.9513144336
  O        -1.2567068512       10.6334697923        0.9058209324
  O         5.5934023144        7.6678509765        8.5981013225
  O         4.9049749168        6.5397653789       15.5922611656
  O        -1.9601777072        9.5264147232        7.9510957483
  O        -3.1477535998        8.5001895871        3.5821030037
  O        -4.5932118324       11.2219657703       11.0278467586
  O         6.7976203005        8.6918735518       12.9452691163
  O         8.2313898809        5.9829884064        5.4924072809
  O         5.2339053907        5.8403879442        3.5837342701
  O        -1.5763786700        8.8515599721       11.0286355268
  O        -1.6111988758       11.3821354714       12.9475710018
  O         5.2100804403        8.3556772343        5.4931940620
  H        -2.2459362625        8.7582391469        3.2524350754
  H         4.5345119160        5.7805340552       10.7024103404
  H         5.8932057962        8.4393858496       13.2763942830
  H        -0.8936968391       11.4232523433        5.8231674166
  H        -3.9209105481       11.3163511377        3.2533684595
  H        -2.4509220858        8.5580760242       10.7019021435
  H         7.5511102781        5.9000663370       13.2752967763
  H         6.0825499474        8.6504973431        5.8251241200
  H        -3.1719585730        8.6835869791        4.5384150079
  H        -4.6646450062       11.5473297912       11.9635499438
  H         6.8125032428        8.5190593690       11.9880336872
  H         8.3006541706        5.6598821580        4.5566353515
  H         5.2565849573        5.6552109038        4.5396992714
  H        -1.5047389851        8.5261522482       11.9641239860
  H        -1.6250719651       11.5543001462       11.9899490883
  H         5.1414348025        8.6785109558        4.5573165455
     192
 i =       11, E =     -2329.8697125444
 Ca         9.3003843561        1.4400089051        2.6210744354
 Ca         2.3286751620        4.3003006313        9.4973369810
 Ca        -0.5229228031        4.2849171147       13.9541568029
 Ca         0.7758490571        1.4344268492        7.0409049927
  S         2.3284347176        4.3009800159        1.9317567671
  S         9.2947065360        1.4333924941        9.4333388136
  S         0.7656500498        1.4410051581       14.6016912115
  S        -0.5107267344        4.3017242568        7.1141868315
  O         7.5899488923        3.1505560254        2.8964856763
  O         8.8600709999        0.2683179560       10.2654259984
  O         1.1958387799        2.5802321940       13.5993687624
  O        -0.0735854976        5.4576524237        6.2704888379
  O         2.7632301793        5.4552037818        2.9087609960
  O         9.7288708719        2.5982861451       10.2659085317
  O         6.0224506417        0.2866014378       13.6147139003
  O        -0.9476869161        3.1458940384        6.2703480128
  O         9.0208245373        3.7079803176        0.9018610425
  O        10.4249215058        0.9363601669        8.5982560561
  O        -0.1783880834        2.0283405003       15.6885868503
  O        -1.6359461974        4.8111565999        7.9513032268
  O         1.2851486150        4.9016123098        0.9972299337
  O         8.1651411991        1.9311514638        8.5979338940
  O         7.4321883351        0.8443424851       15.6525199845
  O         0.6144081567        3.7916424430        7.9508773747
  O        -0.5634978314        2.7707237079        3.5981220695
  O        -2.0098480202        5.4815053387       11.0380166846
  O         9.3349937696        2.9335976094       12.9241216057
  O        10.8057405274        0.2470759898        5.4920335129
  O         7.7923948417        0.0922526808        3.5997226293
  O         0.9890332143        3.1250041193       11.0365917654
  O         1.0055000335        5.6811246274       12.9195637202
  O         7.7836588766        2.6191989069        5.4930778887
  H         0.3260728405        3.0182041495        3.2223017570
  H         7.1091259029        0.0462271311       10.6975650473
  H         8.4475543818        2.7092069939       13.3233520559
  H         1.6806147352        5.6873436502        5.8236183691
  H        -1.3463471769        5.5852631624        3.2278005921
  H         0.1220069706        2.8216271009       10.6969180239
  H        10.1347892853        0.1583627455       13.3164823107
  H         8.6558171195        2.9155629875        5.8236346286
  H        -0.6208333777        2.9443936940        4.5535549220
  H        -2.0938832146        5.8148422111       11.9699166945
  H         9.4140437101        2.7862271348       11.9627640817
  H        10.8683869744       -0.0759471203        4.5579547368
  H         7.8541652769       -0.0767503592        4.5566765695
  H         1.0721369767        2.7875535056       11.9676261352
  H         0.9202175674        5.8168789739       11.9554051161
  H         7.7226252472        2.9438255525        4.5595262122
 Ca         3.6198661678        1.4377361445        2.6217131751
 Ca         8.0069894639        4.3006038655        9.4970657362
 Ca         5.1541149991        4.2878052812       13.9490768767
 Ca         6.4554255485        1.4345066685        7.0412917379
  S         8.0157023759        4.2979957436        1.9047593020
  S         3.6156864971        1.4334300591        9.4332129254
  S         6.4584949187        1.4332047686       14.6067659542
  S         5.1683225578        4.3017203715        7.1139162549
  O         1.8964530861        3.1432806858        2.9055678247
  O         3.1809835162        0.2681735632       10.2651307803
  O         6.8988401213        2.5744326145       13.6111345773
  O         5.6057321170        5.4580227339        6.2707134504
  O         8.4384498146        5.4529149734        2.8901708713
  O         4.0498935165        2.5985982667       10.2653154433
  O         0.3105035263        0.2975800236       13.6164804672
  O         4.7311160302        3.1454815812        6.2704630294
  O         3.2987646875        3.7240595229        0.8774559896
  O         4.7457365769        0.9366663090        8.5977099363
  O         5.4623100015        2.0446223070       15.6078549141
  O         4.0431124498        4.8109069478        7.9510427267
  O         7.0322696556        4.8673479323        0.8619059711
  O         2.4860962019        1.9306463244        8.5974797239
  O         1.8022994053        0.8305464762       15.5434166732
  O         6.2933091223        3.7918066715        7.9507379742
  O         5.1191412823        2.7692124518        3.5974473863
  O         3.6683338801        5.4809266909       11.0377512982
  O         3.6682345883        2.9377359745       12.9258860436
  O         5.1275284228        0.2461848820        5.4891378444
  O         2.1118470204        0.0948576264        3.5992442163
  O         6.6691161591        3.1253437827       11.0359317522
  O         6.6780804762        5.6759714428       12.9211213560
  O         2.1043233369        2.6203687471        5.4914129084
  H         6.0077883734        3.0185084988        3.2238626733
  H         1.4299289107        0.0465434151       10.6988676662
  H         2.7788828331        2.7088580832       13.3199874803
  H         7.3602300768        5.6868299781        5.8221557824
  H         4.3313811203        5.5851845760        3.2279223132
  H         5.8015387187        2.8215380716       10.6981644853
  H         4.4492317580        0.1583026852       13.3120269687
  H         2.9765152798        2.9162198242        5.8226483239
  H         5.0598637777        2.9445799178        4.5527492576
  H         3.5869282873        5.8146237542       11.9697337055
  H         3.7352017548        2.7855047940       11.9655731788
  H         5.1905151056       -0.0764998766        4.5558133620
  H         2.1741732408       -0.0765784404        4.5557572915
  H         6.7479958927        2.7876931678       11.9672413867
  H         6.6018011962        5.8180180321       11.9581786292
  H         2.0410005146        2.9440861622        4.5583476908
 Ca         1.0345193998        7.1641398296        2.6252614716
 Ca         5.4338971660       10.0386372965        9.4985953555
 Ca         2.6138199776       10.0567474028       13.9503256806
 Ca         3.8816014909        7.1686027712        7.0405697662
  S         5.4374228370       10.0430619616        1.9048618227
  S         1.0413128020        7.1682192119        9.4340256358
  S         3.8774741819        7.1680936158       14.5891750698
  S         2.5945676142       10.0375058330        7.1136620460
  O        -0.6763139818        8.8799968741        2.9038184291
  O         0.6092516217        6.0077862854       10.2740557517
  O         4.3100193731        8.3193905555       13.6032364719
  O         3.0300187434       11.1924710443        6.2676027333
  O         5.8595603930       11.1889687899        2.9000918580
  O         1.4757904901        8.3327341209       10.2666488924
  O        -2.2190369656        6.0163408853       13.6000031114
  O         2.1576159718        8.8815852863        6.2699664052
  O         0.7859609369        9.4329322465        0.9686986793
  O         2.1716593375        6.6719746511        8.5986182736
  O         2.9000365460        7.7595197204       15.6248843448
  O         1.4690213743       10.5466374644        7.9504702391
  O         4.4346202824       10.6545863585        0.9123387630
  O        -0.0880887192        7.6678688741        8.5992365893
  O        -0.8233203328        6.5740254415       15.6422903898
  O         3.7195231195        9.5274941389        7.9508309945
  O         2.5439525654        8.5107951776        3.5981007032
  O         1.0940352530       11.2128524042       11.0357150294
  O         1.0789590407        8.6589902444       12.9218999942
  O         2.5527165613        5.9833657091        5.4927678292
  O        -0.4528552448        5.8297305939        3.5950354485
  O         4.0942064541        8.8579026244       11.0370181772
  O         4.0970835363       11.3981435380       12.9293256574
  O        -0.4697787472        8.3565066869        5.4933115612
  H         3.4347746777        8.7537938230        3.2224429331
  H        -1.1425820735        5.7813559552       10.6957422191
  H         0.1897930682        8.4443669130       13.3250109061
  H         4.7855911204       11.4231938219        5.8236574171
  H         1.7548634674       11.3204107301        3.2194688878
  H         3.2266492917        8.5571216286       10.6968697700
  H         1.8937662319        5.8942764406       13.3278534069
  H         0.4028060235        8.6507981575        5.8242015278
  H         2.4844110379        8.6800472412        4.5547556758
  H         1.0125780888       11.5512293283       11.9668269003
  H         1.1608569514        8.5212607191       11.9581056649
  H         2.6155602707        5.6600022544        4.5593087372
  H        -0.4049927661        5.6578836075        4.5511946143
  H         4.1767325944        8.5243556855       11.9686147593
  H         4.0314838148       11.5530393236       11.9691754505
  H        -0.5310512012        8.6785570639        4.5593622540
 Ca         6.7147838613        7.1613696936        2.6230333618
 Ca        -0.2451920425       10.0392267517        9.4988380528
 Ca        -3.0667009489       10.0542736545       13.9468983516
 Ca        -1.7968836177        7.1685598464        7.0403364392
  S        -0.2430902329       10.0340615595        1.9262668998
  S         6.7203096354        7.1682938243        9.4340469248
  S        -1.7918512010        7.1645141670       14.5918336811
  S        -3.0844506167       10.0374962157        7.1135459718
  O         5.0111171665        8.8900274639        2.8911082310
  O         6.2880627130        6.0074102422       10.2733690764
  O        -1.3427478376        8.3086765860       13.6051614812
  O        -2.6485777357       11.1928716789        6.2680295178
  O         0.1922052246       11.1936252725        2.8976223075
  O         7.1549327314        8.3330089034       10.2664090637
  O         3.4271071835        6.0274787685       13.5993807106
  O        -3.5218403263        8.8813216292        6.2702393541
  O         6.4080611878        9.4679790069        0.8448938831
  O         7.8505419190        6.6721315190        8.5984269261
  O        -2.8248494036        7.7735111862       15.5386874549
  O        -4.2098245724       10.5463558233        7.9506100144
  O        -1.2235855898       10.6104792261        0.8852306946
  O         5.5910581710        7.6676874127        8.5989020560
  O         4.8944385859        6.5506330664       15.5529382434
  O        -1.9595118789        9.5276857919        7.9507308450
  O        -3.1330187615        8.5092194026        3.5976012233
  O        -4.5854567671       11.2132115901       11.0365443009
  O         6.7663751333        8.6634305618       12.9236073618
  O         8.2325088649        5.9833864526        5.4921483752
  O         5.2224331752        5.8342451610        3.5948992318
  O        -1.5841689299        8.8579799841       11.0369682352
  O        -1.5900350597       11.3952773336       12.9315102756
  O         5.2086501257        8.3565318161        5.4931688440
  H        -2.2432116220        8.7542515497        3.2236805762
  H         4.5359335783        5.7815158272       10.6971329422
  H         5.8762650191        8.4435433204       13.3206067725
  H        -0.8926676571       11.4223645779        5.8214343178
  H        -3.9252587875       11.3209571141        3.2224413597
  H        -2.4520321599        8.5570206461       10.6978075152
  H         7.5666673966        5.8954664309       13.3230168797
  H         6.0814801180        8.6513495241        5.8230610076
  H        -3.1937049426        8.6798768008        4.5540753958
  H        -4.6649585371       11.5503430643       11.9677037657
  H         6.8380846757        8.5201444624       11.9608785789
  H         8.2953938496        5.6584819630        4.5592819740
  H         5.2748199621        5.6584810217        4.5502198988
  H        -1.5041703213        8.5245777796       11.9686263219
  H        -1.6464382680       11.5539287413       11.9720176001
  H         5.1467758519        8.6793673878        4.5598447444
     192
 i =       12, E =     -2329.7129893977
 Ca         9.2988024385        1.4327429357        2.6458749210
 Ca         2.3288075528        4.3013620795        9.5015747985
 Ca        -0.5166862645        4.2949846254       13.8966067855
 Ca         0.7755015276        1.4340718994        7.0357392043
  S         2.3296223040        4.2998902744        1.9117200149
  S         9.2946759858        1.4335585245        9.4311918603
  S         0.7725992886        1.4365848083       14.6098559631
  S        -0.5106743236        4.3016358733        7.1161909284
  O         7.5861330040        3.1560906480        2.9153028826
  O         8.8589969027        0.2716952302       10.2681297543
  O         1.2054944630        2.5728349199       13.5996044874
  O        -0.0708584588        5.4595677362        6.2755184065
  O         2.7664110246        5.4408492130        2.9140010684
  O         9.7300222908        2.5953017613       10.2685275494
  O         6.0164505835        0.2955568627       13.6200775545
  O        -0.9504584194        3.1437233839        6.2755250216
  O         9.0474884502        3.6899797609        0.9572608588
  O        10.4240825238        0.9338330602        8.5958846374
  O        -0.2022365025        2.0473447443       15.6404226838
  O        -1.6361495214        4.8124177677        7.9525730598
  O         1.2797873778        4.9144326271        0.9920623360
  O         8.1657717533        1.9333035030        8.5953194491
  O         7.4522937922        0.8296425685       15.6199393639
  O         0.6147522617        3.7907653186        7.9524840640
  O        -0.5644856918        2.7701895141        3.6036324929
  O        -2.0128756241        5.4851464326       11.0323324493
  O         9.3455955363        2.9359017535       12.9268289055
  O        10.8043529707        0.2458914164        5.4921945176
  O         7.7949347606        0.0957298283        3.6039842576
  O         0.9919848605        3.1193141444       11.0316242599
  O         0.9916249939        5.6726448400       12.9246797731
  O         7.7851063270        2.6215690052        5.4928125516
  H         0.3299881025        3.0252883607        3.2441762526
  H         7.1087995104        0.0477347516       10.6969838579
  H         8.4480164846        2.7010646141       13.2910616535
  H         1.6803309595        5.6853666091        5.8265221270
  H        -1.3520412456        5.5781418112        3.2465120971
  H         0.1225125979        2.8200755133       10.6966464468
  H        10.1376387659        0.1671437180       13.2901676206
  H         8.6560394630        2.9173517964        5.8268532474
  H        -0.6002162827        2.9560570057        4.5579933751
  H        -2.0937585496        5.8223757641       11.9634439413
  H         9.3883913966        2.7745384733       11.9668680616
  H        10.8722314067       -0.0836469068        4.5593795753
  H         7.8328111842       -0.0885037972        4.5589919272
  H         1.0726795225        2.7806479619       11.9622975460
  H         0.9472840107        5.8290166004       11.9638952413
  H         7.7187103577        2.9510957367        4.5602689190
 Ca         3.6167409710        1.4315478232        2.6454210677
 Ca         8.0075424044        4.3015132068        9.5016079632
 Ca         5.1623973047        4.2951634710       13.8947944655
 Ca         6.4556856395        1.4338720720        7.0360338355
  S         8.0161635983        4.2985379604        1.9137526067
  S         3.6156643208        1.4335526141        9.4309994918
  S         6.4480336447        1.4378135166       14.6268856885
  S         5.1683494956        4.3015888044        7.1158607170
  O         1.8994075445        3.1526023216        2.9087201357
  O         3.1800225511        0.2716223637       10.2679851392
  O         6.8834660524        2.5750003098       13.6167748311
  O         5.6082271157        5.4597301005        6.2753245265
  O         8.4429241928        5.4505959280        2.9063378712
  O         4.0510179839        2.5954908955       10.2679955431
  O         0.3237393187        0.2944352241       13.6136736632
  O         4.7284523941        3.1435374353        6.2751150848
  O         3.3054852164        3.7113580629        0.8686419360
  O         4.7450003996        0.9341178811        8.5953879891
  O         5.4605840494        2.0519833102       15.6438306290
  O         4.0428737693        4.8119934072        7.9522746711
  O         7.0040851574        4.8883113516        0.9219865656
  O         2.4866901099        1.9328737988        8.5949617270
  O         1.8037268623        0.8188217910       15.5582496188
  O         6.2936491827        3.7907984199        7.9522089384
  O         5.1190201694        2.7697313053        3.6029494910
  O         3.6658207489        5.4846453156       11.0324325344
  O         3.6728248578        2.9371730201       12.9273954509
  O         5.1260749554        0.2464257838        5.4910688474
  O         2.1159754895        0.0980435278        3.6038993184
  O         6.6714563485        3.1193202528       11.0316053866
  O         6.6679080130        5.6691263032       12.9249592833
  O         2.1061069933        2.6214741864        5.4919565414
  H         6.0127684327        3.0250797761        3.2452479007
  H         1.4297126181        0.0480608783       10.6980191863
  H         2.7749064825        2.7000819058       13.2904873400
  H         7.3599807763        5.6848439650        5.8253957341
  H         4.3258371810        5.5788687221        3.2471832498
  H         5.8017343343        2.8201151620       10.6971914261
  H         4.4548824292        0.1667606078       13.2878716403
  H         2.9768702459        2.9183162552        5.8257023257
  H         5.0805214675        2.9561366270        4.5575353437
  H         3.5859885646        5.8222151500       11.9635883494
  H         3.7109350783        2.7741424721       11.9677667473
  H         5.1945938162       -0.0841913967        4.5590065517
  H         2.1528957866       -0.0882617521        4.5586515210
  H         6.7496872493        2.7810716844       11.9626148576
  H         6.6274764853        5.8298301575       11.9648125105
  H         2.0365056671        2.9517232886        4.5600760536
 Ca         1.0375530248        7.1745304930        2.6469588993
 Ca         5.4337999004       10.0373175373        9.5017812377
 Ca         2.6059522640       10.0425969150       13.8956171645
 Ca         3.8812079034        7.1692763412        7.0367286036
  S         5.4071012752       10.0550295854        1.9199437718
  S         1.0416330402        7.1689513397        9.4323288483
  S         3.8623696135        7.1729919969       14.6262605470
  S         2.5943277255       10.0372304052        7.1158054171
  O        -0.6548952498        8.9073350959        2.8767139340
  O         0.6077841457        6.0094725704       10.2737143538
  O         4.2951864415        8.3147349631       13.6192514917
  O         3.0334154320       11.1951783580        6.2746352654
  O         5.8409237549       11.1961771625        2.9206016584
  O         1.4776151223        8.3308361473       10.2689088985
  O        -2.2241976103        6.0276418359       13.6117180881
  O         2.1545266063        8.8791786210        6.2753046795
  O         0.7361756251        9.4405738309        0.7686986793
  O         2.1703224457        6.6693515428        8.5959202795
  O         2.9193957940        7.7581700446       15.7214903399
  O         1.4687815628       10.5476645818        7.9522735526
  O         4.4410418801       10.6604220440        0.8659885237
  O        -0.0873489237        7.6697688117        8.5969402726
  O        -0.8145961190        6.5649032972       15.6473276597
  O         3.7197803739        9.5265920816        7.9522773385
  O         2.5438939037        8.5079955633        3.6026056807
  O         1.0912179349       11.2191857348       11.0314236828
  O         1.0930826450        8.6676082138       12.9257377856
  O         2.5514201179        5.9818139168        5.4934895405
  O        -0.4552723831        5.8295526574        3.6022461048
  O         4.0968421596        8.8540142876       11.0320082070
  O         4.0920065764       11.3998417372       12.9287627447
  O        -0.4683824600        8.3565735567        5.4957435370
  H         3.4387273030        8.7608354551        3.2446081428
  H        -1.1432747465        5.7833700836       10.6967594639
  H         0.1947975646        8.4365909770       13.2914789689
  H         4.7855183735       11.4211837634        5.8262619661
  H         1.7524028248       11.3135232530        3.2426776960
  H         3.2271589130        8.5552406276       10.6972302032
  H         1.8896649867        5.9022294774       13.2925791893
  H         0.4032991387        8.6529870994        5.8267611600
  H         2.5055469453        8.6917822424        4.5574683186
  H         1.0118444833       11.5577382577       11.9622951240
  H         1.1349968836        8.5093372706       11.9652431556
  H         2.6191653821        5.6525146024        4.5610384460
  H        -0.4237416587        5.6464549699        4.5575145076
  H         4.1773054118        8.5166591816       11.9629496673
  H         4.0533804325       11.5644944037       11.9692712980
  H        -0.5344487996        8.6861129384        4.5627950774
 Ca         6.7215358630        7.1631241275        2.6456970804
 Ca        -0.2451815582       10.0374182041        9.5017204561
 Ca        -3.0762187942       10.0423914943       13.8937392514
 Ca        -1.7973276293        7.1688715129        7.0363814512
  S        -0.2278792800       10.0293153737        1.8378133859
  S         6.7206679232        7.1689685630        9.4321497444
  S        -1.7980799525        7.1678314743       14.6226232998
  S        -3.0845858459       10.0373012526        7.1156059880
  O         4.9806134935        8.9028405146        2.9121490555
  O         6.2868874123        6.0093846286       10.2734352249
  O        -1.3566934768        8.3052933210       13.6149810987
  O        -2.6452398109       11.1953004733        6.2743577688
  O         0.1925285993       11.1609315829        2.8689522781
  O         7.1564116661        8.3309453513       10.2687768179
  O         3.4233575360        6.0402070268       13.6117303879
  O        -3.5244891100        8.8791275614        6.2751618441
  O         6.4707514292        9.4340079688        1.0235730193
  O         7.8494109644        6.6697460836        8.5956120487
  O        -2.8176839500        7.7800385713       15.5910095071
  O        -4.2100249466       10.5474667063        7.9522223617
  O        -1.2105362250       10.6194735102        0.8008439217
  O         5.5916753604        7.6693802391        8.5965701550
  O         4.9138538100        6.5377501511       15.5322659952
  O        -1.9592332306        9.5268232679        7.9521462462
  O        -3.1366712351        8.5066904825        3.6032231504
  O        -4.5877392356       11.2193311803       11.0329280054
  O         6.7765421111        8.6706444044       12.9261227187
  O         8.2306310982        5.9816681753        5.4912177481
  O         5.2214080323        5.8327869375        3.6015597761
  O        -1.5819857979        8.8541772506       11.0324084198
  O        -1.5914430590       11.3986076477       12.9300966530
  O         5.2109366188        8.3571930264        5.4922362609
  H        -2.2414546630        8.7602912842        3.2455024260
  H         4.5354747706        5.7834485556       10.6975589178
  H         5.8785165424        8.4355494974       13.2899395966
  H        -0.8929295504       11.4200607927        5.8237011854
  H        -3.9264382925       11.3144997142        3.2456173195
  H        -2.4516447188        8.5551849910       10.6977464256
  H         7.5652700739        5.9032869119       13.2905041874
  H         6.0817761058        8.6534867269        5.8261654985
  H        -3.1736635566        8.6914878750        4.5581904533
  H        -4.6665439725       11.5570837245       11.9636261340
  H         6.8138033511        8.5086321192       11.9661656781
  H         8.2999344987        5.6506750036        4.5596455431
  H         5.2559761512        5.6472348329        4.5563265635
  H        -1.5028197125        8.5167596055       11.9632859936
  H        -1.6257095317       11.5649641586       11.9707931330
  H         5.1423512602        8.6876480644        4.5604742919
     192
 i =       13, E =     -2329.8411618875
 Ca         9.2884878985        1.4236732296        2.7050569731
 Ca         2.3292252380        4.3040562734        9.5132034590
 Ca        -0.4988961952        4.3182495105       13.7355171627
 Ca         0.7746427674        1.4333601210        7.0225006749
  S         2.2987030923        4.3097413802        1.8269739404
  S         9.2947876474        1.4340212323        9.4274417947
  S         0.7985854689        1.4234264046       14.6823933506
  S        -0.5106330306        4.3013764722        7.1207200252
  O         7.5945897478        3.1963881617        2.9146577860
  O         8.8569205267        0.2811568375       10.2783846748
  O         1.2307593269        2.5379982281       13.6250961794
  O        -0.0634129113        5.4647839747        6.2882254268
  O         2.7426710044        5.4059119153        2.9102025621
  O         9.7326000367        2.5869918120       10.2784878093
  O         6.0235554505        0.3140044354       13.6381397866
  O        -0.9584768526        3.1380089257        6.2884569924
  O         9.0530319083        3.6642017728        0.8712506015
  O        10.4211138606        0.9274738969        8.5897621618
  O        -0.2516048861        2.0943329507       15.5775458209
  O        -1.6364609419        4.8156035967        7.9559669864
  O         1.3204245015        4.9278703627        0.7920623360
  O         8.1683703109        1.9388388894        8.5888983932
  O         7.4777948162        0.8012720735       15.6314408640
  O         0.6153105496        3.7881922700        7.9564998929
  O        -0.5686547766        2.7673390581        3.6124266292
  O        -2.0225244186        5.4952462196       11.0167322779
  O         9.3766188276        2.9483525602       12.9388245533
  O        10.8017606822        0.2437281951        5.4952776648
  O         7.8049266407        0.1068630497        3.6093886817
  O         1.0013727261        3.1043307702       11.0163714117
  O         0.9475862425        5.6413349619       12.9422515157
  O         7.7880321752        2.6265285857        5.4952353998
  H         0.3404910529        3.0433786631        3.3029062561
  H         7.1076997864        0.0510165057       10.6965356680
  H         8.4518054920        2.6804580721       13.2036240862
  H         1.6794659679        5.6808304626        5.8338058836
  H        -1.3647797592        5.5603837845        3.2968914064
  H         0.1239420225        2.8166610892       10.6971838801
  H        10.1403560799        0.1889227540       13.2177456221
  H         8.6569730953        2.9216033774        5.8343452341
  H        -0.5459022414        2.9845230811        4.5644640754
  H        -2.0925366028        5.8398149669       11.9467947327
  H         9.3208186882        2.7464221924       11.9835758741
  H        10.8812159753       -0.1012700440        4.5645702319
  H         7.7761176483       -0.1175197966        4.5595776801
  H         1.0730143515        2.7651011643       11.9473689737
  H         1.0185278359        5.8584590193       11.9916904256
  H         7.7090432165        2.9678463896        4.5640651563
 Ca         3.6101781702        1.4269489041        2.7054965747
 Ca         8.0091412176        4.3036623628        9.5133595922
 Ca         5.1792904474        4.3218568064       13.7412670006
 Ca         6.4557916163        1.4321622863        7.0228237758
  S         8.0247033275        4.2964858845        1.8330783699
  S         3.6156682382        1.4339185993        9.4268565690
  S         6.4442475105        1.4407928292       14.6880440924
  S         5.1683936320        4.3012791950        7.1202192510
  O         1.8826186766        3.1984524895        2.9037018434
  O         3.1784475865        0.2812689138       10.2784995681
  O         6.8628846491        2.5636966657       13.6335213667
  O         5.6153294519        5.4641811364        6.2866880181
  O         8.4458291376        5.4119997762        2.9006789361
  O         4.0532423732        2.5868500407       10.2780097095
  O         0.3729549446        0.2985859682       13.6320150509
  O         4.7210975863        3.1383236196        6.2867097070
  O         3.3501707854        3.6681057032        0.9155049000
  O         4.7423795714        0.9279647205        8.5893374598
  O         5.4279474582        2.0824728272       15.6583293873
  O         4.0425661206        4.8150751978        7.9554572833
  O         6.9768839063        4.9286920318        0.9043849700
  O         2.4889553693        1.9381564472        8.5884641168
  O         1.7757752956        0.7997191512       15.7180769770
  O         6.2942415289        3.7882639164        7.9560425197
  O         5.1133087242        2.7684941994        3.6119552356
  O         3.6580005347        5.4953435724       11.0188171023
  O         3.6897537310        2.9416049421       12.9359640028
  O         5.1214383534        0.2455621320        5.4913577586
  O         2.1240727249        0.1050166941        3.6100158921
  O         6.6791489186        3.1032552338       11.0190985023
  O         6.6374686741        5.6451537128       12.9396922588
  O         2.1102486529        2.6238061514        5.4945804505
  H         6.0228487631        3.0412094679        3.3026878613
  H         1.4290631629        0.0514361531       10.6968761212
  H         2.7679551426        2.6784258830       13.2104377384
  H         7.3588529432        5.6801222976        5.8331626004
  H         4.3144342188        5.5629330050        3.2980460549
  H         5.8025323703        2.8169887978       10.6959764036
  H         4.4644401770        0.1878808814       13.2220660330
  H         2.9779443921        2.9231685895        5.8332847189
  H         5.1339691002        2.9840599741        4.5648673219
  H         3.5836734499        5.8398671089       11.9486961055
  H         3.6474545350        2.7470264802       11.9789620428
  H         5.2065824486       -0.1027259576        4.5622249721
  H         2.0972119206       -0.1167050115        4.5613162718
  H         6.7531915602        2.7660883716       11.9503514387
  H         6.6947248847        5.8580167831       11.9877126855
  H         2.0251179299        2.9694322713        4.5647482428
 Ca         1.0527979422        7.1765382781        2.7017750203
 Ca         5.4333913367       10.0340640883        9.5099532073
 Ca         2.5774411837       10.0168887721       13.7429811617
 Ca         3.8799658710        7.1708711843        7.0266612416
  S         5.4181436084       10.0523190084        1.8598741310
  S         1.0424310251        7.1708534386        9.4291391908
  S         3.9012841236        7.1585412815       14.6884003255
  S         2.5938497196       10.0366178108        7.1206244783
  O        -0.6621689991        8.9347700245        2.9123396005
  O         0.6041483126        6.0139136672       10.2743827827
  O         4.3306543772        8.2837836898       13.6398293846
  O         3.0429476280       11.2021818313        6.2919560384
  O         5.8589741550       11.1536702061        2.9319375260
  O         1.4812311725        8.3252472921       10.2777323571
  O        -2.2451724620        6.0597107380       13.6427915174
  O         2.1464495350        8.8728547985        6.2885303930
  O         0.7758037230        9.4009410080        0.8235649269
  O         2.1662754824        6.6629729706        8.5888157708
  O         2.8531081908        7.7983797570       15.6043127299
  O         1.4685839182       10.5507677696        7.9567632190
  O         4.4041137476       10.6965139435        0.8881082533
  O        -0.0848647423        7.6742246532        8.5908242738
  O        -0.7759503256        6.5344624123       15.6220035730
  O         3.7201172589        9.5239688780        7.9560325054
  O         2.5351812729        8.4976409987        3.6108651321
  O         1.0825161143       11.2360362399       11.0194244260
  O         1.1336798737        8.6973632871       12.9405106388
  O         2.5484249892        5.9781440380        5.4960124721
  O        -0.4581172336        5.8331054835        3.6159868803
  O         4.1053362947        8.8429656038       11.0188121235
  O         4.0725546365       11.3976960506       12.9316592352
  O        -0.4637735693        8.3589803962        5.4955192492
  H         3.4434815145        8.7786326743        3.3047353854
  H        -1.1455441751        5.7878409571       10.7006883756
  H         0.2109531537        8.4168988942       13.2012404124
  H         4.7852151850       11.4164011967        5.8320993870
  H         1.7478319080       11.2954849863        3.3054689909
  H         3.2290016399        8.5510579835       10.6992533713
  H         1.8720900767        5.9225788686       13.1966494680
  H         0.4042906986        8.6576746745        5.8342510000
  H         2.5603813857        8.7208445920        4.5613577051
  H         1.0104339935       11.5725124622       11.9506465555
  H         1.0674908184        8.4805626393       11.9896665880
  H         2.6287831225        5.6351066479        4.5651788028
  H        -0.4724570215        5.6187803921        4.5685874331
  H         4.1777753154        8.4989593109       11.9489792354
  H         4.1110991298       11.5920330833       11.9749353741
  H        -0.5450040700        8.7041888324        4.5650771727
 Ca         6.7338746128        7.1781393298        2.7022393866
 Ca        -0.2451130321       10.0329530813        9.5098832169
 Ca        -3.1025330926       10.0140962470       13.7451784434
 Ca        -1.7975257848        7.1698648543        7.0267070143
  S        -0.2240432658       10.0301343801        1.8252213477
  S         6.7214195261        7.1707953650        9.4287108027
  S        -1.8209632987        7.1786642470       14.7022788311
  S        -3.0850219452       10.0366379565        7.1202942623
  O         4.9925441389        8.9315002578        2.9156125080
  O         6.2837508514        6.0145171575       10.2752154876
  O        -1.3988820536        8.2986208135       13.6416610622
  O        -2.6360923458       11.2015915404        6.2903129536
  O         0.1958973501       11.1464035159        2.8946356630
  O         7.1595875778        8.3249695827       10.2779125498
  O         3.4748477810        6.0392435252       13.6318525178
  O        -3.5320529598        8.8732147175        6.2873797178
  O         6.4746405504        9.4021261351        0.9587452512
  O         7.8456678264        6.6634495461        8.5887013304
  O        -2.7951703748        7.7969260966       15.7444395531
  O        -4.2101769790       10.5508669553        7.9562966726
  O        -1.2676044471       10.6694338008        0.8975128592
  O         5.5937962027        7.6737086950        8.5906347884
  O         4.8921147352        6.5312561147       15.6993142373
  O        -1.9587284868        9.5241661471        7.9555624498
  O        -3.1449037726        8.4988756169        3.6114279029
  O        -4.5953005933       11.2353721261       11.0211021881
  O         6.8017309029        8.6931992523       12.9385376449
  O         8.2264891219        5.9783191702        5.4920491112
  O         5.2232691739        5.8316603480        3.6153178440
  O        -1.5748196062        8.8435597606       11.0198705394
  O        -1.6019253228       11.4019738612       12.9302841666
  O         5.2162356082        8.3578931414        5.4924608622
  H        -2.2355718783        8.7758892381        3.3039119620
  H         4.5339645619        5.7876736851       10.6995822762
  H         5.8826186717        8.4158061145       13.2079789236
  H        -0.8935657809       11.4150049939        5.8302850524
  H        -3.9341426526       11.2985525031        3.3069268714
  H        -2.4503058555        8.5511137451       10.6985307369
  H         7.5585799260        5.9229158853       13.2029362957
  H         6.0829070842        8.6585059236        5.8336675646
  H        -3.1200135940        8.7196530098        4.5627150762
  H        -4.6698586354       11.5723352627       11.9519019622
  H         6.7502843185        8.4812960215       11.9862628241
  H         8.3110910158        5.6326604051        4.5625186196
  H         5.2076712665        5.6199478939        4.5689321037
  H        -1.4998714977        8.4986399807       11.9497414958
  H        -1.5716779751       11.5912370281       11.9721933167
  H         5.1307879555        8.7070024059        4.5635405333
     192
 i =       14, E =     -2329.6224805282
 Ca         9.2923298260        1.4242450273        2.7001403114
 Ca         2.3290858206        4.3027896677        9.5112216107
 Ca        -0.5089321200        4.3091438386       13.7653634191
 Ca         0.7750708958        1.4337654797        7.0231751610
  S         2.3122063516        4.3050440599        1.8468980520
  S         9.2947440847        1.4337858216        9.4254715943
  S         0.8006680248        1.4218104459       14.6576853667
  S        -0.5105975058        4.3014965253        7.1220664541
  O         7.5960365462        3.1721857632        2.9269771410
  O         8.8566102188        0.2800527435       10.2745391819
  O         1.2315105422        2.5435612301       13.6118264180
  O        -0.0656178448        5.4626589379        6.2861111222
  O         2.7541295159        5.4150983208        2.9092218984
  O         9.7323801980        2.5877771600       10.2746005964
  O         6.0094339725        0.3040134960       13.6192083464
  O        -0.9560932046        3.1403461610        6.2864120004
  O         9.0588451655        3.6674692169        0.9217953415
  O        10.4209460840        0.9271140482        8.5882386889
  O        -0.2518128152        2.0859706696       15.5485724078
  O        -1.6364804031        4.8157714497        7.9566064006
  O         1.3033117706        4.9287150409        0.8644902394
  O         8.1687793039        1.9390421040        8.5871567286
  O         7.5018887712        0.7982754456       15.5268931805
  O         0.6152591468        3.7879696763        7.9570619698
  O        -0.5651784925        2.7691434731        3.6157272033
  O        -2.0199278257        5.4947459522       11.0207380192
  O         9.3670768471        2.9383175295       12.9315535800
  O        10.8020644096        0.2431764176        5.4969760631
  O         7.7983809049        0.1005852586        3.6137675317
  O         0.9990314660        3.1067359175       11.0194112584
  O         0.9626873423        5.6575207509       12.9309459077
  O         7.7881925618        2.6267548142        5.4942464989
  H         0.3398793797        3.0405557341        3.2916574102
  H         7.1075131760        0.0518121112       10.6953930897
  H         8.4485531934        2.6832576169       13.2243194611
  H         1.6796743171        5.6801969628        5.8336551620
  H        -1.3638652631        5.5630827546        3.2876910520
  H         0.1239558736        2.8159840146       10.6954257725
  H        10.1422340906        0.1862371640       13.2330709793
  H         8.6566898039        2.9222388293        5.8341948441
  H        -0.5553211704        2.9823170049        4.5678411962
  H        -2.0935237959        5.8402823783       11.9496032954
  H         9.3347293177        2.7476049428       11.9750396914
  H        10.8787121059       -0.1014762150        4.5669343918
  H         7.7862778462       -0.1149966362        4.5649847881
  H         1.0734490937        2.7636984709       11.9487674986
  H         1.0025202285        5.8566654903       11.9774257538
  H         7.7112680277        2.9688710541        4.5642864273
 Ca         3.6128865597        1.4331040412        2.7011899421
 Ca         8.0086243244        4.3027061619        9.5111845543
 Ca         5.1709180146        4.3174762470       13.7691307073
 Ca         6.4557204718        1.4327948311        7.0237601538
  S         8.0316352647        4.2937791840        1.8832537660
  S         3.6156182091        1.4337105066        9.4247528138
  S         6.4336899093        1.4446123084       14.6447813604
  S         5.1683767021        4.3013732592        7.1213553670
  O         1.8928440045        3.1840682954        2.9057521610
  O         3.1781321919        0.2799900217       10.2742450714
  O         6.8630628712        2.5788417233       13.6150334407
  O         5.6132942240        5.4621412211        6.2846269487
  O         8.4563628258        5.4283730586        2.9177418398
  O         4.0532377696        2.5877054273       10.2738228473
  O         0.3656972343        0.2904540516       13.6232262495
  O         4.7233533140        3.1405509125        6.2845779591
  O         3.3292423270        3.6786082333        0.8794634038
  O         4.7421362923        0.9277174984        8.5875157694
  O         5.4310029235        2.0752086241       15.6368957108
  O         4.0426154297        4.8152897487        7.9560008457
  O         6.9551700469        4.9307490372        1.0061926317
  O         2.4894292375        1.9382480833        8.5863943158
  O         1.7746755522        0.8034352259       15.6974616279
  O         6.2941205222        3.7880426307        7.9564403200
  O         5.1171050701        2.7697146507        3.6145594106
  O         3.6595427720        5.4940815397       11.0203705075
  O         3.6818165980        2.9358705885       12.9300706050
  O         5.1220000595        0.2440890606        5.4909039472
  O         2.1171602824        0.0991269576        3.6140125048
  O         6.6773063878        3.1053622868       11.0225958640
  O         6.6493449068        5.6576354649       12.9306184255
  O         2.1098304098        2.6245097158        5.4943373223
  H         6.0222777914        3.0389215882        3.2919697819
  H         1.4288026689        0.0522321511       10.6960015931
  H         2.7659797640        2.6804334084       13.2281625823
  H         7.3593837681        5.6793984419        5.8324917883
  H         4.3143118155        5.5651401405        3.2889037848
  H         5.8028513239        2.8162302261       10.6949638077
  H         4.4656596919        0.1857028674       13.2357340454
  H         2.9775526743        2.9238477168        5.8328497133
  H         5.1251978746        2.9819967481        4.5672746321
  H         3.5845412004        5.8399598675       11.9493542873
  H         3.6591683538        2.7477247754       11.9726227443
  H         5.2041684756       -0.1030046250        4.5626452258
  H         2.1074188960       -0.1142172261        4.5663179300
  H         6.7523936482        2.7650206979       11.9523458590
  H         6.6810451689        5.8566678081       11.9765087446
  H         2.0274357927        2.9701645683        4.5655380505
 Ca         1.0469932002        7.1716122154        2.6993551261
 Ca         5.4338957209       10.0355421214        9.5090603901
 Ca         2.5914430768       10.0203517486       13.7722107946
 Ca         3.8802015623        7.1701580968        7.0266345573
  S         5.4391777174       10.0445203207        1.8124381266
  S         1.0424149514        7.1702869036        9.4270941810
  S         3.8943707400        7.1607200839       14.7347104435
  S         2.5940148544       10.0368502818        7.1220440066
  O        -0.6641158169        8.9170837796        2.9167029145
  O         0.6047950695        6.0139604655       10.2729300830
  O         4.3130473953        8.2747762639       13.6618405779
  O         3.0404149639       11.1997686779        6.2892179801
  O         5.8664018512       11.1410701027        2.9008301938
  O         1.4807981049        8.3250825534       10.2746493238
  O        -2.2299183611        6.0407755964       13.6248622292
  O         2.1488567097        8.8756081107        6.2861807963
  O         0.7827861085        9.4026097859        0.8730791975
  O         2.1667109888        6.6630377860        8.5876141036
  O         2.9016201577        7.7795630396       15.7450207767
  O         1.4683448826       10.5507536531        7.9570851687
  O         4.4211148352       10.6891303708        0.8476549858
  O        -0.0847892985        7.6747282529        8.5898476884
  O        -0.7906608075        6.5439704151       15.6370186318
  O         3.7201448368        9.5234128138        7.9565706816
  O         2.5394327960        8.5026664374        3.6151483463
  O         1.0848345986       11.2335002609       11.0229859359
  O         1.1185148376        8.6817322153       12.9309095655
  O         2.5484858670        5.9778702000        5.4961407840
  O        -0.4606914766        5.8327862896        3.6172247591
  O         4.1035523212        8.8445671068       11.0201797513
  O         4.0790607371       11.4034645745       12.9273710320
  O        -0.4641404619        8.3602528751        5.4952380437
  H         3.4442773265        8.7760423514        3.2926629921
  H        -1.1452111634        5.7881315520       10.6980246626
  H         0.2022787678        8.4194978830       13.2238756457
  H         4.7851275137       11.4158268004        5.8323403137
  H         1.7454186825       11.2982784609        3.2922720682
  H         3.2287622225        8.5505133096       10.6976434808
  H         1.8804043257        5.9197780818       13.2208739059
  H         0.4040148073        8.6581934808        5.8341257529
  H         2.5506102042        8.7183719086        4.5665506217
  H         1.0102497622       11.5738504803       11.9525068487
  H         1.0819949173        8.4822672094       11.9773426636
  H         2.6265280020        5.6343518882        4.5663290125
  H        -0.4647668964        5.6209310627        4.5696059265
  H         4.1776683338        8.4987503414       11.9492817569
  H         4.1011043111       11.5912597127       11.9699583471
  H        -0.5427133145        8.7046367965        4.5656845133
 Ca         6.7255397867        7.1825448827        2.6992505120
 Ca        -0.2452503992       10.0348017521        9.5088590328
 Ca        -3.0929904375       10.0281668320       13.7717293738
 Ca        -1.7974965013        7.1693586979        7.0266580077
  S        -0.2246495473       10.0303364053        1.8592386702
  S         6.7212894362        7.1702296406        9.4267373550
  S        -1.8017740173        7.1719107502       14.6620213072
  S        -3.0849905986       10.0368539849        7.1216117646
  O         5.0168557201        8.9314033547        2.8833736398
  O         6.2841253292        6.0142702752       10.2733535476
  O        -1.3711610838        8.3024617085       13.6239809390
  O        -2.6387157367       11.1991638314        6.2874950832
  O         0.1987218012       11.1593417296        2.9053463007
  O         7.1592937486        8.3249398261       10.2745944265
  O         3.4724200137        6.0544239882       13.6545833979
  O        -3.5298782564        8.8757924127        6.2851743474
  O         6.4064219505        9.4293273934        0.7587452512
  O         7.8458861425        6.6634841426        8.5874123672
  O        -2.8308368352        7.8071835416       15.6081142489
  O        -4.2104276609       10.5507151786        7.9567474679
  O        -1.2712926556       10.6682819288        0.9407096560
  O         5.5939934117        7.6742083448        8.5893905930
  O         4.8622217295        6.5440939780       15.7865001006
  O        -1.9587418922        9.5237638477        7.9559846544
  O        -3.1388957260        8.5036361602        3.6147350669
  O        -4.5934150545       11.2327680049       11.0237546978
  O         6.7895813406        8.6805310973       12.9300109588
  O         8.2267852762        5.9778172546        5.4912217998
  O         5.2194376007        5.8312429997        3.6166589113
  O        -1.5765234634        8.8441873311       11.0233328458
  O        -1.5951945736       11.4034493333       12.9267821826
  O         5.2151705949        8.3584986938        5.4943909210
  H        -2.2335690916        8.7738033723        3.2922683958
  H         4.5340934368        5.7881336633       10.6979219951
  H         5.8758110383        8.4176571125       13.2284199111
  H        -0.8931809260       11.4144400809        5.8300306312
  H        -3.9373215144       11.3013103665        3.2942090424
  H        -2.4501762870        8.5507228755       10.6969475529
  H         7.5641181809        5.9208743974       13.2245519652
  H         6.0826155026        8.6592215558        5.8328519869
  H        -3.1290397106        8.7173508920        4.5666831612
  H        -4.6692964031       11.5734066126       11.9530906565
  H         6.7630369409        8.4824132019       11.9754556952
  H         8.3087874556        5.6319557019        4.5629097489
  H         5.2153554379        5.6219633434        4.5700794785
  H        -1.5005444232        8.4985086674       11.9520325695
  H        -1.5801175062       11.5908756372       11.9691737407
  H         5.1337210774        8.7072793811        4.5661636550
     192
 i =       15, E =     -2329.8644326827
 Ca         9.3079465988        1.4450394776        2.6668171295
 Ca         2.3289856066        4.2982604115        9.5009517455
 Ca        -0.5352282813        4.2713390490       13.9097949355
 Ca         0.7761663908        1.4351538269        7.0300500071
  S         2.3240040943        4.3012487497        1.9254846376
  S         9.2946075302        1.4329586692        9.4208124030
  S         0.7586031409        1.4363482647       14.6010031989
  S        -0.5108098075        4.3018916646        7.1241451230
  O         7.5917052726        3.1395228606        2.8934750402
  O         8.8566227241        0.2734133213       10.2594512972
  O         1.1863040109        2.5752723886       13.5862843198
  O        -0.0744091700        5.4544792261        6.2753621770
  O         2.7587977307        5.4646086870        2.9023900833
  O         9.7311452942        2.5928407760       10.2596532735
  O         6.0292889113        0.2808463855       13.6145904858
  O        -0.9468516989        3.1492072493        6.2755855298
  O         9.0209515818        3.7019363750        0.9041355433
  O        10.4216848539        0.9286866948        8.5857064383
  O        -0.1676670824        2.0213397654       15.7108485732
  O        -1.6364385614        4.8151351323        7.9574111094
  O         1.2906778138        4.9062406644        0.9818668167
  O         8.1690196618        1.9376977999        8.5841481055
  O         7.4321359538        0.8449693215       15.6546740903
  O         0.6146355553        3.7881879538        7.9570204506
  O        -0.5520018941        2.7752096458        3.6213115631
  O        -2.0089613462        5.4880861402       11.0362725854
  O         9.3259648041        2.9057593718       12.9064296612
  O        10.8026421224        0.2408288809        5.4961009964
  O         7.7770574845        0.0792357843        3.6252845441
  O         0.9886145390        3.1201045815       11.0330913312
  O         1.0207076954        5.7140579013       12.8945866029
  O         7.7867747537        2.6241177063        5.4954855204
  H         0.3358125857        3.0256936345        3.2385066340
  H         7.1076074978        0.0532179950       10.6924958607
  H         8.4352543732        2.6983828646       13.3143835900
  H         1.6804751397        5.6798515724        5.8307300675
  H        -1.3551892918        5.5774274232        3.2437383314
  H         0.1233643555        2.8150728087       10.6902428721
  H        10.1477233268        0.1707331395       13.3024936599
  H         8.6558689716        2.9229386056        5.8305372971
  H        -0.6015497331        2.9658890324        4.5742042612
  H        -2.0961080600        5.8355940358       11.9619030221
  H         9.3977382529        2.7604646429       11.9445255170
  H        10.8697768341       -0.0966200200        4.5678516106
  H         7.8350382889       -0.0980586596        4.5812513764
  H         1.0745541944        2.7648067383       11.9574067350
  H         0.9332035693        5.8417869822       11.9290514295
  H         7.7223162774        2.9655593829        4.5679647521
 Ca         3.6248042387        1.4432596776        2.6675881163
 Ca         8.0067056519        4.2992374855        9.5010124557
 Ca         5.1415389070        4.2790192355       13.9033142597
 Ca         6.4552298808        1.4350988606        7.0303743648
  S         8.0184129121        4.2976468719        1.9061383573
  S         3.6157757520        1.4329959438        9.4200595619
  S         6.4588988892        1.4347683212       14.6128664534
  S         5.1683547595        4.3017917495        7.1230723786
  O         1.8973174706        3.1419041676        2.9123459803
  O         3.1778432403        0.2731607103       10.2583718909
  O         6.8998043596        2.5774628906       13.6072649463
  O         5.6050278262        5.4547594508        6.2747299506
  O         8.4378754556        5.4589048429        2.8969285691
  O         4.0525741059        2.5931801198       10.2583104483
  O         0.3013177417        0.2896253245       13.6084516047
  O         4.7320976662        3.1489957021        6.2743291958
  O         3.2973007418        3.7089703694        0.8892650396
  O         4.7424869125        0.9292065031        8.5840415929
  O         5.4545476565        2.0454560982       15.6002793420
  O         4.0428364520        4.8144724498        7.9565237799
  O         7.0234741206        4.8813521469        0.8921863014
  O         2.4901720124        1.9364765566        8.5826972601
  O         1.8053012840        0.8124114290       15.5162843156
  O         6.2935072464        3.7883516796        7.9563465917
  O         5.1313970333        2.7748655432        3.6193439224
  O         3.6683187707        5.4875502142       11.0353667595
  O         3.6560936085        2.9207913802       12.9094192375
  O         5.1251730759        0.2405700321        5.4903129025
  O         2.0979550956        0.0825792340        3.6232810940
  O         6.6695162534        3.1192131635       11.0336369131
  O         6.6974354482        5.7035936201       12.9001200561
  O         2.1070699952        2.6255830773        5.4932714133
  H         6.0191375892        3.0262954839        3.2404645511
  H         1.4284535586        0.0535455357       10.6940172924
  H         2.7657903819        2.6938789892       13.3065536879
  H         7.3609695753        5.6786482059        5.8274101088
  H         4.3213828077        5.5770726925        3.2451454499
  H         5.8032417924        2.8148255019       10.6928941002
  H         4.4634115145        0.1720449120       13.2985357413
  H         2.9760803985        2.9242608125        5.8287673344
  H         5.0806613868        2.9664290316        4.5724882102
  H         3.5863968061        5.8349176414       11.9612893127
  H         3.7149934090        2.7588915666       11.9505112672
  H         5.1930627147       -0.0974737271        4.5635812819
  H         2.1549872839       -0.0976006847        4.5789466692
  H         6.7478062167        2.7673891853       11.9591527751
  H         6.6188139339        5.8435373107       11.9364256378
  H         2.0385243330        2.9662256226        4.5667545785
 Ca         1.0288889138        7.1555075506        2.6734993791
 Ca         5.4346183395       10.0405818064        9.5034435520
 Ca         2.6310080354       10.0694151183       13.9083786615
 Ca         3.8818098916        7.1676066627        7.0299358532
  S         5.4341245514       10.0446041582        1.8905520269
  S         1.0417002953        7.1679672705        9.4221195743
  S         3.8822240472        7.1640556970       14.6127579183
  S         2.5946585861       10.0377208707        7.1244211489
  O        -0.6776452263        8.8732202423        2.9010042201
  O         0.6076316850        6.0124593362       10.2682964954
  O         4.3017620353        8.3152633999       13.6069011355
  O         3.0298091763       11.1899206466        6.2746849771
  O         5.8543492190       11.1944527652        2.8939207547
  O         1.4779793150        8.3266217487       10.2623214681
  O        -2.2207692395        6.0179346373       13.5970538004
  O         2.1587461052        8.8857039897        6.2747217324
  O         0.7882674690        9.4208797655        0.9886869208
  O         2.1690660889        6.6651641012        8.5866637147
  O         2.9033566467        7.7632168595       15.6383866656
  O         1.4678795352       10.5498896128        7.9564677900
  O         4.4444994157       10.6608483770        0.8824700260
  O        -0.0855079015        7.6748022916        8.5886537739
  O        -0.8190233756        6.5684335670       15.6211412360
  O         3.7201107122        9.5228492298        7.9568452070
  O         2.5594021135        8.5210629623        3.6231570174
  O         1.0945718228       11.2183550655       11.0348270292
  O         1.0648060276        8.6270170108       12.8980700851
  O         2.5495275456        5.9783552434        5.4955361359
  O        -0.4645330874        5.8303000178        3.6172622241
  O         4.0935976314        8.8515144132       11.0363388521
  O         4.1066103901       11.4188808018       12.9141203971
  O        -0.4669650014        8.3626099635        5.4956918801
  H         3.4482891584        8.7625654775        3.2364782095
  H        -1.1433812158        5.7876278966       10.6892520547
  H         0.1743688277        8.4335415672       13.3196023273
  H         4.7850402486       11.4159930364        5.8318336507
  H         1.7407663715       11.3125049277        3.2328115187
  H         3.2278877256        8.5507466542       10.6910147756
  H         1.9095809280        5.9053069676       13.3230371155
  H         0.4029015606        8.6582302570        5.8310964846
  H         2.5039794167        8.7012784192        4.5785693528
  H         1.0105250760       11.5724327742       11.9594436387
  H         1.1468416680        8.4964661882       11.9329349421
  H         2.6168515981        5.6380454580        4.5681912003
  H        -0.4251308269        5.6366127213        4.5701482711
  H         4.1790019678        8.5034972172       11.9614371978
  H         4.0526093311       11.5794784984       11.9544499477
  H        -0.5320945027        8.6996517809        4.5677717435
 Ca         6.7066850332        7.1563255252        2.6709160330
 Ca        -0.2458007601       10.0415464532        9.5034225756
 Ca        -3.0529072857       10.0630733274       13.9009335672
 Ca        -1.7970670617        7.1675788589        7.0296104555
  S        -0.2460169131       10.0373135808        1.9250566099
  S         6.7207295499        7.1680730387        9.4218659925
  S        -1.7992120175        7.1700559958       14.5988714200
  S        -3.0843450141       10.0377644186        7.1234974830
  O         5.0023563357        8.8904239965        2.8858962936
  O         6.2862673597        6.0118099895       10.2668391289
  O        -1.3438629644        8.3156278206       13.6047669929
  O        -2.6491447191       11.1897355366        6.2730956460
  O         0.1844910116       11.1976812453        2.9098606350
  O         7.1573668926        8.3271586618       10.2613635506
  O         3.4317870368        6.0269782546       13.6048015572
  O        -3.5208404906        8.8853744408        6.2743646674
  O         6.3986454492        9.4556508564        0.8348327933
  O         7.8477859209        6.6655364062        8.5857753303
  O        -2.8204675573        7.7875128800       15.5556240355
  O        -4.2106792416       10.5495503710        7.9561577367
  O        -1.2205818481       10.6310389819        0.8904338243
  O         5.5937545329        7.6741846063        8.5876423145
  O         4.8938801776        6.5496828553       15.5865001006
  O        -1.9589780007        9.5232737013        7.9561322419
  O        -3.1170825522        8.5208105101        3.6216219426
  O        -4.5851069482       11.2184620310       11.0345440554
  O         6.7439744093        8.6370506077       12.9030325501
  O         8.2297279873        5.9790961875        5.4929391467
  O         5.2111617333        5.8322348894        3.6161250120
  O        -1.5841830609        8.8513873254       11.0360502600
  O        -1.5752665823       11.4060422911       12.9141760720
  O         5.2113572493        8.3621392409        5.4941488848
  H        -2.2279759810        8.7624184105        3.2382164236
  H         4.5347518849        5.7877930534       10.6914629573
  H         5.8540944846        8.4294906782       13.3146412327
  H        -0.8919743965       11.4144819049        5.8270267541
  H        -3.9394995310       11.3140883715        3.2374141594
  H        -2.4504750286        8.5508130560       10.6922329147
  H         7.5863428754        5.9079396514       13.3170249846
  H         6.0810251368        8.6593171362        5.8288795660
  H        -3.1737994535        8.7014344708        4.5771384179
  H        -4.6660611131       11.5711800404       11.9595501170
  H         6.8198282763        8.4947259344       11.9396767344
  H         8.2975853119        5.6364512620        4.5669200925
  H         5.2542666765        5.6372898655        4.5688369514
  H        -1.5034994530        8.5043344856       11.9616652362
  H        -1.6241279464       11.5811113964       11.9573839518
  H         5.1450528531        8.7018102763        4.5676959475
     192
 i =       16, E =     -2329.3291852715
 Ca         9.3026372024        1.4469315368        2.6795845971
 Ca         2.3293181239        4.2996930837        9.5033501073
 Ca        -0.5353796315        4.2869502881       13.8789349596
 Ca         0.7759747856        1.4346585445        7.0258166396
  S         2.3344391972        4.2981398145        1.9028628458
  S         9.2945991802        1.4329805434        9.4179642707
  S         0.8110157882        1.4169094685       14.6097889208
  S        -0.5108410038        4.3017951938        7.1252778860
  O         7.5790612824        3.1649874706        2.8766557457
  O         8.8559258626        0.2748382579       10.2588290063
  O         1.2325094264        2.5524269217       13.5841556375
  O        -0.0725697958        5.4553646411        6.2781723119
  O         2.7684622627        5.4511221874        2.8996779209
  O         9.7319963860        2.5914846772       10.2590283746
  O         6.0164247047        0.2947704755       13.6236312873
  O        -0.9489385872        3.1481483222        6.2784053797
  O         9.0283353352        3.6929664406        0.8970077857
  O        10.4208340267        0.9269452538        8.5822437127
  O        -0.2349558722        2.0533070068       15.5117439313
  O        -1.6359896498        4.8164712690        7.9585283462
  O         1.2811095455        4.9152670507        0.9942063808
  O         8.1698922486        1.9390716054        8.5803619700
  O         7.4513986947        0.8351408809       15.6162143531
  O         0.6142715458        3.7869500371        7.9581613635
  O        -0.5525196693        2.7771426608        3.6233943307
  O        -2.0096481160        5.4881024893       11.0337658147
  O         9.3296508892        2.9087639207       12.9049401307
  O        10.8010049074        0.2400129752        5.4956720980
  O         7.7784002019        0.0782238770        3.6256546847
  O         0.9899234797        3.1172478229       11.0300641437
  O         1.0141281673        5.7010327395       12.8972264203
  O         7.7878065667        2.6256126623        5.4970150437
  H         0.3388014108        3.0294163643        3.2502728640
  H         7.1074684333        0.0545289172       10.6917851391
  H         8.4348763372        2.6930055254       13.2959143856
  H         1.6799744514        5.6781907061        5.8329534234
  H        -1.3587346180        5.5739724304        3.2530839422
  H         0.1237015556        2.8138451929       10.6893167259
  H        10.1461336817        0.1752149417       13.2878568278
  H         8.6564770577        2.9245226426        5.8327565075
  H        -0.5903874246        2.9728940572        4.5762398514
  H        -2.0962240337        5.8408229581       11.9581280741
  H         9.3831509003        2.7521881020       11.9446831959
  H        10.8716468108       -0.1013740063        4.5684746685
  H         7.8222566577       -0.1055864556        4.5811318173
  H         1.0745307604        2.7605095649       11.9537586615
  H         0.9503890754        5.8500883016       11.9358451295
  H         7.7207658533        2.9694837046        4.5699576373
 Ca         3.6199560927        1.4423500150        2.6820005913
 Ca         8.0070559770        4.3003553254        9.5035150038
 Ca         5.1502770235        4.2782827197       13.8743790916
 Ca         6.4551246714        1.4342949799        7.0257427725
  S         7.9981440432        4.3045857870        1.8520867586
  S         3.6158680441        1.4329867444        9.4170107061
  S         6.4402578922        1.4420847354       14.6386337023
  S         5.1684128297        4.3017092253        7.1242885434
  O         1.9093468079        3.1485173449        2.9089077259
  O         3.1772519179        0.2746911345       10.2577777019
  O         6.8776531257        2.5789309832       13.6187075330
  O         5.6068021177        5.4557236709        6.2776145857
  O         8.4132079456        5.4475943011        2.8779708538
  O         4.0532474504        2.5918032077       10.2576457234
  O         0.3509907584        0.2724815007       13.6124920188
  O         4.7301759800        3.1478034650        6.2774232488
  O         3.2835209223        3.7107066411        0.8255600386
  O         4.7418859585        0.9274891171        8.5805574322
  O         5.4778460686        2.0416048446       15.6979027162
  O         4.0431785210        4.8155478210        7.9575735885
  O         7.0710304111        4.8706022294        0.7229413665
  O         2.4909584713        1.9376842571        8.5789366120
  O         1.7449001670        0.8298599221       15.7162843156
  O         6.2932844944        3.7871932675        7.9575266343
  O         5.1333150371        2.7786513345        3.6211615724
  O         3.6684386088        5.4879813905       11.0344122883
  O         3.6554454477        2.9191063008       12.9100614841
  O         5.1236026784        0.2410205308        5.4911390976
  O         2.0972033290        0.0811487846        3.6235400046
  O         6.6698208770        3.1166015347       11.0316801302
  O         6.6898824460        5.6949245330       12.9002540584
  O         2.1085360032        2.6262821140        5.4940291457
  H         6.0246721886        3.0294457106        3.2508225175
  H         1.4285405720        0.0547826455       10.6925992566
  H         2.7609327372        2.6890591302       13.2906379186
  H         7.3604754345        5.6769810010        5.8295843612
  H         4.3163465941        5.5740353683        3.2540500468
  H         5.8031844645        2.8136108743       10.6914321365
  H         4.4673326165        0.1763549612       13.2858966498
  H         2.9765638602        2.9259340527        5.8310244979
  H         5.0913923234        2.9731421543        4.5747251757
  H         3.5851721530        5.8400933872       11.9589604447
  H         3.7016863696        2.7514847924       11.9515580570
  H         5.1953933813       -0.1024907605        4.5654636223
  H         2.1427574993       -0.1048002269        4.5787721248
  H         6.7491525258        2.7633393211       11.9566411421
  H         6.6344359068        5.8520877425       11.9397380550
  H         2.0362514271        2.9709497928        4.5683467864
 Ca         1.0334129202        7.1630420505        2.6860098001
 Ca         5.4343182184       10.0389874022        9.5051419073
 Ca         2.6242529533       10.0614951120       13.8791028767
 Ca         3.8817060348        7.1685406986        7.0265465603
  S         5.4484733935       10.0395332314        1.9357961827
  S         1.0417686427        7.1685333637        9.4192449276
  S         3.8691747184        7.1681807954       14.5917965763
  S         2.5945349694       10.0374768496        7.1257620548
  O        -0.6702374311        8.8768065995        2.9023052079
  O         0.6061002836        6.0128633182       10.2649820247
  O         4.2957288448        8.3250079251       13.5962158985
  O         3.0320614369       11.1911204342        6.2785758469
  O         5.8763022945       11.1974434322        2.9237178168
  O         1.4793672241        8.3262830493       10.2607202263
  O        -2.1906302457        6.0174936741       13.6137948200
  O         2.1566288388        8.8841346636        6.2782475179
  O         0.7753119773        9.4210588217        0.9357665314
  O         2.1676467028        6.6634165835        8.5825918013
  O         2.8982459957        7.7661997549       15.6294101213
  O         1.4684211908       10.5512754992        7.9579909586
  O         4.3888370128       10.6824190662        1.0485989276
  O        -0.0846388109        7.6762547631        8.5847453916
  O        -0.8641333806        6.5827408806       15.7886585315
  O         3.7196229375        9.5217353655        7.9583465010
  O         2.5576001735        8.5209091985        3.6246186854
  O         1.0932750986       11.2219812414       11.0323282243
  O         1.0696712247        8.6387608502       12.8990301363
  O         2.5483508598        5.9768119099        5.4961231771
  O        -0.4656952151        5.8282619256        3.6212000049
  O         4.0940192741        8.8505531807       11.0355343893
  O         4.1008927040       11.4180656086       12.9115425976
  O        -0.4651566323        8.3629910354        5.4958513686
  H         3.4494796741        8.7668067943        3.2491416264
  H        -1.1438236582        5.7892941496       10.6896123850
  H         0.1768415981        8.4285912501       13.2987150047
  H         4.7846567466       11.4142649143        5.8339721314
  H         1.7381578285       11.3083349390        3.2466196876
  H         3.2283889522        8.5492305510       10.6909813191
  H         1.9059446756        5.9107234888       13.3003302201
  H         0.4034850515        8.6600356716        5.8332528236
  H         2.5161285733        8.7087648331        4.5791712306
  H         1.0103839582       11.5761282373       11.9566572848
  H         1.1309728691        8.4882010039       11.9378536685
  H         2.6185202883        5.6338217689        4.5694215194
  H        -0.4347313945        5.6297240193        4.5740571326
  H         4.1795140063        8.4981333218       11.9593556411
  H         4.0639471944       11.5871997020       11.9529238206
  H        -0.5342433710        8.7043643283        4.5689040952
 Ca         6.7135564302        7.1541436870        2.6848987214
 Ca        -0.2457898835       10.0397046406        9.5052621912
 Ca        -3.0655902443       10.0620631078       13.8728304494
 Ca        -1.7969789671        7.1683707246        7.0261613933
  S        -0.2354482188       10.0322882355        1.9114320999
  S         6.7209176638        7.1686423777        9.4189815623
  S        -1.7679356235        7.1592641319       14.6350457073
  S        -3.0843901395       10.0375183490        7.1247754767
  O         5.0086717456        8.8757731606        2.9132400848
  O         6.2851072756        6.0125607883       10.2640867260
  O        -1.3265508004        8.2987213295       13.6194980990
  O        -2.6469012897       11.1911514532        6.2771860758
  O         0.1911530086       11.1860163046        2.9118624096
  O         7.1585058226        8.3265202979       10.2603581780
  O         3.4208291639        6.0221034434       13.5940200182
  O        -3.5228372074        8.8838601659        6.2777154230
  O         6.4168376236        9.4472211017        0.8888457299
  O         7.8465141700        6.6639685923        8.5816493642
  O        -2.8457965314        7.7988574967       15.4962506234
  O        -4.2101231752       10.5508959555        7.9575220102
  O        -1.2350474680       10.6392315519        0.9207466536
  O         5.5946644874        7.6755403634        8.5837889378
  O         4.9314388456        6.5319595816       15.4769546108
  O        -1.9593886617        9.5222145160        7.9575751696
  O        -3.1187244595        8.5217403690        3.6234347084
  O        -4.5855526974       11.2218928947       11.0330318246
  O         6.7495974920        8.6446351532       12.9028628866
  O         8.2285709848        5.9781120272        5.4941583884
  O         5.2086900287        5.8288948242        3.6190642018
  O        -1.5840811090        8.8511090949       11.0336011562
  O        -1.5747608223       11.4080694877       12.9122686527
  O         5.2136470519        8.3627879993        5.4923138375
  H        -2.2260806437        8.7658519656        3.2502498339
  H         4.5344888455        5.7893083213       10.6909560031
  H         5.8565296973        8.4246727141       13.2953572842
  H        -0.8922738635       11.4126805749        5.8289709095
  H        -3.9435182389       11.3103487252        3.2500846836
  H        -2.4504153673        8.5492079514       10.6917823428
  H         7.5826474989        5.9129597468       13.2967597869
  H         6.0814466036        8.6610322480        5.8313032345
  H        -3.1621847114        8.7086973234        4.5784805560
  H        -4.6675813611       11.5751036523       11.9575829424
  H         6.8044791127        8.4862092807       11.9426535868
  H         8.2996626767        5.6320189849        4.5687485980
  H         5.2446770980        5.6307531417        4.5719823580
  H        -1.5025230214        8.4994369070       11.9582234203
  H        -1.6128038088       11.5884035147       11.9557854035
  H         5.1419908410        8.7071394941        4.5672052387
     192
 i =       17, E =     -2329.9615199368
 Ca         9.2846305582        1.4245824643        2.7243157428
 Ca         2.3298783324        4.3047237278        9.5135664125
 Ca        -0.5060651877        4.3078480430       13.7459042908
 Ca         0.7750832250        1.4326665752        7.0121039610
  S         2.3035831992        4.3107804803        1.8466229154
  S         9.2946183863        1.4333655645        9.4126441862
  S         0.7992469383        1.4202140613       14.6718028051
  S        -0.5107355814        4.3014471816        7.1273322687
  O         7.5977217224        3.1796829852        2.9041673011
  O         8.8541533865        0.2812096971       10.2634068297
  O         1.2266805548        2.5342414401       13.6072769289
  O        -0.0645908654        5.4608038404        6.2893375017
  O         2.7489118298        5.4246467182        2.9078805685
  O         9.7343854291        2.5860922787       10.2633722197
  O         6.0296557199        0.3068819955       13.6366771240
  O        -0.9575831705        3.1421498731        6.2896505677
  O         9.0439089414        3.6688088461        0.8608657761
  O        10.4186416067        0.9220449297        8.5748810419
  O        -0.2406024425        2.0825413398       15.5781939814
  O        -1.6349070592        4.8200372564        7.9609087107
  O         1.3077476099        4.9278380104        0.8434024260
  O         8.1716464384        1.9426615063        8.5723182770
  O         7.4688231233        0.8156871532       15.6509753635
  O         0.6136494216        3.7837655134        7.9610862838
  O        -0.5559191921        2.7801696152        3.6261729958
  O        -2.0161591489        5.4919136936       11.0221708983
  O         9.3537226183        2.9295801030       12.9133359137
  O        10.7971735676        0.2399085594        5.4979146181
  O         7.7926157401        0.0863994842        3.6222065044
  O         0.9969620005        3.1052869004       11.0178013158
  O         0.9710395728        5.6476380166       12.9178504172
  O         7.7919393109        2.6317212114        5.4957889142
  H         0.3502292514        3.0444390968        3.2996460243
  H         7.1069406322        0.0570967444       10.6911836168
  H         8.4380073679        2.6740653963       13.2139286182
  H         1.6785027977        5.6743227260        5.8397412666
  H        -1.3741967359        5.5596529337        3.2932907108
  H         0.1247799725        2.8113201152       10.6889734352
  H        10.1475069713        0.1924132759       13.2249838052
  H         8.6581439369        2.9278678220        5.8403675325
  H        -0.5445338230        2.9965409486        4.5787973441
  H        -2.0948212664        5.8549528301       11.9447417062
  H         9.3209432870        2.7271529752       11.9593631598
  H        10.8796843276       -0.1144102795        4.5722315414
  H         7.7717637940       -0.1303733669        4.5739483409
  H         1.0749643837        2.7495482389       11.9418354692
  H         1.0190769535        5.8764360269       11.9709209605
  H         7.7111382484        2.9807793912        4.5694828068
 Ca         3.6088575010        1.4249877200        2.7284745243
 Ca         8.0087467495        4.3043204543        9.5136328292
 Ca         5.1763343109        4.3145405443       13.7526014398
 Ca         6.4554837670        1.4314433514        7.0117791449
  S         8.0282407470        4.2941275584        1.8384451509
  S         3.6158289940        1.4332740012        9.4116577808
  S         6.4498299713        1.4400658840       14.6842271561
  S         5.1685046754        4.3012978533        7.1264208763
  O         1.8888597943        3.1914092398        2.9154485397
  O         3.1759833685        0.2814578652       10.2633661197
  O         6.8687453286        2.5685599431       13.6322295520
  O         5.6144164093        5.4607633161        6.2882192078
  O         8.4440199986        5.4171316680        2.9037431443
  O         4.0549836918        2.5858906803       10.2628510147
  O         0.3668185351        0.2886803182       13.6297760202
  O         4.7220950531        3.1416810210        6.2885952481
  O         3.3382518806        3.6764212062        0.9151299443
  O         4.7401436120        0.9228333167        8.5737180846
  O         5.4337948675        2.0756912634       15.6523043006
  O         4.0441107311        4.8188346278        7.9598870158
  O         6.9956960886        4.9222953022        0.8948081171
  O         2.4925283081        1.9411835931        8.5711593168
  O         1.7579855643        0.8047796509       15.7322020093
  O         6.2928497784        3.7841548680        7.9603633535
  O         5.1271685204        2.7835036838        3.6239511878
  O         3.6645493675        5.4917136204       11.0240162212
  O         3.6764942934        2.9247423042       12.9172617364
  O         5.1185321378        0.2434340420        5.4936831188
  O         2.1099213729        0.0864363449        3.6216409023
  O         6.6738681564        3.1044635254       11.0229080907
  O         6.6601018404        5.6576735304       12.9162592536
  O         2.1132284162        2.6278703674        5.4958972702
  H         6.0344422334        3.0426633392        3.2978997589
  H         1.4287838759        0.0573744348       10.6903297358
  H         2.7596869593        2.6717967208       13.2186521084
  H         7.3589090569        5.6734065344        5.8373913987
  H         4.3044119734        5.5616123079        3.2943064522
  H         5.8030640188        2.8112608514       10.6889071128
  H         4.4734683625        0.1922246041       13.2292670689
  H         2.9782670830        2.9298068084        5.8382320919
  H         5.1360758299        2.9961650354        4.5778462462
  H         3.5817371600        5.8541331670       11.9467800324
  H         3.6471719317        2.7284767311       11.9607408978
  H         5.2055552025       -0.1167917370        4.5699138780
  H         2.0943336510       -0.1290356426        4.5741732240
  H         6.7538301562        2.7528011890       11.9480758208
  H         6.6985281328        5.8776338077       11.9669953386
  H         2.0264684231        2.9838257086        4.5714185254
 Ca         1.0550598556        7.1831321774        2.7247267488
 Ca         5.4334343063       10.0331444582        9.5115602758
 Ca         2.5850586993       10.0238272845       13.7544225022
 Ca         3.8804243246        7.1717451898        7.0166486001
  S         5.4304054298       10.0468292060        1.8830079888
  S         1.0425490875        7.1709710755        9.4141199365
  S         3.8837319831        7.1614940572       14.6696761589
  S         2.5941185762       10.0365773848        7.1279476563
  O        -0.6634972251        8.9173751131        2.9040829430
  O         0.6015591713        6.0148708395       10.2589811667
  O         4.3080045513        8.2967258440       13.6279951104
  O         3.0419276603       11.1978175756        6.2935116723
  O         5.8703875453       11.1648230417        2.9352310003
  O         1.4840393467        8.3244562861       10.2623592822
  O        -2.2400719551        6.0486590174       13.6237362392
  O         2.1474419241        8.8765175114        6.2911268597
  O         0.7588471462        9.4087658686        0.8095516499
  O         2.1634684699        6.6586329225        8.5727048081
  O         2.8857563397        7.7804447865       15.6631013368
  O         1.4700770563       10.5548808071        7.9618963824
  O         4.3848029095       10.6951225821        0.9684849016
  O        -0.0820608419        7.6797997163        8.5757339337
  O        -0.7755776354        6.5403802492       15.5886585315
  O         3.7184092639        9.5193017352        7.9620025892
  O         2.5468977019        8.5135222071        3.6246522137
  O         1.0865061243       11.2369058652       11.0228798338
  O         1.1111648337        8.6906525891       12.9143966068
  O         2.5447194866        5.9727559168        5.4966782315
  O        -0.4713389715        5.8239687382        3.6292981785
  O         4.0999084603        8.8458285018       11.0237285444
  O         4.0842721379       11.4118494914       12.9126391702
  O        -0.4598388637        8.3628125859        5.4968912297
  H         3.4525787723        8.7820496351        3.3019519748
  H        -1.1459315660        5.7934310565       10.6940404463
  H         0.2006584108        8.4111482867       13.2081560886
  H         4.7834835702       11.4098746358        5.8390917632
  H         1.7363222185       11.2929365128        3.3042241727
  H         3.2297786466        8.5453567843       10.6940485342
  H         1.8833557974        5.9289027356       13.2037541613
  H         0.4053792525        8.6645089267        5.8395395146
  H         2.5637769697        8.7337247370        4.5756739455
  H         1.0095766844       11.5857317034       11.9481621858
  H         1.0663609432        8.4622489748       11.9676137959
  H         2.6269934034        5.6219381630        4.5708094806
  H        -0.4748899841        5.6067066206        4.5817859517
  H         4.1791231653        8.4839259302       11.9465333750
  H         4.1118215404       11.6104980703       11.9570437122
  H        -0.5433232524        8.7176529732        4.5715765439
 Ca         6.7337386372        7.1809025530        2.7261569847
 Ca        -0.2456849671       10.0325227230        9.5116463878
 Ca        -3.0974599430       10.0210663342       13.7548599227
 Ca        -1.7974981945        7.1708525275        7.0163966851
  S        -0.2245602555       10.0265321303        1.8325210840
  S         6.7216556631        7.1709116805        9.4136087250
  S        -1.8179426416        7.1795866058       14.6718225284
  S        -3.0848681146       10.0365879481        7.1271109569
  O         5.0040196579        8.9106967732        2.9204892837
  O         6.2815727791        6.0155080370       10.2598813971
  O        -1.3890332477        8.3139842415       13.6311154665
  O        -2.6372174976       11.1980636268        6.2925709737
  O         0.1897676428       11.1452605648        2.9052847412
  O         7.1621390998        8.3238428425       10.2631801332
  O         3.4557763000        6.0299365547       13.6263611634
  O        -3.5313841807        8.8764737228        6.2900151080
  O         6.4472230423        9.4204624991        0.9193364883
  O         7.8429719777        6.6595869371        8.5721938059
  O        -2.8041985308        7.7940748556       15.6904228436
  O        -4.2086961462       10.5544647622        7.9612688498
  O        -1.2519600394       10.6612436208        0.8886416435
  O         5.5968616324        7.6789050720        8.5750660593
  O         4.9140405468        6.5218782783       15.6086243621
  O        -1.9603631555        9.5200302699        7.9610307898
  O        -3.1314052323        8.5162287100        3.6235842350
  O        -4.5905722795       11.2355590603       11.0233498716
  O         6.7810826895        8.6798775093       12.9143775035
  O         8.2239468411        5.9740355535        5.4929114697
  O         5.2099595781        5.8213840138        3.6270065106
  O        -1.5811861323        8.8461872828       11.0255073173
  O        -1.5865286538       11.4101437062       12.9125556342
  O         5.2196009468        8.3614254313        5.4928361965
  H        -2.2234277372        8.7783963989        3.3017933836
  H         4.5336486397        5.7931811723       10.6926720408
  H         5.8700752381        8.4086412175       13.2135594652
  H        -0.8935882177       11.4082933354        5.8348668680
  H        -3.9472295475       11.2968045005        3.3047334644
  H        -2.4499802319        8.5455127237       10.6922458960
  H         7.5717330369        5.9298935111       13.2104733140
  H         6.0832377365        8.6654572161        5.8379966203
  H        -3.1157181055        8.7327033886        4.5757867961
  H        -4.6712102479       11.5849591378       11.9486759823
  H         6.7440133692        8.4608865348       11.9649868703
  H         8.3095969567        5.6192198125        4.5685970932
  H         5.2054444147        5.6081351258        4.5807107437
  H        -1.4978192980        8.4850713824       11.9485704486
  H        -1.5679942014       11.6102434739       11.9567188566
  H         5.1315412349        8.7215398444        4.5696886372
     192
 i =       18, E =     -2329.6521101285
 Ca         9.2846538592        1.4135073449        2.7362494036
 Ca         2.3299107786        4.3055632471        9.5155742155
 Ca        -0.5010784877        4.3162019262       13.7154369026
 Ca         0.7748985641        1.4323773668        7.0085136466
  S         2.3028858055        4.3111440678        1.8194224256
  S         9.2947020583        1.4333739240        9.4104180271
  S         0.7787557863        1.4268105000       14.6622587268
  S        -0.5106805476        4.3014059751        7.1283001158
  O         7.5885529602        3.1836192835        2.9181438179
  O         8.8539452201        0.2827533348       10.2636896209
  O         1.2127173863        2.5430592122       13.6032547715
  O        -0.0628316149        5.4617142709        6.2918672344
  O         2.7471745411        5.4128024786        2.9032026523
  O         9.7346792221        2.5846897765       10.2635757798
  O         6.0200798934        0.3084285567       13.6300821876
  O        -0.9593501263        3.1411574117        6.2922159669
  O         9.0700203468        3.6558675728        0.9291923881
  O        10.4184287697        0.9210732249        8.5724133998
  O        -0.2312690151        2.0841369458       15.6169632745
  O        -1.6346197517        4.8210431521        7.9618193312
  O         1.3161873806        4.9301143728        0.8012999251
  O         8.1721041865        1.9431331261        8.5694325982
  O         7.4961989603        0.8034266974       15.5792479775
  O         0.6134455017        3.7828468760        7.9621565430
  O        -0.5565897678        2.7811762860        3.6277659070
  O        -2.0173026271        5.4925609889       11.0195779608
  O         9.3575683660        2.9348012186       12.9131071051
  O        10.7961426413        0.2394103769        5.4988385658
  O         7.7952438902        0.0878629926        3.6225650216
  O         0.9979564421        3.1026612380       11.0160894342
  O         0.9624684889        5.6360139177       12.9194207111
  O         7.7931376177        2.6332946609        5.4953051128
  H         0.3527056661        3.0477431889        3.3101862421
  H         7.1066862073        0.0580826293       10.6906747603
  H         8.4383595486        2.6695979294       13.1966557599
  H         1.6780575179        5.6729394270        5.8413866226
  H        -1.3769867568        5.5564850743        3.3023509430
  H         0.1251038757        2.8104640475       10.6881730779
  H        10.1490179184        0.1963130048       13.2115981292
  H         8.6585714711        2.9291062693        5.8422488458
  H        -0.5347296356        3.0025172063        4.5802167162
  H        -2.0944758643        5.8587032025       11.9414210377
  H         9.3072751026        2.7204505591       11.9609430488
  H        10.8812319354       -0.1180328227        4.5736798009
  H         7.7607198310       -0.1365807174        4.5733210200
  H         1.0753640854        2.7460960949       11.9396764610
  H         1.0331901989        5.8828740580       11.9759101002
  H         7.7094310913        2.9841946362        4.5695203266
 Ca         3.6066728622        1.4243954516        2.7409463809
 Ca         8.0089555540        4.3049879744        9.5157779216
 Ca         5.1800782307        4.3254362391       13.7246200206
 Ca         6.4555604834        1.4310240045        7.0082215500
  S         8.0222003968        4.2967504803        1.8504802123
  S         3.6158723241        1.4332972181        9.4094342374
  S         6.4404439301        1.4438538699       14.6757508790
  S         5.1685563287        4.3012007840        7.1274106918
  O         1.8919388992        3.2016257504        2.9086948028
  O         3.1758793215        0.2831222062       10.2638913134
  O         6.8594157516        2.5753918658       13.6268394096
  O         5.6160638719        5.4615505656        6.2906361488
  O         8.4413741636        5.4194816037        2.9161057854
  O         4.0551360432        2.5843992960       10.2632605522
  O         0.3504196164        0.2921232864       13.6211023040
  O         4.7204237633        3.1406574066        6.2910998974
  O         3.3338798869        3.6743945212        0.8813899694
  O         4.7399966011        0.9219412593        8.5713669822
  O         5.4284359054        2.0813379316       15.6497246639
  O         4.0443959958        4.8198784972        7.9607433970
  O         6.9869884775        4.9305089463        0.9134097252
  O         2.4929894472        1.9416076135        8.5682092612
  O         1.7961653573        0.7864415776       15.6206709022
  O         6.2927529453        3.7833085583        7.9613895350
  O         5.1272105895        2.7854676455        3.6248290781
  O         3.6639091026        5.4927333585       11.0221868350
  O         3.6806135503        2.9264443517       12.9167214963
  O         5.1171498283        0.2432147138        5.4937750211
  O         2.1146834853        0.0876821515        3.6230233405
  O         6.6743620735        3.1019654732       11.0219182917
  O         6.6534967578        5.6497207310       12.9169058797
  O         2.1144044371        2.6282851250        5.4968346646
  H         6.0376825312        3.0456479297        3.3079498755
  H         1.4286639455        0.0583516646       10.6894979656
  H         2.7600102187        2.6675088104       13.2036333516
  H         7.3585526781        5.6721596669        5.8393885864
  H         4.3012846311        5.5588239511        3.3031205726
  H         5.8032097285        2.8103594673       10.6880404345
  H         4.4763831528        0.1959617708       13.2173124839
  H         2.9787246158        2.9311401671        5.8400748728
  H         5.1461131253        3.0020178947        4.5786796621
  H         3.5810666341        5.8577374719       11.9442389097
  H         3.6354917330        2.7222712040       11.9611162563
  H         5.2077210442       -0.1208598076        4.5707343885
  H         2.0840012742       -0.1352601104        4.5748318114
  H         6.7547960502        2.7496777521       11.9466293584
  H         6.7119199592        5.8841518075       11.9703345462
  H         2.0246353881        2.9876478860        4.5728890255
 Ca         1.0592281551        7.1836630978        2.7345752411
 Ca         5.4333521255       10.0321890472        9.5129458151
 Ca         2.5761060615       10.0165304304       13.7277486367
 Ca         3.8801904865        7.1721764132        7.0135642064
  S         5.3885529179       10.0620713292        1.8509589125
  S         1.0425821437        7.1714047740        9.4118824274
  S         3.9217803020        7.1477105732       14.6941711965
  S         2.5939955804       10.0364206316        7.1291063282
  O        -0.6745051392        8.9237649818        2.9163510024
  O         0.6007099338        6.0155730989       10.2571671877
  O         4.3400906287        8.2766704868       13.6364541200
  O         3.0438977367       11.1989594826        6.2969166986
  O         5.8324524889       11.1663524996        2.9253329437
  O         1.4848510908        8.3237114458       10.2619401043
  O        -2.2252433309        6.0565119386       13.6422832248
  O         2.1455421747        8.8752373988        6.2940982428
  O         0.7803959697        9.3966402737        0.8674781232
  O         2.1625773915        6.6580239116        8.5694023650
  O         2.8461413742        7.7984435324       15.5547239234
  O         1.4703415543       10.5558049261        7.9632101017
  O         4.4399439212       10.6764313456        0.7684849016
  O        -0.0817537954        7.6805663777        8.5729050156
  O        -0.8035702444        6.5474256655       15.6993735342
  O         3.7181132327        9.5184024645        7.9631971302
  O         2.5475100040        8.5134306616        3.6254839850
  O         1.0854774716       11.2399337365       11.0216221220
  O         1.1164281760        8.7011695047       12.9151638201
  O         2.5437518144        5.9718986360        5.4974210422
  O        -0.4718795290        5.8227947308        3.6316183485
  O         4.1009280389        8.8448324140       11.0213020544
  O         4.0827183532       11.4107784467       12.9112454176
  O        -0.4583635814        8.3635690848        5.4966015975
  H         3.4558253649        8.7854721773        3.3127184686
  H        -1.1463756129        5.7946106150       10.6946130894
  H         0.2033633727        8.4074951943       13.1900962767
  H         4.7830380593       11.4084720178        5.8406272786
  H         1.7358935655       11.2893010047        3.3164042180
  H         3.2300986056        8.5442315607       10.6942940370
  H         1.8780789289        5.9327648545       13.1844270240
  H         0.4058787515        8.6659381670        5.8413324811
  H         2.5740902573        8.7400106252        4.5758611505
  H         1.0093859010       11.5887200333       11.9466236446
  H         1.0529292292        8.4557148374       11.9716687180
  H         2.6284044605        5.6184743936        4.5719939883
  H        -0.4839801027        5.6008421863        4.5838274794
  H         4.1788209294        8.4801713771       11.9435436614
  H         4.1224487231       11.6168740227       11.9566685123
  H        -0.5451252801        8.7213540179        4.5719562143
 Ca         6.7400928240        7.1836190652        2.7364580354
 Ca        -0.2454965617       10.0313841323        9.5131591374
 Ca        -3.1035648881       10.0093537459       13.7292855404
 Ca        -1.7975660330        7.1711557627        7.0134476822
  S        -0.2328154723       10.0289659014        1.8382310688
  S         6.7216615594        7.1713512158        9.4113023846
  S        -1.8056938329        7.1757821102       14.7131973543
  S        -3.0849998732       10.0363908403        7.1282053646
  O         4.9737954496        8.9359989086        2.9137149471
  O         6.2809012273        6.0164218492       10.2583744881
  O        -1.3876972071        8.3005844938       13.6479097118
  O        -2.6352471811       11.1991589521        6.2959323719
  O         0.1829022597       11.1469351613        2.9135293222
  O         7.1628014511        8.3229855857       10.2629258457
  O         3.4953877375        6.0215469846       13.6385995423
  O        -3.5331907347        8.8752772516        6.2926900867
  O         6.4878697567        9.4027520655        1.0270876058
  O         7.8421809874        6.6589999342        8.5690101161
  O        -2.8038566218        7.7966377670       15.7130335344
  O        -4.2084050840       10.5554783821        7.9624780601
  O        -1.2551639214       10.6649160332        0.8865937444
  O         5.5970650995        7.6795412046        8.5722012454
  O         4.8640786175        6.5357900831       15.7829562124
  O        -1.9606380611        9.5191596010        7.9621517156
  O        -3.1324714690        8.5160722862        3.6242496999
  O        -4.5912903278       11.2383541005       11.0220699286
  O         6.7838330373        8.6861757237       12.9152518404
  O         8.2225784532        5.9729782265        5.4922549809
  O         5.2098115414        5.8189725833        3.6292792381
  O        -1.5804055539        8.8453136615       11.0229265731
  O        -1.5867224987       11.4109055838       12.9113794470
  O         5.2208507314        8.3613682747        5.4938818740
  H        -2.2214692128        8.7812488675        3.3126019023
  H         4.5334096545        5.7942945812       10.6927106598
  H         5.8699118108        8.4052630259       13.1969612935
  H        -0.8939278747       11.4069846585        5.8366955145
  H        -3.9461455985       11.2935691116        3.3163486852
  H        -2.4498130361        8.5443057466       10.6923244421
  H         7.5686129459        5.9336171856       13.1928793528
  H         6.0837192195        8.6669358117        5.8396132653
  H        -3.1054892320        8.7388473823        4.5757877434
  H        -4.6719221798       11.5879408934       11.9470695817
  H         6.7310457719        8.4543762687       11.9683244559
  H         8.3117442850        5.6153673548        4.5685954132
  H         5.1965585282        5.6023351447        4.5831132082
  H        -1.4974404541        8.4814962910       11.9454595550
  H        -1.5578239486       11.6162661426       11.9559752207
  H         5.1298752614        8.7253915800        4.5713336303
     192
 i =       19, E =     -2330.0973091371
 Ca         9.3009150767        1.4392278909        2.7123953970
 Ca         2.3292451041        4.2994856997        9.5059597382
 Ca        -0.5287517296        4.2817972277       13.8221385285
 Ca         0.7761088303        1.4350867455        7.0157921590
  S         2.3223506821        4.3025857464        1.8929877097
  S         9.2949712688        1.4324708194        9.4065326118
  S         0.7755125274        1.4278763465       14.6125565543
  S        -0.5108115657        4.3017847773        7.1310999791
  O         7.5974618318        3.1568372661        2.8958185922
  O         8.8561054872        0.2786360695       10.2540243376
  O         1.2043264697        2.5648418390       13.5879563647
  O        -0.0697594431        5.4553845766        6.2844791908
  O         2.7581029078        5.4470906003        2.9087632968
  O         9.7314203182        2.5877189258       10.2535117773
  O         6.0371428900        0.2888360113       13.6231744387
  O        -0.9516586721        3.1480364969        6.2847930418
  O         9.0277544345        3.6905660923        0.8682861600
  O        10.4214893032        0.9255941130        8.5713342288
  O        -0.2049434468        2.0521813611       15.6191847739
  O        -1.6353911316        4.8197664368        7.9632319254
  O         1.2897916036        4.9202687566        0.9532912619
  O         8.1715509994        1.9378543549        8.5664556659
  O         7.4414895577        0.8390906675       15.6757242801
  O         0.6135745959        3.7838785817        7.9631106650
  O        -0.5502792521        2.7817027380        3.6313370400
  O        -2.0090110614        5.4904891493       11.0336751366
  O         9.3234951465        2.9200553734       12.8924227536
  O        10.7975245383        0.2352573819        5.4989563435
  O         7.7750585864        0.0747832617        3.6336496596
  O         0.9896834433        3.1137635536       11.0269322211
  O         1.0196201504        5.6857268902       12.8829249198
  O         7.7918711322        2.6294659885        5.4968155574
  H         0.3452653434        3.0358178644        3.2683199724
  H         7.1067453962        0.0594697903       10.6886885090
  H         8.4291921348        2.6833223456       13.2688986532
  H         1.6784703780        5.6722131084        5.8380108089
  H        -1.3669271357        5.5683360229        3.2692548192
  H         0.1247149054        2.8097162985       10.6838766640
  H        10.1505731440        0.1825768622       13.2673105004
  H         8.6579741055        2.9303551658        5.8376686640
  H        -0.5724484248        2.9892869744        4.5828357680
  H        -2.0957612610        5.8526586846       11.9538720714
  H         9.3581483076        2.7318251148       11.9382655086
  H        10.8719202913       -0.1129713817        4.5742408175
  H         7.8034691850       -0.1226767663        4.5871501083
  H         1.0753612779        2.7475250273       11.9470469564
  H         0.9703180641        5.8669228038       11.9285084804
  H         7.7202054556        2.9821482345        4.5728952697
 Ca         3.6193549006        1.4388730812        2.7176767403
 Ca         8.0072383765        4.3003338952        9.5066279841
 Ca         5.1543016033        4.2910650913       13.8229811312
 Ca         6.4552796775        1.4347791402        7.0156767891
  S         8.0266956049        4.2959125706        1.8700835575
  S         3.6162890095        1.4325861294        9.4055986135
  S         6.4633874875        1.4362559603       14.6432036954
  S         5.1684864841        4.3016097129        7.1296497468
  O         1.9015942703        3.1555274930        2.9122853615
  O         3.1777411133        0.2787058403       10.2533903157
  O         6.8913856851        2.5751679603       13.6149911632
  O         5.6094138963        5.4553756118        6.2830022911
  O         8.4394243699        5.4421864251        2.8982992552
  O         4.0525564855        2.5879636972       10.2524959181
  O         0.3249732818        0.2823241281       13.6058111183
  O         4.7276786908        3.1479845261        6.2827832803
  O         3.3114377146        3.6973413026        0.8864585395
  O         4.7428180580        0.9268949355        8.5695745269
  O         5.4368802673        2.0603819563       15.5919986934
  O         4.0440666491        4.8191393669        7.9618835385
  O         7.0192770978        4.8999003308        0.8858410161
  O         2.4931161278        1.9365478138        8.5645098169
  O         1.7967462143        0.8013711446       15.5642688242
  O         6.2926631305        3.7838992545        7.9619754211
  O         5.1345548828        2.7877267589        3.6279471751
  O         3.6682785810        5.4909962649       11.0328458061
  O         3.6545069748        2.9210224637       12.8970246705
  O         5.1200347815        0.2375925090        5.4926042702
  O         2.0959922908        0.0770014280        3.6318061450
  O         6.6691954410        3.1137656592       11.0307753646
  O         6.6978856920        5.6876152062       12.8864400162
  O         2.1127003942        2.6291711050        5.4951739545
  H         6.0315420574        3.0360800745        3.2674719744
  H         1.4278018263        0.0596074414       10.6889969766
  H         2.7585442722        2.6791646489       13.2679810689
  H         7.3595212937        5.6713053419        5.8349900650
  H         4.3093781025        5.5684628450        3.2692017274
  H         5.8041909312        2.8089097551       10.6881927542
  H         4.4734546303        0.1841125031       13.2676773911
  H         2.9779082496        2.9315377726        5.8370190339
  H         5.1104832389        2.9900917355        4.5810199391
  H         3.5858209507        5.8502422922       11.9538685125
  H         3.6824218037        2.7322083075       11.9425200119
  H         5.1974686854       -0.1159153610        4.5700687966
  H         2.1245941150       -0.1217730907        4.5853641391
  H         6.7489339160        2.7524696072       11.9522963815
  H         6.6570025234        5.8711731316       11.9320021268
  H         2.0342163658        2.9849641518        4.5728630997
 Ca         1.0355363578        7.1646943218        2.7158932001
 Ca         5.4346789832       10.0389715942        9.5082218031
 Ca         2.6147090997       10.0526604759       13.8280651328
 Ca         3.8815147574        7.1681601019        7.0150142436
  S         5.4271380027       10.0491242891        1.8815683575
  S         1.0409358106        7.1690591314        9.4073860352
  S         3.8902096667        7.1573815672       14.6645216001
  S         2.5944766083       10.0372421631        7.1323927373
  O        -0.6754359877        8.8888816140        2.9085817338
  O         0.6054333148        6.0157147622       10.2572600723
  O         4.3057828269        8.2951314325       13.6250259680
  O         3.0349533491       11.1911306947        6.2861522206
  O         5.8574079625       11.1877193763        2.9058746011
  O         1.4797447720        8.3228869312       10.2544377611
  O        -2.2225171702        6.0295692082       13.6089168735
  O         2.1538678962        8.8838105639        6.2854322757
  O         0.7825735662        9.4112745952        0.9438890234
  O         2.1651277081        6.6640788598        8.5680971962
  O         2.9023989332        7.7667522239       15.6713935849
  O         1.4689746334       10.5545487391        7.9633004826
  O         4.4258253312       10.6679232540        0.8908694171
  O        -0.0854129147        7.6779506531        8.5730536105
  O        -0.7986098073        6.5567993637       15.6100512705
  O         3.7190330213        9.5180102392        7.9637092534
  O         2.5613582706        8.5253602976        3.6339315930
  O         1.0936685198       11.2263129447       11.0314037506
  O         1.0629003358        8.6566017711       12.8805661857
  O         2.5443573285        5.9733221936        5.4968497574
  O        -0.4700398805        5.8215974094        3.6294342275
  O         4.0936467755        8.8479883268       11.0335403715
  O         4.1048685045       11.4171206553       12.8958220215
  O        -0.4610394555        8.3675236950        5.4970234604
  H         3.4566450587        8.7742077989        3.2662004849
  H        -1.1449028404        5.7932886573       10.6868552801
  H         0.1748675623        8.4221100888       13.2753579370
  H         4.7826525097       11.4085263058        5.8398602676
  H         1.7314328127       11.3004489925        3.2648977305
  H         3.2289901765        8.5452935303       10.6882888127
  H         1.9087007474        5.9167989860       13.2775056735
  H         0.4053613697        8.6660620883        5.8386839569
  H         2.5347271696        8.7261357594        4.5867805301
  H         1.0101552262       11.5872236384       11.9527451701
  H         1.1099720932        8.4703281952       11.9276003661
  H         2.6194714888        5.6213157443        4.5732326693
  H        -0.4525665109        5.6135370480        4.5811829892
  H         4.1793378598        8.4864350504       11.9537959191
  H         4.0820488365       11.6068073804       11.9415119997
  H        -0.5355254820        8.7162717732        4.5728828887
 Ca         6.7160695966        7.1654490241        2.7157077784
 Ca        -0.2457496482       10.0397432464        9.5085943172
 Ca        -3.0697991116       10.0462840257       13.8222658463
 Ca        -1.7971398109        7.1679585165        7.0143691582
  S        -0.2416847849       10.0334149953        1.8933486554
  S         6.7201923982        7.1691240686        9.4068989798
  S        -1.8056846804        7.1734505708       14.6358720635
  S        -3.0844812557       10.0372907092        7.1312306036
  O         4.9999360460        8.9022695274        2.9000943403
  O         6.2844943991        6.0157720331       10.2566394748
  O        -1.3672820287        8.3139740478       13.6141191927
  O        -2.6438041497       11.1911538333        6.2847920792
  O         0.1786405307       11.1823030548        2.9115085549
  O         7.1586321343        8.3231548602       10.2539171395
  O         3.4600163274        6.0263931655       13.6247905607
  O        -3.5252665475        8.8839289309        6.2840170760
  O         6.4247192033        9.4469197546        0.8834809131
  O         7.8444175420        6.6648134190        8.5672424665
  O        -2.8153031004        7.7865213284       15.6144807940
  O        -4.2097290805       10.5540311354        7.9625677168
  O        -1.2359010992       10.6433352530        0.8966575543
  O         5.5940052708        7.6766996255        8.5715916952
  O         4.8804888672        6.5415193311       15.6714000313
  O        -1.9600292523        9.5182327464        7.9626244529
  O        -3.1159121902        8.5273954728        3.6320109192
  O        -4.5852401660       11.2256652402       11.0310781910
  O         6.7450712255        8.6518705979       12.8869593241
  O         8.2244782204        5.9755753876        5.4941537427
  O         5.2068667457        5.8199521155        3.6272601520
  O        -1.5844188269        8.8472941184       11.0339222030
  O        -1.5700656168       11.4086904087       12.8998769639
  O         5.2174213055        8.3658672969        5.4943159234
  H        -2.2189989329        8.7719453218        3.2667819732
  H         4.5334653786        5.7934846087       10.6888107018
  H         5.8525037441        8.4174578469       13.2722703742
  H        -0.8932981814       11.4074349872        5.8351783686
  H        -3.9491552362       11.3039492588        3.2676156327
  H        -2.4494618199        8.5449053886       10.6894869709
  H         7.5895212686        5.9206017895       13.2733193239
  H         6.0829099566        8.6669689272        5.8364381989
  H        -3.1435661629        8.7258801159        4.5855136500
  H        -4.6681448557       11.5854770901       11.9527524067
  H         6.7824225655        8.4667421554       11.9328643369
  H         8.3020737223        5.6185481627        4.5721764813
  H         5.2273957361        5.6144023655        4.5798009022
  H        -1.5019700771        8.4888870747       11.9549945434
  H        -1.5939177299       11.6072157291       11.9467051729
  H         5.1399867150        8.7197719713        4.5723714673
     192
 i =       20, E =     -2329.6376997993
 Ca         9.3052491002        1.4411419057        2.7062818713
 Ca         2.3294082982        4.2979833252        9.5034468605
 Ca        -0.5339777690        4.2689053595       13.8511140586
 Ca         0.7764334202        1.4356408122        7.0167999835
  S         2.3080250565        4.3072110306        1.9032237583
  S         9.2952250073        1.4322449337        9.4044623268
  S         0.7680670462        1.4302862920       14.6705592942
  S        -0.5108530135        4.3019258909        7.1322440010
  O         7.5885318168        3.1378235550        2.9147110101
  O         8.8568218521        0.2773628840       10.2501935766
  O         1.1844577826        2.5542337974       13.6178329194
  O        -0.0715881483        5.4531359817        6.2821218665
  O         2.7407703653        5.4606857628        2.9055806224
  O         9.7304533803        2.5885957350       10.2498864788
  O         6.0112226069        0.2927652847       13.6147607773
  O        -0.9496206601        3.1504825281        6.2824568655
  O         9.0503616313        3.6886094730        0.9714952702
  O        10.4226668537        0.9274136691        8.5700120776
  O        -0.1493061835        2.0261531327       15.7880943105
  O        -1.6354669185        4.8198134578        7.9639511815
  O         1.3138149258        4.9060520069        0.8978819780
  O         8.1718536411        1.9361102393        8.5641693954
  O         7.4689715274        0.8333119605       15.5617393152
  O         0.6133960984        3.7836614915        7.9636901654
  O        -0.5465951725        2.7836444377        3.6332491362
  O        -2.0065013558        5.4900137572       11.0377064913
  O         9.3151745127        2.9143137208       12.8851731350
  O        10.7975028887        0.2339786127        5.4997500700
  O         7.7690648185        0.0703948648        3.6372466722
  O         0.9872726852        3.1180188703       11.0283682140
  O         1.0362849776        5.7015534608       12.8724426898
  O         7.7922385877        2.6293832611        5.4957937022
  H         0.3450409474        3.0326422831        3.2562964966
  H         7.1066133477        0.0603342314       10.6878058042
  H         8.4273398751        2.6868401095       13.2886460017
  H         1.6783502605        5.6714776435        5.8375019868
  H        -1.3647243127        5.5714063092        3.2598395146
  H         0.1245897626        2.8090120751       10.6824543023
  H        10.1516686950        0.1787636746       13.2824594310
  H         8.6579517951        2.9311292086        5.8371233737
  H        -0.5828178220        2.9867088515        4.5846568560
  H        -2.0960263294        5.8518427617       11.9570834945
  H         9.3715465147        2.7334225148       11.9302674441
  H        10.8688541541       -0.1124337599        4.5753903988
  H         7.8149553857       -0.1199156182        4.5914223351
  H         1.0749632636        2.7472173690       11.9472075218
  H         0.9543090166        5.8640340466       11.9146250340
  H         7.7231078752        2.9826422493        4.5728679686
 Ca         3.6234756235        1.4415773854        2.7112568818
 Ca         8.0066209473        4.2990393743        9.5043692453
 Ca         5.1518369243        4.2743504057       13.8483855650
 Ca         6.4553338982        1.4357322609        7.0165403362
  S         8.0228687455        4.2974597238        1.9262442403
  S         3.6164876111        1.4324272113        9.4035983667
  S         6.4359004666        1.4463380982       14.6251243584
  S         5.1683923835        4.3017087877        7.1307165654
  O         1.8890955759        3.1522576200        2.9101960183
  O         3.1781390239        0.2774225096       10.2494111720
  O         6.8728298278        2.5892396172       13.6092102387
  O         5.6075073322        5.4532117971        6.2807522209
  O         8.4404900192        5.4638071200        2.9180529087
  O         4.0517543572        2.5891002238       10.2485622894
  O         0.3232624372        0.2997762852       13.6362177559
  O         4.7295907358        3.1504494656        6.2803178250
  O         3.3213970447        3.6983188624        0.9385876248
  O         4.7438169855        0.9285942420        8.5682115728
  O         5.4746456150        2.0416912294       15.6844534841
  O         4.0440682439        4.8191938136        7.9626755822
  O         7.0086775428        4.8966970789        0.9556175056
  O         2.4937052206        1.9352035068        8.5620012054
  O         1.7648829795        0.8150008586       15.6660333321
  O         6.2924923802        3.7837463683        7.9624807383
  O         5.1383431815        2.7899077389        3.6291327415
  O         3.6700682299        5.4908924535       11.0374191463
  O         3.6481516123        2.9182276324       12.8899491029
  O         5.1205477414        0.2358613342        5.4927539290
  O         2.0898862520        0.0727274640        3.6348922183
  O         6.6672220701        3.1170020454       11.0340398665
  O         6.7095396052        5.6995534211       12.8771364422
  O         2.1123540562        2.6297742161        5.4952826234
  H         6.0313024110        3.0339411228        3.2560984596
  H         1.4277039718        0.0605168898       10.6887203477
  H         2.7585336283        2.6822891913       13.2856694037
  H         7.3598304925        5.6706605414        5.8343393652
  H         4.3119630290        5.5707270923        3.2595340298
  H         5.8045264852        2.8081317557       10.6876880132
  H         4.4751898708        0.1807920273       13.2816297056
  H         2.9778089390        2.9322208082        5.8364371301
  H         5.1012597731        2.9880072403        4.5820178614
  H         3.5868929122        5.8489528195       11.9576525021
  H         3.6952019215        2.7336072478       11.9356959753
  H         5.1942422731       -0.1155914499        4.5706653349
  H         2.1355831857       -0.1191760243        4.5890097000
  H         6.7475476958        2.7525394283       11.9542514187
  H         6.6426448187        5.8690841968       11.9202926551
  H         2.0374065728        2.9852108999        4.5737063908
 Ca         1.0299013745        7.1586660539        2.7119466951
 Ca         5.4346575165       10.0405509871        9.5070780977
 Ca         2.6254188852       10.0619773245       13.8547964106
 Ca         3.8818190949        7.1671549555        7.0139738687
  S         5.4482811883       10.0422610353        1.8678643090
  S         1.0403764763        7.1685178957        9.4049968868
  S         3.8739080594        7.1626287285       14.5852155783
  S         2.5946811513       10.0374836861        7.1337439884
  O        -0.6651293349        8.8802035335        2.9007239598
  O         0.6067812093        6.0159126681       10.2563239333
  O         4.2986357377        8.3223731667       13.5882324679
  O         3.0325233447       11.1883025571        6.2826647467
  O         5.8703134824       11.1833575976        2.8922905875
  O         1.4782660481        8.3227590855       10.2512896876
  O        -2.2142988956        6.0206351507       13.6028221186
  O         2.1561922646        8.8867671030        6.2827318335
  O         0.7649932606        9.4224191408        0.9063346862
  O         2.1654602138        6.6661135951        8.5661390590
  O         2.8890122396        7.7658704512       15.5938573946
  O         1.4688536056       10.5544898699        7.9638259700
  O         4.4226045171       10.6674693272        0.9194706980
  O        -0.0867696909        7.6769529198        8.5721073792
  O        -0.8079432093        6.5648399238       15.6217468632
  O         3.7191894422        9.5177848476        7.9644124770
  O         2.5647974372        8.5295122394        3.6372739777
  O         1.0963997129       11.2221150031       11.0346639976
  O         1.0482881032        8.6425147254       12.8706211743
  O         2.5441602507        5.9733299207        5.4970095315
  O        -0.4703389234        5.8200704671        3.6296482053
  O         4.0908957886        8.8482893985       11.0393412294
  O         4.1112384261       11.4205855326       12.8904121368
  O        -0.4614631525        8.3688135174        5.4977103912
  H         3.4566371571        8.7712914186        3.2533248340
  H        -1.1445738110        5.7933615671       10.6844254483
  H         0.1663790515        8.4260306125       13.2977286530
  H         4.7822249284       11.4078933302        5.8400572800
  H         1.7297099755       11.3034696012        3.2508358639
  H         3.2289196224        8.5452880894       10.6859713479
  H         1.9183977014        5.9125238081       13.3023971186
  H         0.4054660309        8.6667414074        5.8382204880
  H         2.5239509157        8.7233829888        4.5908086165
  H         1.0105593415       11.5875117388       11.9544975358
  H         1.1244561232        8.4728425275       11.9146426733
  H         2.6167531243        5.6211443038        4.5741540808
  H        -0.4441219318        5.6160428923        4.5812464708
  H         4.1799661251        8.4870685298       11.9583152366
  H         4.0711287562       11.6053739900       11.9359709267
  H        -0.5324496155        8.7158980267        4.5739652860
 Ca         6.7084469568        7.1663684569        2.7113674915
 Ca        -0.2457512020       10.0420133417        9.5075381600
 Ca        -3.0624037778       10.0601272929       13.8476078268
 Ca        -1.7972239536        7.1671870276        7.0136109115
  S        -0.2358360253       10.0321554614        1.8956177365
  S         6.7197104656        7.1686539541        9.4045178699
  S        -1.7989018967        7.1704030309       14.6199600320
  S        -3.0842480985       10.0375350851        7.1323377407
  O         5.0210071223        8.8957437470        2.8863238537
  O         6.2857262303        6.0156691379       10.2550938353
  O        -1.3567106932        8.3145050290       13.6074939875
  O        -2.6459440488       11.1882277765        6.2810764996
  O         0.1824593649       11.1857709010        2.9062865920
  O         7.1574827474        8.3232940267       10.2503729552
  O         3.4327070297        6.0113162121       13.5865347555
  O        -3.5231947194        8.8868201490        6.2812937273
  O         6.3784574288        9.4698232819        0.7543339709
  O         7.8446803124        6.6667746584        8.5651711626
  O        -2.8238608076        7.7852461607       15.5726302974
  O        -4.2097368144       10.5541830266        7.9628933553
  O        -1.2312281092       10.6385963050        0.9017873041
  O         5.5928786532        7.6756066983        8.5703147568
  O         4.9332303019        6.5265079694       15.4714000313
  O        -1.9600116844        9.5177174253        7.9631882451
  O        -3.1119162750        8.5309318784        3.6347786026
  O        -4.5834426204       11.2211679072       11.0318232215
  O         6.7344099555        8.6408830692       12.8785026289
  O         8.2245361359        5.9752604897        5.4932136784
  O         5.2064321668        5.8194261388        3.6279006947
  O        -1.5858756452        8.8480323816       11.0370174096
  O        -1.5628466428       11.4099019599       12.8965480127
  O         5.2166154264        8.3671571355        5.4953149370
  H        -2.2187612059        8.7695897042        3.2542047451
  H         4.5333162534        5.7935759715       10.6871653569
  H         5.8476041768        8.4202898299       13.2923434671
  H        -0.8932862490       11.4070006869        5.8351509261
  H        -3.9510800412       11.3067187638        3.2540101990
  H        -2.4493547129        8.5446164971       10.6884442719
  H         7.5952399820        5.9171841530       13.2949400879
  H         6.0828359249        8.6675958924        5.8357673304
  H        -3.1537988659        8.7233535885        4.5887049543
  H        -4.6665789138       11.5852969908       11.9524641625
  H         6.7955157304        8.4686206299       11.9221861238
  H         8.2995001705        5.6183613584        4.5721931267
  H         5.2358407640        5.6166116965        4.5800807575
  H        -1.5033704644        8.4901587492       11.9573376230
  H        -1.6031219587       11.6059440320       11.9438977218
  H         5.1431536162        8.7191948468        4.5737950105
     192
 i =       21, E =     -2330.0153945176
 Ca         9.2916711600        1.4261539967        2.7260315142
 Ca         2.3302023971        4.3028713941        9.5107526103
 Ca        -0.5127133251        4.3007927777       13.7792877876
 Ca         0.7759691868        1.4333844594        7.0059599026
  S         2.3130663782        4.3062078716        1.8625260807
  S         9.2958040807        1.4326847315        9.4011173846
  S         0.7916163550        1.4218773227       14.6484474645
  S        -0.5107639432        4.3016587410        7.1330201614
  O         7.5910784414        3.1600238817        2.9210150347
  O         8.8556641789        0.2793625520       10.2500087088
  O         1.2124348459        2.5484763450       13.5994264600
  O        -0.0668189307        5.4549224573        6.2865393922
  O         2.7435958988        5.4349046732        2.9094185664
  O         9.7319103538        2.5868591703       10.2510817365
  O         6.0450152361        0.2877834164       13.6225582183
  O        -0.9549533543        3.1483080329        6.2869329393
  O         9.0532801668        3.6782846997        0.9376009420
  O        10.4224163145        0.9264673934        8.5653501700
  O        -0.2253331977        2.0643644132       15.5938872230
  O        -1.6342589585        4.8222013955        7.9654170546
  O         1.3119091545        4.9201234048        0.8712389130
  O         8.1746867862        1.9386658470        8.5580025810
  O         7.4430169871        0.8369514883       15.6924722489
  O         0.6125620502        3.7812925977        7.9654994183
  O        -0.5479698832        2.7893074448        3.6362148744
  O        -2.0104785961        5.4922701236       11.0292752659
  O         9.3299910241        2.9132173585       12.8922785975
  O        10.7935581041        0.2343553055        5.5005269268
  O         7.7809174633        0.0758756496        3.6347245931
  O         0.9902878002        3.1107858818       11.0250730235
  O         0.9990909576        5.6738141383       12.8931792698
  O         7.7951879710        2.6340497496        5.4962501649
  H         0.3524186459        3.0409625261        3.2828541584
  H         7.1063688874        0.0620963222       10.6870664559
  H         8.4256101393        2.6763842165       13.2413573744
  H         1.6769974620        5.6689131544        5.8419969719
  H        -1.3748564649        5.5634096193        3.2809388166
  H         0.1256253871        2.8074855930       10.6817713930
  H        10.1531844917        0.1891218519       13.2448209957
  H         8.6596537938        2.9332804266        5.8425491143
  H        -0.5575622372        3.0011486585        4.5880984244
  H        -2.0945611456        5.8603456585       11.9477360580
  H         9.3348653233        2.7175851464       11.9374889296
  H        10.8733214350       -0.1207477452        4.5774605342
  H         7.7852897975       -0.1352714389        4.5864895271
  H         1.0755440695        2.7415311262       11.9431661152
  H         1.0002583167        5.8815556592       11.9419770104
  H         7.7177248917        2.9889695511        4.5735532273
 Ca         3.6128916058        1.4340489331        2.7307987002
 Ca         8.0075486386        4.3027439987        9.5113934956
 Ca         5.1707354448        4.3068975218       13.7828345963
 Ca         6.4556182347        1.4331152914        7.0055149801
  S         8.0256455689        4.2961372017        1.8916638485
  S         3.6172035210        1.4331076889        9.4003389767
  S         6.4705263779        1.4334803612       14.6494213040
  S         5.1685800610        4.3014493713        7.1315612739
  O         1.8982311403        3.1738407006        2.9122848772
  O         3.1772668487        0.2800242375       10.2499233227
  O         6.8952668301        2.5724759949       13.6160316605
  O         5.6124343303        5.4551810069        6.2854604353
  O         8.4395190271        5.4417367660        2.9224832010
  O         4.0532894832        2.5875391931       10.2499229034
  O         0.3574802214        0.2789813360       13.6238117313
  O         4.7244457875        3.1476813928        6.2856378121
  O         3.3157162467        3.6956398042        0.8771402957
  O         4.7434963160        0.9270227599        8.5638978669
  O         5.4179551848        2.0715982720       15.5523769276
  O         4.0452101655        4.8214830445        7.9640091422
  O         7.0050033067        4.9069403369        0.9329115579
  O         2.4968539573        1.9391678458        8.5563512016
  O         1.7712891722        0.8021520829       15.6698730191
  O         6.2918726090        3.7815316162        7.9642538450
  O         5.1369731885        2.7952276813        3.6307173883
  O         3.6689213648        5.4917113645       11.0301860243
  O         3.6599183667        2.9136879502       12.8958279349
  O         5.1168110342        0.2376640156        5.4940594884
  O         2.1007014655        0.0760032944        3.6332311210
  O         6.6689602185        3.1083587034       11.0287771271
  O         6.6821190039        5.6783583649       12.8923747647
  O         2.1152696478        2.6320021170        5.4965571575
  H         6.0389309589        3.0418607804        3.2816858230
  H         1.4277649715        0.0619393617       10.6864797089
  H         2.7548633217        2.6728711504       13.2426242048
  H         7.3585260884        5.6683514557        5.8393667977
  H         4.3015427123        5.5628531378        3.2806000515
  H         5.8039958917        2.8066721510       10.6852667290
  H         4.4763292924        0.1891293849       13.2478821050
  H         2.9791765984        2.9349428392        5.8408241509
  H         5.1265644828        3.0021673123        4.5841121900
  H         3.5842790333        5.8571950597       11.9494038177
  H         3.6618765946        2.7190096197       11.9407500632
  H         5.1994526497       -0.1246755823        4.5735399258
  H         2.1075795477       -0.1342188824        4.5856523201
  H         6.7505407502        2.7473537674       11.9493901345
  H         6.6831537089        5.8850964352       11.9407153413
  H         2.0323909842        2.9926814112        4.5757731760
 Ca         1.0458667583        7.1732010780        2.7281187725
 Ca         5.4341621590       10.0354085009        9.5113409211
 Ca         2.5941426967       10.0367405679       13.7840633232
 Ca         3.8808322762        7.1699936047        7.0067543749
  S         5.4231613383       10.0526696874        1.8662145897
  S         1.0405835818        7.1707625489        9.4014404485
  S         3.8830404205        7.1572613025       14.6233262949
  S         2.5943077039       10.0370067808        7.1340968385
  O        -0.6614592435        8.8988288752        2.9154170613
  O         0.6040764494        6.0167272994       10.2508391774
  O         4.3006747922        8.3089054127       13.6030979265
  O         3.0386418283       11.1905423410        6.2883379566
  O         5.8556142728       11.1761771633        2.9157101166
  O         1.4813916809        8.3236596452       10.2502395729
  O        -2.2106686617        6.0395215632       13.6344643304
  O         2.1502887924        8.8838249999        6.2875499639
  O         0.7700507351        9.4111565078        0.8859374803
  O         2.1613967207        6.6643768665        8.5580041768
  O         2.8948376300        7.7642914720       15.6282362298
  O         1.4708792076       10.5574297705        7.9664473761
  O         4.4268720282       10.6764108723        0.8691474723
  O        -0.0864621357        7.6767447044        8.5659411562
  O        -0.8159650941        6.5680379383       15.7102561579
  O         3.7176821951        9.5164967481        7.9665735950
  O         2.5568434366        8.5257347932        3.6362103237
  O         1.0933579575       11.2307466872       11.0301709330
  O         1.0830860607        8.6660866640       12.8904315569
  O         2.5416986475        5.9698518595        5.4978777201
  O        -0.4745706105        5.8138397038        3.6352988498
  O         4.0942200062        8.8463739098       11.0310202872
  O         4.0998806992       11.4237458697       12.8928105120
  O        -0.4572443558        8.3684089949        5.4980754147
  H         3.4571111677        8.7797625510        3.2844250860
  H        -1.1457716125        5.7966801221       10.6877204379
  H         0.1825053831        8.4162200683       13.2373395300
  H         4.7806593743       11.4044977978        5.8435805804
  H         1.7314421923       11.2956492732        3.2855254468
  H         3.2298189586        8.5420640430       10.6884797393
  H         1.9009372632        5.9217671355       13.2365568911
  H         0.4071551260        8.6700515482        5.8422225143
  H         2.5513010944        8.7387238153        4.5877165568
  H         1.0100805957       11.5924239945       11.9502275657
  H         1.0823766041        8.4562356457       11.9395874199
  H         2.6206562355        5.6139387882        4.5754279985
  H        -0.4654364132        5.6019910777        4.5873231621
  H         4.1787039381        8.4782916043       11.9491422838
  H         4.1000973719       11.6195630042       11.9379072964
  H        -0.5369853692        8.7248322229        4.5756993402
 Ca         6.7250141445        7.1757901755        2.7296759574
 Ca        -0.2456498145       10.0360694405        9.5121097595
 Ca        -3.0873196646       10.0284270991       13.7832446520
 Ca        -1.7976113235        7.1698505840        7.0066051889
  S        -0.2308670639       10.0304828429        1.8746342703
  S         6.7199374906        7.1705677196        9.4009086903
  S        -1.7984402247        7.1717032282       14.6876799163
  S        -3.0845265987       10.0369650500        7.1327970427
  O         5.0034628379        8.9156652412        2.9076300439
  O         6.2837957208        6.0167578014       10.2507632553
  O        -1.3729429463        8.3042409386       13.6406499707
  O        -2.6400486838       11.1906748961        6.2871193521
  O         0.1852476870       11.1668541515        2.9180954263
  O         7.1598064583        8.3237855105       10.2497802946
  O         3.4445987480        6.0165560012       13.6002592016
  O        -3.5289059246        8.8835419798        6.2864587140
  O         6.4220085068        9.4435552116        0.8742256230
  O         7.8410899078        6.6644097916        8.5578205354
  O        -2.8072168790        7.7851817854       15.6713925928
  O        -4.2077414826       10.5570623779        7.9654001396
  O        -1.2446585938       10.6544964066        0.9137911406
  O         5.5933100948        7.6753522432        8.5641832847
  O         4.9208810793        6.5228597105       15.5458370938
  O        -1.9612453899        9.5167462166        7.9654017510
  O        -3.1209465791        8.5271050082        3.6331188058
  O        -4.5851698204       11.2300564839       11.0294914418
  O         6.7598371928        8.6594550961       12.8922959222
  O         8.2219587687        5.9713099019        5.4934553198
  O         5.2025548557        5.8129833909        3.6321871161
  O        -1.5851860473        8.8468385112       11.0307095317
  O        -1.5749951150       11.4161828939       12.8972808663
  O         5.2206555154        8.3661419750        5.4954825587
  H        -2.2185823504        8.7769065077        3.2845279866
  H         4.5332769264        5.7964253927       10.6879394259
  H         5.8584480050        8.4106931452       13.2400410721
  H        -0.8943529945       11.4037475498        5.8387407440
  H        -3.9504506242       11.2993128708        3.2858371970
  H        -2.4495329969        8.5417544866       10.6885775433
  H         7.5836798054        5.9266949591       13.2391801599
  H         6.0841029450        8.6708296607        5.8397288912
  H        -3.1269558877        8.7380811124        4.5854281423
  H        -4.6693802819       11.5906803529       11.9501220825
  H         6.7581522753        8.4530412273       11.9404842390
  H         8.3044329669        5.6112900032        4.5728540352
  H         5.2140843269        5.6028146958        4.5850030645
  H        -1.5008170475        8.4813439974       11.9501425481
  H        -1.5766043808       11.6195058804       11.9435535138
  H         5.1378969659        8.7286422231        4.5755426579
     192
 i =       22, E =     -2329.8990255248
 Ca         9.2826214644        1.4232840006        2.7395105237
 Ca         2.3306307923        4.3057876672        9.5154512835
 Ca        -0.4972510796        4.3141757262       13.7314590973
 Ca         0.7757055580        1.4320741047        6.9990253889
  S         2.3180343832        4.3050904845        1.8562225936
  S         9.2962694838        1.4330510711        9.3987279362
  S         0.7893011991        1.4225072024       14.6406965122
  S        -0.5107311627        4.3014456301        7.1336289305
  O         7.5972864750        3.1877498427        2.9022391729
  O         8.8548155690        0.2807101191       10.2496084733
  O         1.2138625861        2.5490726512       13.5915500959
  O        -0.0638212314        5.4561407606        6.2896000086
  O         2.7500122991        5.4230670905        2.9215610615
  O         9.7329002078        2.5856830950       10.2518708500
  O         6.0269433631        0.3050591825       13.6310674140
  O        -0.9583935276        3.1468054751        6.2899639127
  O         9.0302882152        3.6790388875        0.8283463335
  O        10.4222705922        0.9257677553        8.5621175317
  O        -0.2494893120        2.0806571917       15.5473850015
  O        -1.6335252231        4.8236395671        7.9664722952
  O         1.2965396710        4.9340012927        0.9014862295
  O         8.1769856582        1.9405860569        8.5534118600
  O         7.4743260989        0.8204234835       15.6275099695
  O         0.6120950349        3.7799563220        7.9667753525
  O        -0.5493302659        2.7928781502        3.6379958246
  O        -2.0127822092        5.4941470928       11.0251544930
  O         9.3428543224        2.9138553945       12.8963864984
  O        10.7907068566        0.2340571570        5.5003558040
  O         7.7886575695        0.0783824710        3.6335640416
  O         0.9922184476        3.1064352008       11.0229149374
  O         0.9737522373        5.6561528113       12.9057924238
  O         7.7968603606        2.6366271170        5.4982101600
  H         0.3568091493        3.0464499842        3.3006324619
  H         7.1061997393        0.0633910002       10.6866970271
  H         8.4273898259        2.6695745731       13.2099151648
  H         1.6760495956        5.6671344825        5.8450647195
  H        -1.3811398432        5.5582095747        3.2950961461
  H         0.1263722019        2.8064307169       10.6814062000
  H        10.1548861300        0.1958668960       13.2200869307
  H         8.6609153926        2.9349161891        5.8458429644
  H        -0.5408087686        3.0108090383        4.5900320168
  H        -2.0938053752        5.8660850048       11.9428353205
  H         9.3107724517        2.7069916634       11.9420522609
  H        10.8762688825       -0.1264252925        4.5782077436
  H         7.7660697104       -0.1455868620        4.5840097865
  H         1.0758431283        2.7375633898       11.9404018695
  H         1.0296318357        5.8931300510       11.9587565271
  H         7.7147898495        2.9932282297        4.5754986236
 Ca         3.6068115141        1.4268194525        2.7446115866
 Ca         8.0082533993        4.3049773473        9.5156928523
 Ca         5.1837941812        4.3261216309       13.7386664882
 Ca         6.4556436378        1.4315030534        6.9984509594
  S         8.0246023007        4.2960273622        1.8211327614
  S         3.6178496733        1.4336288740        9.3979268529
  S         6.4454393965        1.4419887533       14.6788603112
  S         5.1686931557        4.3013263908        7.1321448840
  O         1.9030843622        3.1816199077        2.9228246056
  O         3.1767213305        0.2817363824       10.2498873053
  O         6.8662165178        2.5744032334       13.6295845885
  O         5.6156553820        5.4565281755        6.2885674474
  O         8.4300442556        5.4155164780        2.9018302008
  O         4.0543894195        2.5864841665       10.2507344481
  O         0.3641796860        0.2739734786       13.6172139292
  O         4.7211520620        3.1458998982        6.2891297923
  O         3.3215172655        3.6913230095        0.8710628982
  O         4.7434329783        0.9260890706        8.5607756010
  O         5.4456022397        2.0668934137       15.6723547399
  O         4.0458926217        4.8228740485        7.9649303038
  O         7.0316356244        4.9036902636        0.8137376077
  O         2.4994085492        1.9420232411        8.5520911877
  O         1.7928928907        0.7864147125       15.6191240733
  O         6.2914535689        3.7801073467        7.9654233269
  O         5.1356445630        2.7987199089        3.6319712145
  O         3.6679970830        5.4921248380       11.0247024192
  O         3.6688155140        2.9112889265       12.8989239710
  O         5.1143813431        0.2387391902        5.4951691982
  O         2.1072384302        0.0774799684        3.6320244938
  O         6.6699077869        3.1032620953       11.0253533958
  O         6.6656868469        5.6655044359       12.9021231417
  O         2.1174652354        2.6337054395        5.4968232596
  H         6.0437938206        3.0469511518        3.2984440611
  H         1.4276890197        0.0629799126       10.6851163243
  H         2.7538099320        2.6666035523       13.2146418408
  H         7.3574890350        5.6666353395        5.8425734272
  H         4.2948525081        5.5576507341        3.2946824198
  H         5.8036266645        2.8056279059       10.6837270634
  H         4.4798087854        0.1943751545       13.2260314478
  H         2.9801551571        2.9368144486        5.8439037645
  H         5.1429358536        3.0116052356        4.5857280604
  H         3.5827661553        5.8625795554       11.9433547606
  H         3.6402205175        2.7093451126       11.9434527198
  H         5.2027458848       -0.1307747373        4.5756689078
  H         2.0891349171       -0.1442351203        4.5833701262
  H         6.7526006649        2.7436895926       11.9461088455
  H         6.7094535067        5.8956122168       11.9537707396
  H         2.0290088583        2.9978616968        4.5766749310
 Ca         1.0557328852        7.1839841731        2.7393753417
 Ca         5.4339613211       10.0323107203        9.5141048908
 Ca         2.5760333435       10.0166104419       13.7389591136
 Ca         3.8802322628        7.1717141876        7.0022339941
  S         5.4096676117       10.0584612690        1.9017893427
  S         1.0405477137        7.1721531180        9.3989213730
  S         3.9080524456        7.1472071877       14.6880349175
  S         2.5941143342       10.0366755191        7.1343299210
  O        -0.6633397632        8.9155690819        2.9203940973
  O         0.6023840154        6.0172429194       10.2473024903
  O         4.3137206086        8.2824791393       13.6303052514
  O         3.0425627627       11.1919970531        6.2919933371
  O         5.8535136915       11.1807514112        2.9481705801
  O         1.4834356225        8.3242508878       10.2492383986
  O        -2.2256718357        6.0393259825       13.6267620088
  O         2.1465266622        8.8818258838        6.2907369631
  O         0.7747570674        9.4021616004        0.8752023387
  O         2.1582086792        6.6628592423        8.5522328999
  O         2.8959211408        7.7659961504       15.6546185383
  O         1.4722053211       10.5593781006        7.9680555790
  O         4.4046510427       10.6907455064        0.9216923497
  O        -0.0864122369        7.6766358529        8.5617668347
  O        -0.7773709576        6.5553104352       15.6155280835
  O         3.7167880290        9.5157153174        7.9679780100
  O         2.5518330681        8.5237886947        3.6356130914
  O         1.0913645405       11.2358068729       11.0267167460
  O         1.1057567857        8.6811894273       12.9030128167
  O         2.5398711964        5.9673127886        5.4979407230
  O        -0.4766432263        5.8096151039        3.6392780548
  O         4.0966278795        8.8455349419       11.0244156548
  O         4.0931388064       11.4260112644       12.8944822391
  O        -0.4545024745        8.3682683230        5.4987521978
  H         3.4575377254        8.7854532168        3.3048088909
  H        -1.1466404259        5.7988063161       10.6895661631
  H         0.1932587985        8.4097141762       13.1984313201
  H         4.7795115851       11.4022089228        5.8461243305
  H         1.7323336695       11.2904055067        3.3080278263
  H         3.2303821248        8.5398695030       10.6901624042
  H         1.8886646598        5.9276666951       13.1943057788
  H         0.4083584400        8.6723245324        5.8449076057
  H         2.5692721183        8.7489846570        4.5858020984
  H         1.0102100900       11.5957892134       11.9468664197
  H         1.0549679010        8.4451903770       11.9555230543
  H         2.6231844685        5.6089236769        4.5758551611
  H        -0.4793814205        5.5925176810        4.5915889721
  H         4.1774820759        8.4725364655       11.9420942742
  H         4.1191802801       11.6291318924       11.9392771839
  H        -0.5397301052        8.7308027743        4.5772249265
 Ca         6.7361541883        7.1753462744        2.7424487989
 Ca        -0.2458410085       10.0322976598        9.5149033158
 Ca        -3.1020413801       10.0111421039       13.7408369724
 Ca        -1.7977738429        7.1714833291        7.0018352524
  S        -0.2334955213       10.0314339875        1.8510874347
  S         6.7199702941        7.1716556784        9.3983327646
  S        -1.8076213793        7.1760602479       14.6726306523
  S        -3.0846972816       10.0366346560        7.1332131529
  O         4.9896124496        8.9176759934        2.9387402200
  O         6.2824882800        6.0174488456       10.2480033997
  O        -1.3836328499        8.3164227742       13.6338179536
  O        -2.6363669789       11.1923317043        6.2910982773
  O         0.1808738924       11.1542918189        2.9200888663
  O         7.1612656693        8.3240920927       10.2490024677
  O         3.4754474840        6.0239570247       13.6294531733
  O        -3.5324210577        8.8813831985        6.2899282995
  O         6.4685407406        9.4207723586        1.0160769032
  O         7.8383456808        6.6625345735        8.5525493796
  O        -2.8186738329        7.7921283974       15.6526872333
  O        -4.2065653641       10.5587187832        7.9671046860
  O        -1.2409608771       10.6608315081        0.8801982765
  O         5.5935836291        7.6753528275        8.5600460007
  O         4.8672754947        6.5360214821       15.7458370938
  O        -1.9619782534        9.5161809934        7.9668775141
  O        -3.1260613144        8.5257476400        3.6323591034
  O        -4.5863153718       11.2353716838       11.0278142557
  O         6.7750464812        8.6701931216       12.9008422088
  O         8.2203858609        5.9692745717        5.4951656127
  O         5.2000795225        5.8088999357        3.6347022084
  O        -1.5850653227        8.8453188583       11.0285531287
  O        -1.5799810493       11.4213278363       12.8985003543
  O         5.2236351338        8.3661011441        5.4944379279
  H        -2.2175813447        8.7817738032        3.3041011775
  H         4.5332752890        5.7983522275       10.6884453398
  H         5.8640134098        8.4046175915       13.2065376125
  H        -0.8950934686       11.4015380878        5.8411779487
  H        -3.9504179862       11.2943470220        3.3066321421
  H        -2.4494789239        8.5399439237       10.6882794287
  H         7.5770698649        5.9328898447       13.2035205630
  H         6.0849682399        8.6729702956        5.8426648308
  H        -3.1095362041        8.7479492517        4.5838485100
  H        -4.6709402694       11.5943577285       11.9483347989
  H         6.7341303618        8.4427307331       11.9516917185
  H         8.3073293653        5.6065460645        4.5746925831
  H         5.1995994672        5.5936236841        4.5877829852
  H        -1.4987726870        8.4753564569       11.9471425403
  H        -1.5591808195       11.6284498830       11.9440428155
  H         5.1342070849        8.7351255961        4.5756870224
     192
 i =       23, E =     -2330.1739348338
 Ca         9.2971636223        1.4349263643        2.7347176693
 Ca         2.3300779870        4.3013571348        9.5096475819
 Ca        -0.5205916713        4.2881134573       13.7752607460
 Ca         0.7765494648        1.4344751983        7.0045444936
  S         2.3031207887        4.3108528154        1.8783489930
  S         9.2971792705        1.4330632395        9.3953388380
  S         0.7810660454        1.4246982532       14.6478630268
  S        -0.5108300188        4.3016815428        7.1353541444
  O         7.5924244647        3.1612104666        2.9141526160
  O         8.8552658825        0.2789849504       10.2430824186
  O         1.2007992443        2.5522263427       13.5985670212
  O        -0.0677155922        5.4546739760        6.2880759277
  O         2.7345245138        5.4471071566        2.9133682506
  O         9.7316490702        2.5865280527       10.2475479692
  O         6.0345274500        0.2963141228       13.6261252936
  O        -0.9539308820        3.1485819219        6.2883768506
  O         9.0393807142        3.6854918889        0.9048113240
  O        10.4238235487        0.9274981992        8.5598092471
  O        -0.2147616469        2.0595093257       15.6287119939
  O        -1.6344999306        4.8218537926        7.9674454713
  O         1.3149363469        4.9211212542        0.8655279355
  O         8.1808193571        1.9409904516        8.5476717980
  O         7.4556881358        0.8378690425       15.6585558131
  O         0.6126670726        3.7818591685        7.9675591979
  O        -0.5491902310        2.7950159725        3.6398361989
  O        -2.0087826293        5.4933596039       11.0321296678
  O         9.3313315323        2.9105976569       12.8867537545
  O        10.7907630744        0.2305589429        5.5024377008
  O         7.7792956971        0.0664767815        3.6400576509
  O         0.9889278105        3.1127561265       11.0269008149
  O         1.0047828288        5.6812216274       12.8839689215
  O         7.7974633237        2.6361344724        5.4987137854
  H         0.3522967588        3.0413434458        3.2853737953
  H         7.1059169441        0.0644886454       10.6858475615
  H         8.4274143711        2.6760314523       13.2412790189
  H         1.6750949602        5.6658923367        5.8443534463
  H        -1.3740133071        5.5632540539        3.2842445881
  H         0.1266365547        2.8056376512       10.6804774270
  H        10.1515998333        0.1890721304       13.2431198346
  H         8.6616086357        2.9364304544        5.8444583270
  H        -0.5562091267        3.0071271053        4.5911786092
  H        -2.0937545906        5.8635691363       11.9489774343
  H         9.3337059291        2.7110113981       11.9331870982
  H        10.8705444612       -0.1250192448        4.5800912989
  H         7.7863507777       -0.1407744753        4.5925524715
  H         1.0743130543        2.7366256023       11.9423895903
  H         0.9957007690        5.8855253566       11.9321431671
  H         7.7205229052        2.9937980800        4.5769435173
 Ca         3.6181186040        1.4342587182        2.7399178754
 Ca         8.0076471854        4.3014964293        9.5105288399
 Ca         5.1632160764        4.2975676580       13.7792196517
 Ca         6.4561497013        1.4342881191        7.0043701517
  S         8.0224642960        4.2954279527        1.8780762737
  S         3.6189156799        1.4337983429        9.3947091161
  S         6.4560836216        1.4400839566       14.6600453488
  S         5.1685505820        4.3015329766        7.1336064973
  O         1.8902700242        3.1679707504        2.9146126717
  O         3.1771250159        0.2804960045       10.2437690457
  O         6.8802747047        2.5758637130       13.6201036769
  O         5.6115886186        5.4546812906        6.2862418059
  O         8.4350874112        5.4387263917        2.9145772338
  O         4.0538428661        2.5879735378       10.2456914687
  O         0.3457203866        0.2847424973       13.6184203307
  O         4.7254372548        3.1483286023        6.2863986926
  O         3.3400300571        3.6946452354        0.9483975828
  O         4.7448337281        0.9272604070        8.5586096742
  O         5.4442888191        2.0604484139       15.6331899193
  O         4.0451676068        4.8215189521        7.9658242954
  O         7.0102149220        4.8960015015        0.9020793088
  O         2.5031156037        1.9414423847        8.5462536713
  O         1.7803490387        0.7971589566       15.6359117511
  O         6.2919338053        3.7818117986        7.9660161737
  O         5.1346462532        2.7978659843        3.6320123660
  O         3.6696472944        5.4930801413       11.0296344115
  O         3.6610866611        2.9116322181       12.8895198301
  O         5.1150173489        0.2347330346        5.4953186929
  O         2.0994379935        0.0671797692        3.6368911923
  O         6.6674284008        3.1103332158       11.0296103567
  O         6.6884405450        5.6845554404       12.8846958548
  O         2.1179119493        2.6341448778        5.4973370940
  H         6.0376560083        3.0425463970        3.2828649830
  H         1.4268767077        0.0641747479       10.6858551935
  H         2.7573025519        2.6720363460       13.2421013851
  H         7.3570886226        5.6653227704        5.8415877733
  H         4.3017920337        5.5616625598        3.2826304395
  H         5.8044374910        2.8044175153       10.6842931251
  H         4.4758607015        0.1891246098       13.2480307675
  H         2.9808375684        2.9380016901        5.8432694175
  H         5.1279145068        3.0077465565        4.5847095477
  H         3.5854795507        5.8592387423       11.9481428402
  H         3.6613356703        2.7128643433       11.9357449943
  H         5.1974280235       -0.1294704359        4.5759154388
  H         2.1079298051       -0.1396075823        4.5898712361
  H         6.7491656608        2.7435102911       11.9483924426
  H         6.6813454355        5.8898534782       11.9327692832
  H         2.0340264913        2.9981071257        4.5779707811
 Ca         1.0417081617        7.1695662466        2.7361390725
 Ca         5.4342569775       10.0371883937        9.5112398634
 Ca         2.6029119903       10.0439325207       13.7800889043
 Ca         3.8803703121        7.1688266141        7.0036178788
  S         5.4244056662       10.0522162011        1.8758837157
  S         1.0389594304        7.1700963100        9.3956345089
  S         3.8980296012        7.1502624945       14.6520288865
  S         2.5943014008       10.0370429727        7.1362090655
  O        -0.6694869172        8.9022233996        2.9078515076
  O         0.6048150408        6.0164512105       10.2472895826
  O         4.3062794179        8.2942941950       13.6133156178
  O         3.0369120147       11.1899636607        6.2887101837
  O         5.8509994380       11.1855196948        2.9144169435
  O         1.4809806021        8.3239249401       10.2434014046
  O        -2.2154336764        6.0271910972       13.6147400509
  O         2.1515259328        8.8842260402        6.2885446022
  O         0.7747369861        9.4033896751        0.9045514309
  O         2.1556061640        6.6623785672        8.5481394800
  O         2.8980127979        7.7628416565       15.6358965563
  O         1.4704701468       10.5566669051        7.9680368125
  O         4.4220873065       10.6750958877        0.8871868258
  O        -0.0883599449        7.6763812640        8.5612293049
  O        -0.7920069779        6.5666873606       15.6350479170
  O         3.7180022063        9.5168431927        7.9680665652
  O         2.5586587882        8.5341927335        3.6415542718
  O         1.0954029216       11.2284420364       11.0315966978
  O         1.0753926615        8.6577756948       12.8831847640
  O         2.5389996650        5.9672385502        5.4988192001
  O        -0.4725091112        5.8100643356        3.6389611136
  O         4.0927428227        8.8457799893       11.0311249828
  O         4.0990354017       11.4260894920       12.8874869507
  O        -0.4548290230        8.3720070491        5.4998647846
  H         3.4593685415        8.7807297546        3.2843590693
  H        -1.1460131593        5.7984302198       10.6854327453
  H         0.1769917223        8.4165940543       13.2449430790
  H         4.7781202209       11.4013290113        5.8463967218
  H         1.7290652242       11.2949666501        3.2843737445
  H         3.2297965200        8.5404443445       10.6855567350
  H         1.9046556260        5.9199349856       13.2438200745
  H         0.4093228735        8.6730901286        5.8447364494
  H         2.5509954215        8.7443245887        4.5933550210
  H         1.0111112222       11.5965780773       11.9496079059
  H         1.0859623091        8.4521556831       11.9313944574
  H         2.6183463198        5.6087126124        4.5774203509
  H        -0.4670007724        5.5959192365        4.5901261274
  H         4.1780945894        8.4749900883       11.9479133226
  H         4.1014675499       11.6257468155       11.9337392677
  H        -0.5344292531        8.7295007303        4.5782578399
 Ca         6.7202299539        7.1689614393        2.7390257988
 Ca        -0.2459314814       10.0379678473        9.5119718386
 Ca        -3.0800390284       10.0398417791       13.7810030204
 Ca        -1.7978300675        7.1687699041        7.0033209288
  S        -0.2410190686       10.0341773438        1.8647368546
  S         6.7187087869        7.1699506574        9.3950216547
  S        -1.7949900134        7.1706807716       14.6459985666
  S        -3.0844680053       10.0370275914        7.1348573161
  O         5.0011088924        8.9122934228        2.9113887846
  O         6.2842704958        6.0168440879       10.2472996010
  O        -1.3685394378        8.3145874742       13.6176510305
  O        -2.6415646100       11.1900133759        6.2873851378
  O         0.1752771788       11.1727190821        2.9069357979
  O         7.1600174539        8.3240704587       10.2427442352
  O         3.4585324387        6.0189269099       13.6136395945
  O        -3.5275550760        8.8840731239        6.2872018298
  O         6.4329681193        9.4410302658        0.9013283425
  O         7.8357694860        6.6621467128        8.5481631785
  O        -2.8302403647        7.7908839806       15.5837425917
  O        -4.2080487941       10.5563948175        7.9670082457
  O        -1.2252147428       10.6465795332        0.8533707091
  O         5.5925770260        7.6757683679        8.5588366992
  O         4.8944134771        6.5306913435       15.6464820007
  O        -1.9610049999        9.5168664721        7.9669390281
  O        -3.1177951438        8.5362556588        3.6367334709
  O        -4.5838359981       11.2282228459       11.0313582388
  O         6.7542456049        8.6512557835       12.8851375681
  O         8.2197126036        5.9702110609        5.4956491662
  O         5.2032058636        5.8107753715        3.6337067749
  O        -1.5858747062        8.8443765269       11.0332348734
  O        -1.5750735035       11.4212132163       12.8919412393
  O         5.2231399997        8.3692163497        5.4959838480
  H        -2.2149088648        8.7778548216        3.2833383357
  H         4.5331997815        5.7980906562       10.6855826442
  H         5.8539352363        8.4106847542       13.2440418531
  H        -0.8956369967       11.4011726045        5.8415097455
  H        -3.9525131062       11.2985914961        3.2846395390
  H        -2.4489351989        8.5398402875       10.6870294478
  H         7.5876980748        5.9264242214       13.2447062951
  H         6.0857406616        8.6736542998        5.8425337152
  H        -3.1271951413        8.7434820701        4.5896790156
  H        -4.6676917396       11.5941460382       11.9500609685
  H         6.7600994459        8.4481975880       11.9325890366
  H         8.3029816354        5.6063418233        4.5762454632
  H         5.2118705297        5.5971573061        4.5855749548
  H        -1.5024453294        8.4787000676       11.9513984043
  H        -1.5756696478       11.6256195117       11.9391705108
  H         5.1390610868        8.7338090387        4.5773480956
     192
 i =       24, E =     -2329.4991697789
 Ca         9.3070487543        1.4440627600        2.7329148129
 Ca         2.3297167742        4.2981968298        9.5049937145
 Ca        -0.5333957071        4.2691718345       13.8091354699
 Ca         0.7772089735        1.4361986517        7.0082198093
  S         2.3457649064        4.2960946197        1.8680026742
  S         9.2982564130        1.4331524028        9.3917458417
  S         0.7620388720        1.4305267357       14.6567000531
  S        -0.5108654667        4.3018574640        7.1369384457
  O         7.5939513251        3.1425744296        2.9178695048
  O         8.8554005239        0.2771301638       10.2360569282
  O         1.1778392201        2.5582590224       13.6059853402
  O        -0.0706275065        5.4533348580        6.2868919113
  O         2.7669566136        5.4387211955        2.8978203020
  O         9.7309705014        2.5871810030       10.2434723101
  O         6.0193027101        0.2867508817       13.6038227365
  O        -0.9505020237        3.1501553052        6.2871515881
  O         9.0345028106        3.6932002030        0.9247989330
  O        10.4254883869        0.9286827722        8.5573979892
  O        -0.1713425080        2.0365178961       15.7451340353
  O        -1.6351685380        4.8206026697        7.9683998056
  O         1.2805927241        4.9308545062        0.9850690889
  O         8.1843225751        1.9420669120        8.5425833363
  O         7.4829310275        0.8367579117       15.5420025107
  O         0.6130451296        3.7830937340        7.9684112053
  O        -0.5519893544        2.7974044501        3.6431305228
  O        -2.0058040255        5.4923779905       11.0364522852
  O         9.3222467868        2.9071932979       12.8780004236
  O        10.7902512859        0.2273181530        5.5042634371
  O         7.7708913612        0.0562705902        3.6454123453
  O         0.9862651071        3.1173883373       11.0301268826
  O         1.0286283400        5.7015277995       12.8668392475
  O         7.7984130678        2.6362815877        5.4996709140
  H         0.3463949753        3.0376927724        3.2741094807
  H         7.1055117590        0.0655247308       10.6847632946
  H         8.4273935923        2.6804754693       13.2653624706
  H         1.6738690312        5.6644042871        5.8440500811
  H        -1.3690385674        5.5669350178        3.2758208760
  H         0.1268912469        2.8048727672       10.6794392290
  H        10.1501528926        0.1841123440       13.2608775556
  H         8.6626528060        2.9380729511        5.8438288494
  H        -0.5680241475        3.0054526829        4.5939014804
  H        -2.0931159190        5.8621477118       11.9525811131
  H         9.3508072053        2.7129469387       11.9249273358
  H        10.8657261931       -0.1246828786        4.5818743951
  H         7.8015495740       -0.1380782130        4.5994037533
  H         1.0731165947        2.7352624624       11.9438513464
  H         0.9703303106        5.8807465466       11.9112402103
  H         7.7252977660        2.9949631612        4.5786616678
 Ca         3.6203044985        1.4522645404        2.7389235782
 Ca         8.0069665516        4.2989604240        9.5064654467
 Ca         5.1507883437        4.2760517164       13.8094867473
 Ca         6.4565784918        1.4363504117        7.0082097785
  S         8.0245749840        4.2934097180        1.9097735237
  S         3.6200676711        1.4340171548        9.3912846292
  S         6.4452771011        1.4455246363       14.6099139730
  S         5.1684793253        4.3016709059        7.1350557228
  O         1.9318917855        3.1464288412        2.8931615151
  O         3.1772772604        0.2792255898       10.2374018503
  O         6.8794558511        2.5930159252       13.5962946703
  O         5.6085314035        5.4531132743        6.2845951512
  O         8.4403462453        5.4520786651        2.9189150966
  O         4.0537973844        2.5893932893       10.2406704322
  O         0.3209660338        0.2975239031       13.6205381726
  O         4.7287359220        3.1503409899        6.2844036165
  O         3.2730516228        3.7265070040        0.7483975828
  O         4.7462780471        0.9279101688        8.5563138994
  O         5.4445858551        2.0539757291       15.6012808707
  O         4.0446160226        4.8205165739        7.9667307427
  O         6.9969366497        4.8895837701        0.9586973721
  O         2.5062015201        1.9415894230        8.5414027127
  O         1.7837663148        0.7999159224       15.6082570311
  O         6.2923362641        3.7830428587        7.9667607453
  O         5.1335408686        2.7980900331        3.6327578687
  O         3.6711856298        5.4937386455       11.0339324806
  O         3.6553390813        2.9112369353       12.8807576723
  O         5.1150085140        0.2308851178        5.4949256841
  O         2.0935047156        0.0581867893        3.6415109289
  O         6.6650929276        3.1153388310       11.0343173138
  O         6.7080404222        5.7009434917       12.8710508399
  O         2.1185743714        2.6348919376        5.4983899725
  H         6.0326147701        3.0393017213        3.2705888750
  H         1.4262247092        0.0653466720       10.6861569784
  H         2.7603682124        2.6758111361       13.2631923369
  H         7.3564569204        5.6638400452        5.8411564591
  H         4.3030648308        5.5647532199        3.2728840218
  H         5.8051903093        2.8033755175       10.6842253759
  H         4.4748887183        0.1854798006       13.2650679804
  H         2.9817571109        2.9394231316        5.8430410491
  H         5.1163228497        3.0055245887        4.5845841781
  H         3.5876026923        5.8572569732       11.9520957830
  H         3.6774321541        2.7145809206       11.9282624358
  H         5.1931577798       -0.1292430001        4.5758315872
  H         2.1223028896       -0.1371559424        4.5957474065
  H         6.7468309957        2.7427924580       11.9512240767
  H         6.6600984316        5.8863434867       11.9161964956
  H         2.0381494755        2.9990343845        4.5796957859
 Ca         1.0271082867        7.1616224931        2.7353855505
 Ca         5.4344360236       10.0406013486        9.5088934309
 Ca         2.6228682630       10.0585016278       13.8106790159
 Ca         3.8804741167        7.1667864090        7.0041893261
  S         5.4392564712       10.0464104407        1.8550961275
  S         1.0373198151        7.1684098054        9.3921192301
  S         3.8809606892        7.1560259963       14.6079310585
  S         2.5944106140       10.0373385808        7.1380164285
  O        -0.6500121290        8.8691396476        2.9179097819
  O         0.6063042404        6.0158298799       10.2465486263
  O         4.2945782848        8.3105557264       13.5918591042
  O         3.0326082565       11.1882602644        6.2863548743
  O         5.8533208347       11.1861389304        2.8903203508
  O         1.4793261521        8.3241487595       10.2369076985
  O        -2.2353610559        6.0449765938       13.6256222574
  O         2.1553331297        8.8862235591        6.2870316301
  O         0.7572769793        9.4110087653        0.8835855220
  O         2.1528565037        6.6613657840        8.5439984859
  O         2.9000763033        7.7597343941       15.6214180218
  O         1.4691393485       10.5547041450        7.9683499486
  O         4.4312475123       10.6669654519        0.8740668317
  O        -0.0904425132        7.6761276990        8.5601632014
  O        -0.7827811433        6.5661670340       15.5968776562
  O         3.7189173431        9.5176385084        7.9683768450
  O         2.5630227400        8.5427358529        3.6470013912
  O         1.0988192722       11.2232605141       11.0365808717
  O         1.0552669652        8.6396756914       12.8668636820
  O         2.5381313500        5.9667881552        5.5008769274
  O        -0.4698370904        5.8087869773        3.6397905901
  O         4.0894364933        8.8460211903       11.0371024348
  O         4.1048309509       11.4274108739       12.8810634378
  O        -0.4542653444        8.3758840380        5.4995170679
  H         3.4600223568        8.7774813281        3.2692967526
  H        -1.1455333397        5.7985182235       10.6822998749
  H         0.1668678927        8.4218024808       13.2795755537
  H         4.7765635741       11.4001185129        5.8469807160
  H         1.7255608660       11.2983784435        3.2665265311
  H         3.2295101918        8.5406556633       10.6816244071
  H         1.9171514044        5.9141543173       13.2813796029
  H         0.4104498521        8.6741149775        5.8451604086
  H         2.5373766862        8.7418581148        4.5999710303
  H         1.0117593470       11.5977549055       11.9526072379
  H         1.1090386829        8.4563535526       11.9118591821
  H         2.6137033627        5.6080007992        4.5799169994
  H        -0.4573247526        5.5975325184        4.5901032958
  H         4.1786861722        8.4759797133       11.9528113474
  H         4.0880243945       11.6241073827       11.9282982955
  H        -0.5304118001        8.7294789635        4.5781613216
 Ca         6.7084210158        7.1644443432        2.7387927062
 Ca        -0.2457527953       10.0421045079        9.5097897513
 Ca        -3.0614218066       10.0519073864       13.8109104755
 Ca        -1.7977793464        7.1669526902        7.0043277893
  S        -0.2133209217       10.0238364001        1.9172186748
  S         6.7174253709        7.1686581741        9.3914377330
  S        -1.8247459835        7.1809198453       14.6734649685
  S        -3.0843354752       10.0372935176        7.1362723451
  O         5.0148560019        8.9065563345        2.8897360536
  O         6.2853412622        6.0164156901       10.2458729564
  O        -1.3982166004        8.3142993475       13.6299363159
  O        -2.6454910806       11.1880321834        6.2844910865
  O         0.2061459351       11.1857025296        2.9194867148
  O         7.1594751483        8.3246210288       10.2358726313
  O         3.4357201681        6.0130472266       13.5940585939
  O        -3.5239808610        8.8863443522        6.2849735706
  O         6.3988063575        9.4593831909        0.7944276308
  O         7.8331124542        6.6611941949        8.5438143310
  O        -2.7632569028        7.7634483472       15.7772677874
  O        -4.2090520100       10.5548686759        7.9671437149
  O        -1.2746973532       10.6568411789        1.0387559442
  O         5.5914889895        7.6761898472        8.5570092340
  O         4.9345935592        6.5185354789       15.5036083260
  O        -1.9603607103        9.5172321753        7.9671224122
  O        -3.1141796462        8.5439261564        3.6411464277
  O        -4.5817779741       11.2228450608       11.0340853299
  O         6.7391402076        8.6363804922       12.8722077867
  O         8.2189212755        5.9704634779        5.4965615797
  O         5.2014606220        5.8096456977        3.6327312996
  O        -1.5866457208        8.8443697028       11.0358233299
  O        -1.5688941361       11.4232327699       12.8860809244
  O         5.2231067976        8.3720639465        5.4974980276
  H        -2.2155100993        8.7752538460        3.2680702564
  H         4.5330473695        5.7981123033       10.6830254010
  H         5.8470432385        8.4150915542       13.2723000013
  H        -0.8963060707       11.4004726823        5.8422576081
  H        -3.9541842614       11.3018156544        3.2679533706
  H        -2.4486126923        8.5393725664       10.6860267105
  H         7.5981486769        5.9213385952       13.2763791407
  H         6.0866461592        8.6746711736        5.8427291396
  H        -3.1403932197        8.7411799765        4.5949100601
  H        -4.6649920141       11.5944834063       11.9512671501
  H         6.7795105511        8.4514946370       11.9171713579
  H         8.2991710246        5.6054346505        4.5780576895
  H         5.2211254931        5.5990869113        4.5839209996
  H        -1.5054908889        8.4806386839       11.9535864078
  H        -1.5879048837       11.6244516404       11.9343644226
  H         5.1431315815        8.7336702214        4.5791058697
     192
 i =       25, E =     -2330.2302047497
 Ca         9.2924104490        1.4307200027        2.7427936599
 Ca         2.3300767257        4.3027053581        9.5094752818
 Ca        -0.5103802387        4.2973994382       13.7699367544
 Ca         0.7770227028        1.4334172704        7.0007927642
  S         2.3161861332        4.3078543545        1.8734132198
  S         9.2991595690        1.4335412423        9.3891261202
  S         0.7792272235        1.4225854803       14.6516017702
  S        -0.5107872843        4.3016747895        7.1374518360
  O         7.5936781118        3.1628929765        2.9143844645
  O         8.8538011583        0.2765880790       10.2317255971
  O         1.1963176779        2.5503872952       13.6000276459
  O        -0.0677629984        5.4538294929        6.2890150139
  O         2.7467048310        5.4402564891        2.9157451803
  O         9.7331406109        2.5865175600       10.2427749604
  O         6.0295217836        0.2958046456       13.6204622016
  O        -0.9537201699        3.1493310079        6.2893194721
  O         9.0309621903        3.6824967380        0.8876336480
  O        10.4261708365        0.9265850143        8.5554380571
  O        -0.2134867698        2.0556984495       15.6375110132
  O        -1.6343722270        4.8223479739        7.9691051205
  O         1.3016011767        4.9269400899        0.9038535029
  O         8.1840340106        1.9449273410        8.5427690283
  O         7.4671045679        0.8368794771       15.6204984359
  O         0.6124585165        3.7809955397        7.9693251063
  O        -0.5491610634        2.8041392689        3.6462015593
  O        -2.0077948744        5.4937179859       11.0324919612
  O         9.3284197796        2.9063528430       12.8816616692
  O        10.7870123569        0.2272386124        5.5037285572
  O         7.7843744085        0.0618858034        3.6442063652
  O         0.9887050957        3.1100517667       11.0271420761
  O         1.0014662157        5.6811338351       12.8824060897
  O         7.8008316124        2.6400936659        5.5003598486
  H         0.3530685255        3.0430684069        3.2871635431
  H         7.1057834593        0.0661921234       10.6840943465
  H         8.4248758741        2.6740725409       13.2396124229
  H         1.6723104270        5.6629690265        5.8469925218
  H        -1.3755453488        5.5616843967        3.2857054793
  H         0.1270222425        2.8045403734       10.6785574718
  H        10.1529923918        0.1907869711       13.2410109213
  H         8.6645414459        2.9393684369        5.8475936672
  H        -0.5544922783        3.0140488995        4.5979569459
  H        -2.0928016162        5.8674232403       11.9480236590
  H         9.3307953855        2.7045198697       11.9280076672
  H        10.8682948312       -0.1296189451        4.5821077223
  H         7.7838922494       -0.1474315325        4.5960584440
  H         1.0736874902        2.7331179677       11.9414519284
  H         1.0006172276        5.8914812438       11.9312413211
  H         7.7223234326        2.9981321664        4.5790660057
 Ca         3.6142721769        1.4299576965        2.7492782326
 Ca         8.0074560327        4.3026902549        9.5106739217
 Ca         5.1724046469        4.3049652066       13.7744098494
 Ca         6.4568492462        1.4335849972        7.0001506846
  S         8.0218402713        4.2941699751        1.8717522955
  S         3.6209430518        1.4344070426        9.3887301165
  S         6.4506645344        1.4430579290       14.6503487827
  S         5.1686332586        4.3015728663        7.1351843991
  O         1.9057038506        3.1638765572        2.9115193585
  O         3.1763276779        0.2790672745       10.2340532797
  O         6.8754512123        2.5804711806       13.6129150357
  O         5.6116945706        5.4539751534        6.2867467615
  O         8.4341051256        5.4357357306        2.9127287950
  O         4.0563112533        2.5893457189       10.2389476897
  O         0.3448249589        0.2818974174       13.6211488693
  O         4.7254129108        3.1490585348        6.2870106119
  O         3.3184765282        3.7057121593        0.8839601034
  O         4.7467235639        0.9259911644        8.5540318020
  O         5.4413109247        2.0626959699       15.6273400979
  O         4.0453884536        4.8219986867        7.9671483190
  O         7.0110474664        4.8947895528        0.8937579923
  O         2.5048755317        1.9448818975        8.5432594440
  O         1.7802399301        0.7938199449       15.6366036076
  O         6.2916503937        3.7810249379        7.9675116121
  O         5.1349994882        2.8047303018        3.6354533162
  O         3.6708184531        5.4924732598       11.0299499620
  O         3.6588350108        2.9074617196       12.8832298914
  O         5.1123347784        0.2319452971        5.4965944289
  O         2.1029393252        0.0622682244        3.6410855279
  O         6.6666546935        3.1080831057       11.0300384293
  O         6.6865889006        5.6843513287       12.8826102505
  O         2.1204718505        2.6380717602        5.4983902835
  H         6.0387367230        3.0436165614        3.2821924099
  H         1.4267163113        0.0657151482       10.6841099088
  H         2.7559034715        2.6699973467       13.2397636028
  H         7.3551441996        5.6625627321        5.8442961150
  H         4.2981258483        5.5602709607        3.2827228933
  H         5.8044666145        2.8031330770       10.6823243439
  H         4.4780573647        0.1909308771       13.2455741043
  H         2.9830741488        2.9410685850        5.8455913466
  H         5.1284656563        3.0134176059        4.5883396748
  H         3.5858345024        5.8622853512       11.9473073629
  H         3.6591993833        2.7067572631       11.9294708249
  H         5.1964998859       -0.1340325647        4.5781718543
  H         2.1053954665       -0.1463573734        4.5934521116
  H         6.7488065431        2.7410374976       11.9479943020
  H         6.6857211135        5.8957369850       11.9315580732
  H         2.0361141696        3.0025196019        4.5798878192
 Ca         1.0440513917        7.1699631509        2.7444346765
 Ca         5.4344101099       10.0359157785        9.5109578135
 Ca         2.5938689456       10.0326066195       13.7734193817
 Ca         3.8798683353        7.1695226683        7.0007786547
  S         5.4249161899       10.0528517360        1.8748116255
  S         1.0367053306        7.1696295983        9.3894362142
  S         3.8946923072        7.1503305720       14.6444687754
  S         2.5941991082       10.0370111091        7.1380881017
  O        -0.6605608394        8.8954348936        2.9194727511
  O         0.6029733964        6.0162589842       10.2422880606
  O         4.3026346381        8.2948311537       13.6056979533
  O         3.0373042046       11.1894427689        6.2901243682
  O         5.8553078822       11.1803931960        2.9203797154
  O         1.4828178401        8.3264324738       10.2317895550
  O        -2.2181177920        6.0319654898       13.6221358025
  O         2.1511682069        8.8847995621        6.2896674423
  O         0.7636106541        9.4044792621        0.8921720184
  O         2.1510982684        6.6585369044        8.5416983269
  O         2.8958796277        7.7598712213       15.6305330643
  O         1.4708781382       10.5573414768        7.9699830671
  O         4.4179363498       10.6824747841        0.8965342250
  O        -0.0916064603        7.6763749425        8.5570993118
  O        -0.7874198105        6.5701936930       15.6361959012
  O         3.7177639175        9.5166601206        7.9697206003
  O         2.5549513626        8.5380774414        3.6454547793
  O         1.0962871658       11.2309170009       11.0324949927
  O         1.0780894720        8.6575304385       12.8820467492
  O         2.5359395849        5.9631401924        5.5002484744
  O        -0.4737908661        5.8012287738        3.6457805229
  O         4.0915768655        8.8462572658       11.0317309510
  O         4.1010793861       11.4304350087       12.8810019148
  O        -0.4516678429        8.3757419005        5.5013601151
  H         3.4566008647        8.7826692953        3.2882978401
  H        -1.1461809583        5.8003749151       10.6845029694
  H         0.1780454104        8.4153409580       13.2391179730
  H         4.7749513176       11.3980237966        5.8489669827
  H         1.7322109046       11.2945601606        3.2890960827
  H         3.2303280516        8.5386450231       10.6837456071
  H         1.9027656708        5.9205979001       13.2379419759
  H         0.4121157973        8.6763509844        5.8470686795
  H         2.5532132278        8.7510416610        4.5966988306
  H         1.0117965124       11.5995639365       11.9495189727
  H         1.0806671137        8.4460132362       11.9308880945
  H         2.6159313026        5.6043409949        4.5793465384
  H        -0.4681936758        5.5893520419        4.5970232718
  H         4.1774231224        8.4702564294       11.9467321180
  H         4.1034247892       11.6316714322       11.9272405774
  H        -0.5320872636        8.7342949082        4.5804175623
 Ca         6.7226904514        7.1721182687        2.7498045915
 Ca        -0.2460256659       10.0366140837        9.5120058565
 Ca        -3.0875597417       10.0309306365       13.7751109706
 Ca        -1.7981115236        7.1698886394        7.0007466902
  S        -0.2339748944       10.0310112365        1.8806508707
  S         6.7170878244        7.1697627192        9.3885143668
  S        -1.7994271668        7.1738390261       14.6596557434
  S        -3.0845222030       10.0370001784        7.1363571015
  O         5.0071366416        8.9106283632        2.9112410080
  O         6.2826153275        6.0170918771       10.2420320507
  O        -1.3742617943        8.3136320654       13.6222346563
  O        -2.6411542438       11.1895213220        6.2883974217
  O         0.1863780816       11.1713548531        2.9187944016
  O         7.1620393801        8.3269460370       10.2308366583
  O         3.4554685645        6.0144594947       13.6124801954
  O        -3.5279984362        8.8846806276        6.2879259706
  O         6.4275433022        9.4432522124        0.8908502967
  O         7.8319520265        6.6582820316        8.5417737786
  O        -2.8103489972        7.7839280602       15.6390616369
  O        -4.2074927625       10.5571621505        7.9686899105
  O        -1.2398456585       10.6479252953        0.9069435188
  O         5.5912886777        7.6764439408        8.5529710355
  O         4.9034292067        6.5252759057       15.6174600796
  O        -1.9612802270        9.5167621166        7.9684159424
  O        -3.1220081718        8.5396767571        3.6402570388
  O        -4.5830560068       11.2303804156       11.0318706758
  O         6.7562367956        8.6519904039       12.8829960414
  O         8.2173302307        5.9667741987        5.4969421159
  O         5.2001369556        5.8038272567        3.6369650336
  O        -1.5875858792        8.8453718141       11.0338574847
  O        -1.5731588173       11.4286712909       12.8860609617
  O         5.2256503896        8.3720920433        5.4974928300
  H        -2.2181362111        8.7792614550        3.2867068334
  H         4.5329227018        5.7996370767       10.6838569824
  H         5.8554076076        8.4092475617       13.2389027533
  H        -0.8976106770       11.3982900353        5.8440824282
  H        -3.9502031703       11.2979147607        3.2880768258
  H        -2.4488354362        8.5378114375       10.6856699956
  H         7.5865772972        5.9274791914       13.2405168638
  H         6.0877487694        8.6767948466        5.8446561455
  H        -3.1248066511        8.7501089351        4.5924452884
  H        -4.6670275829       11.5970254917       11.9498753823
  H         6.7565305574        8.4426518852       11.9313490464
  H         8.3012909797        5.6018593283        4.5783314843
  H         5.2102253066        5.5912438751        4.5888739934
  H        -1.5032844243        8.4748729259       11.9506729317
  H        -1.5727721248       11.6319326375       11.9329008071
  H         5.1408161164        8.7391813603        4.5798675097
     192
 i =       26, E =     -2329.7306442080
 Ca         9.3001329579        1.4312205973        2.7610950901
 Ca         2.3296910370        4.3005729120        9.5082763789
 Ca        -0.5128729819        4.2925995627       13.7592415915
 Ca         0.7780907878        1.4342296877        6.9987576263
  S         2.3026482818        4.3142217996        1.8513713707
  S         9.3012506097        1.4339632860        9.3817749398
  S         0.7744429900        1.4222925628       14.6017857518
  S        -0.5108561466        4.3016993643        7.1401858470
  O         7.5669069916        3.1632166477        2.9308946359
  O         8.8533453933        0.2730732732       10.2177868674
  O         1.1925685906        2.5642222826       13.5729208415
  O        -0.0675400234        5.4536536543        6.2913902768
  O         2.7314649046        5.4402550366        2.9071916715
  O         9.7352807017        2.5873169509       10.2355320710
  O         6.0392864857        0.3119436081       13.6473331180
  O        -0.9539645070        3.1495491177        6.2916417696
  O         9.0796122024        3.6545512204        1.0389677955
  O        10.4285161650        0.9271448785        8.5486421745
  O        -0.2370013239        2.0665836595       15.5514756787
  O        -1.6344150481        4.8229247295        7.9714242806
  O         1.3323721488        4.9251427116        0.8077420898
  O         8.1836301577        1.9463200868        8.5405621654
  O         7.4368780261        0.8458488951       15.7329999198
  O         0.6124881017        3.7806835669        7.9715367413
  O        -0.5521264962        2.8058016626        3.6484204304
  O        -2.0072389345        5.4957615682       11.0334770004
  O         9.3267485082        2.9093652137       12.8775246153
  O        10.7842024087        0.2243722703        5.5056741953
  O         7.7801727626        0.0580585954        3.6496116768
  O         0.9867361428        3.1131835097       11.0302302147
  O         1.0045784151        5.6918564968       12.8739862284
  O         7.8040395575        2.6432560908        5.5015719735
  H         0.3514524632        3.0452838858        3.2932590019
  H         7.1052349086        0.0685427882       10.6830892928
  H         8.4243249569        2.6717413641       13.2356357985
  H         1.6694874401        5.6593922558        5.8490967491
  H        -1.3720268602        5.5586818400        3.2921996563
  H         0.1280061632        2.8029360565       10.6770359628
  H        10.1522051924        0.1927434062       13.2358055662
  H         8.6672744748        2.9428558523        5.8497060451
  H        -0.5505399867        3.0212554681        4.5994362993
  H        -2.0918611554        5.8710526817       11.9480383754
  H         9.3264981361        2.6981081806       11.9255493700
  H        10.8652124733       -0.1358270126        4.5847801963
  H         7.7827814637       -0.1540554819        4.6012189100
  H         1.0734773628        2.7269784535       11.9418231808
  H         1.0028149349        5.8977041764       11.9214017810
  H         7.7249250503        3.0047972220        4.5811394779
 Ca         3.6186875248        1.4406071884        2.7677142516
 Ca         8.0074630965        4.3011215469        9.5102456378
 Ca         5.1682597220        4.2905910374       13.7640322132
 Ca         6.4581184016        1.4347344688        6.9991482193
  S         7.9981825094        4.3000074510        1.8967128326
  S         3.6226290765        1.4348685105        9.3809400650
  S         6.4473187412        1.4434977031       14.7131261932
  S         5.1686054793        4.3015373779        7.1370614421
  O         1.8967648377        3.1792807992        2.9093330267
  O         3.1764082771        0.2760383908       10.2209571526
  O         6.8637493515        2.5650145623       13.6428572186
  O         5.6119926027        5.4537209346        6.2882563813
  O         8.4130723639        5.4501667552        2.9255200190
  O         4.0590489915        2.5915236234       10.2289355966
  O         0.3349268377        0.2693664778       13.5926466669
  O         4.7250207087        3.1493644156        6.2883267062
  O         3.3131871845        3.7055350949        0.8769041686
  O         4.7478863937        0.9260816121        8.5461428418
  O         5.4720535030        2.0517002568       15.7529624037
  O         4.0455139899        4.8229025535        7.9686671708
  O         7.0395269943        4.8853636383        0.8321440410
  O         2.5040995352        1.9453856018        8.5399405272
  O         1.8106320561        0.7805792201       15.5250583389
  O         6.2916781359        3.7807250282        7.9690598642
  O         5.1332803055        2.8087835010        3.6382092806
  O         3.6704546638        5.4954304310       11.0303727251
  O         3.6564229138        2.9104564277       12.8777645775
  O         5.1097377065        0.2286281382        5.4985019284
  O         2.1011433350        0.0563492055        3.6477171211
  O         6.6654292089        3.1119776226       11.0297253496
  O         6.6911231159        5.6960553702       12.8745758703
  O         2.1234520123        2.6407056947        5.5007086258
  H         6.0381327428        3.0455750474        3.2861278942
  H         1.4261144522        0.0678668174       10.6826634966
  H         2.7560519548        2.6667152500       13.2350517303
  H         7.3528074554        5.6591102953        5.8468093706
  H         4.3004103757        5.5582883944        3.2870857178
  H         5.8050704921        2.8013307308       10.6814753931
  H         4.4783321052        0.1941398875       13.2411778262
  H         2.9857105534        2.9447786190        5.8474810414
  H         5.1317894863        3.0202834135        4.5902928268
  H         3.5871733247        5.8649548994       11.9472799749
  H         3.6553085358        2.7006693480       11.9259140897
  H         5.1945735999       -0.1400637106        4.5808551573
  H         2.1033437987       -0.1538178242        4.6000503175
  H         6.7476641554        2.7361872450       11.9459678384
  H         6.6882888990        5.9021610753       11.9221096757
  H         2.0384296025        3.0087177561        4.5830485185
 Ca         1.0403324873        7.1657788378        2.7639721666
 Ca         5.4348761017       10.0377343672        9.5108399440
 Ca         2.5986875457       10.0407412273       13.7620794126
 Ca         3.8786084400        7.1685049227        6.9977454339
  S         5.4271987880       10.0534334577        1.8631603086
  S         1.0341791301        7.1690186489        9.3826406563
  S         3.8928371952        7.1492845167       14.6571973369
  S         2.5941720893       10.0370006716        7.1407274280
  O        -0.6597272003        8.8935182308        2.9210088063
  O         0.6010339167        6.0151492899       10.2357647217
  O         4.2982775779        8.2865946913       13.6049093214
  O         3.0372268704       11.1887798095        6.2915849569
  O         5.8556136346       11.1787269180        2.9159684060
  O         1.4825766404        8.3294056171       10.2189401799
  O        -2.2253005285        6.0306250132       13.6088036976
  O         2.1511114676        8.8853731782        6.2913424740
  O         0.7569504923        9.3913559227        0.8644583917
  O         2.1527298234        6.6570608576        8.5421808716
  O         2.8912045933        7.7645636279       15.6375168361
  O         1.4703605587       10.5578124937        7.9713949657
  O         4.4236653389       10.6872160896        0.8812449497
  O        -0.0956894011        7.6764770412        8.5530206587
  O        -0.7623971962        6.5590753223       15.5628849827
  O         3.7180745354        9.5156340093        7.9710835136
  O         2.5558468251        8.5436812301        3.6502906159
  O         1.0980269871       11.2272336222       11.0328623809
  O         1.0751862715        8.6459787680       12.8721932109
  O         2.5329273928        5.9603367050        5.5029568595
  O        -0.4689614904        5.7997916893        3.6484269886
  O         4.0912166727        8.8439145232       11.0323142798
  O         4.1016481094       11.4285083923       12.8756301999
  O        -0.4482844300        8.3792215686        5.5030644739
  H         3.4574444831        8.7854575691        3.2902640559
  H        -1.1464686177        5.8020639183       10.6828408440
  H         0.1741725184        8.4133758949       13.2387509094
  H         4.7723413421       11.3946427654        5.8510371168
  H         1.7297383016       11.2910411732        3.2903395760
  H         3.2308181187        8.5372824778       10.6809657636
  H         1.9061485926        5.9223540088       13.2385766500
  H         0.4151400602        8.6796669520        5.8498357260
  H         2.5545406487        8.7575698625        4.6015978123
  H         1.0130681756       11.6050527287       11.9479044475
  H         1.0780192898        8.4395825959       11.9198017224
  H         2.6131756518        5.5981653877        4.5826340662
  H        -0.4724167539        5.5820744215        4.5988894128
  H         4.1769238469        8.4653107731       11.9460577509
  H         4.1071221285       11.6373937110       11.9234469192
  H        -0.5299686894        8.7403586077        4.5826183641
 Ca         6.7189293475        7.1699929618        2.7698645069
 Ca        -0.2463261624       10.0383421341        9.5120656347
 Ca        -3.0805317419       10.0361235844       13.7637754455
 Ca        -1.7993421639        7.1690316359        6.9977422686
  S        -0.2229227561       10.0243751437        1.8787373411
  S         6.7152867352        7.1692596957        9.3806378263
  S        -1.8070026639        7.1766099095       14.6413177849
  S        -3.0844300716       10.0370758000        7.1386469612
  O         5.0142828570        8.9128331272        2.9083023898
  O         6.2802802246        6.0166862346       10.2346991594
  O        -1.3838351939        8.3221098657       13.6104668452
  O        -2.6411842476       11.1888851970        6.2893724532
  O         0.1952793900       11.1672024391        2.9169412713
  O         7.1618649508        8.3299327863       10.2173274232
  O         3.4617359770        6.0123954064       13.6209444430
  O        -3.5279201025        8.8853041084        6.2892845191
  O         6.4076503341        9.4503855459        0.8420791121
  O         7.8342460244        6.6560278297        8.5418200684
  O        -2.8136257572        7.7833053564       15.6308854710
  O        -4.2078569749       10.5576355055        7.9698534226
  O        -1.2455670988       10.6637574002        0.9408721494
  O         5.5907042140        7.6765458032        8.5442167362
  O         4.8984520209        6.5231557794       15.6383530149
  O        -1.9609805144        9.5160619725        7.9697517474
  O        -3.1224057967        8.5452197243        3.6471615979
  O        -4.5808673975       11.2282470676       11.0346991582
  O         6.7530856341        8.6415104987       12.8737015159
  O         8.2141036013        5.9637558334        5.4976375144
  O         5.2029068819        5.8025966076        3.6423467507
  O        -1.5881285132        8.8420770364       11.0344675364
  O        -1.5711790093       11.4275327896       12.8794654954
  O         5.2282196913        8.3759780361        5.4993344394
  H        -2.2184086296        8.7811991427        3.2895611431
  H         4.5324058942        5.8008947479       10.6821467577
  H         5.8514929182        8.4070940617       13.2375242487
  H        -0.8998530969       11.3949284986        5.8467112710
  H        -3.9518193871       11.2949182231        3.2902938061
  H        -2.4487342501        8.5361242042       10.6834080101
  H         7.5916188200        5.9294305640       13.2404029560
  H         6.0901315922        8.6802633899        5.8470550843
  H        -3.1230801565        8.7573225634        4.5989207730
  H        -4.6667102589       11.6017052869       11.9507349209
  H         6.7545966386        8.4367841563       11.9210837886
  H         8.2998564927        5.5953364839        4.5801393426
  H         5.2063744130        5.5837811852        4.5928472309
  H        -1.5041324170        8.4711959094       11.9507058718
  H        -1.5687459263       11.6382432244       11.9278723125
  H         5.1426082529        8.7453035721        4.5824691239
     192
 i =       27, E =     -2330.2266981500
 Ca         9.3010039235        1.4387002915        2.7670766017
 Ca         2.3297467786        4.2998237679        9.5077974161
 Ca        -0.5153401788        4.2884667575       13.7586591899
 Ca         0.7786050294        1.4346290047        6.9983783292
  S         2.3084090184        4.3130583663        1.8754368413
  S         9.3020894739        1.4342655729        9.3786030878
  S         0.7776119512        1.4204830399       14.6437330177
  S        -0.5108617810        4.3016489482        7.1412352004
  O         7.5957103246        3.1574934229        2.9187197534
  O         8.8533995707        0.2717718474       10.2119094434
  O         1.1874383009        2.5513390215       13.5915378511
  O        -0.0676794049        5.4535241118        6.2922511142
  O         2.7397483522        5.4459599544        2.9189299140
  O         9.7362034054        2.5877524548       10.2323023347
  O         6.0362903708        0.2944390232       13.6195544462
  O        -0.9538736732        3.1496619729        6.2924263472
  O         9.0318996853        3.6699142096        0.8819285428
  O        10.4293968942        0.9274158660        8.5457584409
  O        -0.2161833285        2.0604500373       15.6242488725
  O        -1.6343949551        4.8231282769        7.9722370460
  O         1.3129027256        4.9347166819        0.8763111256
  O         8.1833906844        1.9468682096        8.5395446597
  O         7.4636357825        0.8381440412       15.6356919361
  O         0.6125607370        3.7806925323        7.9723805932
  O        -0.5536535381        2.8058304491        3.6492300854
  O        -2.0068379030        5.4962676796       11.0337483021
  O         9.3250057785        2.9106346268       12.8761994464
  O        10.7830347326        0.2230167550        5.5060500684
  O         7.7791786554        0.0565123110        3.6520362264
  O         0.9863719487        3.1148610790       11.0293943357
  O         1.0066173070        5.6962273713       12.8702689675
  O         7.8051831438        2.6441118888        5.5029965283
  H         0.3498317260        3.0458555536        3.2945195306
  H         7.1048692151        0.0692562517       10.6822713565
  H         8.4239171662        2.6712601805       13.2357531979
  H         1.6683705655        5.6580246155        5.8500502251
  H        -1.3721797774        5.5579076304        3.2935764121
  H         0.1282305998        2.8022612359       10.6767023777
  H        10.1511793984        0.1927994630       13.2348515521
  H         8.6684653899        2.9442634287        5.8503505351
  H        -0.5499791669        3.0235372895        4.5997467782
  H        -2.0914108973        5.8720828632       11.9479640438
  H         9.3259553082        2.6962053672       11.9249653588
  H        10.8639053169       -0.1379922602        4.5854536577
  H         7.7836178543       -0.1562287389        4.6036132115
  H         1.0727531737        2.7251355569       11.9402337302
  H         1.0021371599        5.8994984756       11.9169987548
  H         7.7261695911        3.0070814258        4.5827890091
 Ca         3.6210004429        1.4403650266        2.7732694633
 Ca         8.0072790018        4.3004697465        9.5097374612
 Ca         5.1651307192        4.2910617653       13.7627698148
 Ca         6.4585933306        1.4352030326        6.9985855616
  S         8.0286160210        4.2879925845        1.8740815906
  S         3.6231970325        1.4349579368        9.3774866931
  S         6.4516302301        1.4418386648       14.6555713885
  S         5.1685756557        4.3015639634        7.1378772053
  O         1.8985596012        3.1722802193        2.9221502911
  O         3.1763790799        0.2748148334       10.2153778665
  O         6.8766503270        2.5789258162       13.6155283657
  O         5.6118131672        5.4535841141        6.2887561386
  O         8.4343928460        5.4340372957        2.9160980203
  O         4.0599155513        2.5922999660       10.2245179606
  O         0.3436697203        0.2795559217       13.6111536980
  O         4.7252741997        3.1495981686        6.2887391134
  O         3.3163885194        3.7054905686        0.8976763047
  O         4.7483872659        0.9261766045        8.5428386621
  O         5.4316672229        2.0632464042       15.6185368678
  O         4.0454487281        4.8229269125        7.9693624390
  O         7.0236358168        4.8911098896        0.8882796269
  O         2.5037097092        1.9455682489        8.5383914790
  O         1.7797047878        0.7904965056       15.6267525033
  O         6.2916997770        3.7808163111        7.9697209751
  O         5.1292412557        2.8094830914        3.6402244173
  O         3.6704094013        5.4963923531       11.0307943355
  O         3.6553705570        2.9114985463       12.8752804691
  O         5.1087233286        0.2272433260        5.4994606894
  O         2.1010075692        0.0545404287        3.6501195885
  O         6.6644942890        3.1125491292       11.0322067902
  O         6.6919507958        5.6996145948       12.8713857078
  O         2.1249256258        2.6421045310        5.5005560844
  H         6.0347604694        3.0459723788        3.2869491945
  H         1.4260832070        0.0687944354       10.6823315546
  H         2.7560865266        2.6661020953       13.2346054871
  H         7.3517969864        5.6576267689        5.8475026794
  H         4.3010748745        5.5578694684        3.2881686254
  H         5.8054734743        2.8008209942       10.6807380447
  H         4.4778445814        0.1951301404       13.2403477980
  H         2.9867899103        2.9461832042        5.8483712740
  H         5.1318381400        3.0227067491        4.5918944105
  H         3.5878329086        5.8655792479       11.9474995113
  H         3.6552280011        2.6987798708       11.9240667480
  H         5.1936136971       -0.1421186785        4.5820717372
  H         2.1034983841       -0.1562844896        4.6022845470
  H         6.7476178616        2.7344923231       11.9474935650
  H         6.6879415016        5.9040570433       11.9185485923
  H         2.0392542763        3.0110507952        4.5833412985
 Ca         1.0384871692        7.1669164368        2.7690293044
 Ca         5.4348323177       10.0384089925        9.5106558093
 Ca         2.6016977982       10.0396392310       13.7602505546
 Ca         3.8780948196        7.1680745786        6.9966993983
  S         5.4200014079       10.0562839329        1.8768747232
  S         1.0330795913        7.1686563868        9.3796382066
  S         3.8939317774        7.1481489338       14.6584157243
  S         2.5941925030       10.0369926403        7.1418797316
  O        -0.6718980298        8.9011801648        2.9148713717
  O         0.6002901545        6.0146295139       10.2328905895
  O         4.2987999589        8.2835634991       13.6029944868
  O         3.0368218578       11.1884695360        6.2921186156
  O         5.8503646052       11.1866633906        2.9210020766
  O         1.4821974017        8.3305589487       10.2133842685
  O        -2.2137090742        6.0302746457       13.6131262091
  O         2.1514328539        8.8856162092        6.2920034459
  O         0.7654982617        9.3825282048        0.8873615276
  O         2.1532486170        6.6565267558        8.5420156271
  O         2.8858881597        7.7675238502       15.6269337490
  O         1.4700878240       10.5577434383        7.9719836654
  O         4.4266187786       10.6867402916        0.8785517736
  O        -0.0974277043        7.6762121781        8.5511080487
  O        -0.7800782269        6.5654445579       15.6225565782
  O         3.7183051411        9.5155222062        7.9717179626
  O         2.5568097917        8.5459357399        3.6517597720
  O         1.0992009082       11.2267433708       11.0355967796
  O         1.0730450509        8.6416468941       12.8685401814
  O         2.5314845761        5.9589821873        5.5030779850
  O        -0.4689197151        5.7986954703        3.6488784160
  O         4.0909190805        8.8431780867       11.0327800087
  O         4.1011789242       11.4276179633       12.8731629074
  O        -0.4471589641        8.3804021485        5.5042308011
  H         3.4579933998        8.7861951823        3.2900135191
  H        -1.1464694148        5.8027036882       10.6821012025
  H         0.1722921384        8.4131860917       13.2403141765
  H         4.7712955218       11.3933786037        5.8519130249
  H         1.7296009692       11.2900291412        3.2895669925
  H         3.2310347443        8.5367989415       10.6797189710
  H         1.9076315309        5.9225805962       13.2407846728
  H         0.4162874002        8.6809797835        5.8507709190
  H         2.5541269725        8.7597298539        4.6030618305
  H         1.0130825914       11.6070580153       11.9495771172
  H         1.0784392619        8.4378051336       11.9156960577
  H         2.6120161690        5.5959066710        4.5831085936
  H        -0.4730773497        5.5796250460        4.5991703871
  H         4.1766419033        8.4636995661       11.9459885806
  H         4.1072683584       11.6391213592       11.9215506828
  H        -0.5286767671        8.7424274493        4.5839275323
 Ca         6.7157985673        7.1683164157        2.7744781441
 Ca        -0.2461547471       10.0392331903        9.5118564550
 Ca        -3.0787369513       10.0437424389       13.7631507469
 Ca        -1.7997448923        7.1687004691        6.9968395579
  S        -0.2351926293       10.0277005685        1.8649770811
  S         6.7146769613        7.1689309631        9.3772941067
  S        -1.7969317856        7.1728476660       14.6524058920
  S        -3.0844400737       10.0371526666        7.1395143666
  O         5.0068065866        8.9113567773        2.9156752265
  O         6.2794360898        6.0163184075       10.2313724664
  O        -1.3785989592        8.3157864057       13.6142460366
  O        -2.6414444145       11.1886119087        6.2896105145
  O         0.1822806073       11.1681675693        2.9083792062
  O         7.1617853849        8.3309664191       10.2116947584
  O         3.4647118664        6.0103145964       13.6224987381
  O        -3.5277256345        8.8856471972        6.2896980278
  O         6.4207605399        9.4464541024        0.8911655264
  O         7.8351801015        6.6553543126        8.5414031019
  O        -2.8191437014        7.7838161325       15.6174273543
  O        -4.2080832943       10.5576608740        7.9702772193
  O        -1.2207193937       10.6591341140        0.8656445757
  O         5.5905429824        7.6766424064        8.5407859170
  O         4.8945036183        6.5242716833       15.6494538746
  O        -1.9609223186        9.5157172986        7.9701276689
  O        -3.1212619634        8.5479430060        3.6496134745
  O        -4.5802975281       11.2269183991       11.0338894138
  O         6.7510409767        8.6375378864       12.8700066394
  O         8.2131352979        5.9629814097        5.4993573422
  O         5.2033787579        5.8021565824        3.6437856891
  O        -1.5883315279        8.8411119208       11.0341653665
  O        -1.5702057410       11.4265371085       12.8771835311
  O         5.2294140698        8.3777716153        5.4995321185
  H        -2.2175216235        8.7816630023        3.2895451634
  H         4.5321495328        5.8013455670       10.6814155157
  H         5.8497036444        8.4066058915       13.2384923875
  H        -0.9008226844       11.3936197055        5.8477127877
  H        -3.9514301271       11.2940473841        3.2902118266
  H        -2.4487802475        8.5354208579       10.6826048228
  H         7.5922591514        5.9296508802       13.2416840412
  H         6.0911373930        8.6815995759        5.8481028078
  H        -3.1233850776        8.7598103561        4.6013534828
  H        -4.6660245361       11.6029692384       11.9494580305
  H         6.7551113426        8.4350584214       11.9169225868
  H         8.2984820052        5.5931805791        4.5821122334
  H         5.2055248126        5.5811523283        4.5936522764
  H        -1.5049363562        8.4701887868       11.9502558489
  H        -1.5677520592       11.6402196916       11.9263983767
  H         5.1434437956        8.7474836491        4.5830194788
     192
 i =       28, E =     -2330.1478406835
 Ca         9.2823427252        1.4207694586        2.7417307855
 Ca         2.3302153312        4.3055193780        9.5100301444
 Ca        -0.5019322574        4.3067148955       13.7651070103
 Ca         0.7780910724        1.4315866903        6.9939653024
  S         2.3085922869        4.3144301307        1.8794342703
  S         9.3013317830        1.4349343446        9.3753224623
  S         0.7747038298        1.4224036654       14.6343707813
  S        -0.5107676160        4.3016477402        7.1413160687
  O         7.5955830290        3.1599095968        2.9175941774
  O         8.8548140916        0.2761316976       10.2136420022
  O         1.1968597829        2.5517275258       13.5899082988
  O        -0.0687919853        5.4535712612        6.2923949752
  O         2.7468104219        5.4440902714        2.9216332184
  O         9.7372106285        2.5886878827       10.2269144133
  O         6.0228277047        0.2986989375       13.6192427415
  O        -0.9526551881        3.1495962134        6.2926043643
  O         9.0249197381        3.6711027840        0.8694972115
  O        10.4284868213        0.9254034560        8.5444389448
  O        -0.2230364728        2.0559802292       15.6112814875
  O        -1.6346716034        4.8218908955        7.9719317745
  O         1.2995976111        4.9389269310        0.9019944697
  O         8.1818849495        1.9482913831        8.5380784747
  O         7.4823034135        0.8343119465       15.5880715920
  O         0.6126738330        3.7809135764        7.9722829449
  O        -0.5462582579        2.8114712256        3.6510433088
  O        -2.0062076246        5.4933884259       11.0320288440
  O         9.3280719159        2.9066639005       12.8786935255
  O        10.7822867767        0.2242953180        5.5059578760
  O         7.7888143864        0.0592069378        3.6475434883
  O         0.9897328937        3.1018389604       11.0259586482
  O         0.9936133596        5.6717657985       12.8865239346
  O         7.8059650156        2.6457819259        5.5027210785
  H         0.3547183314        3.0462674817        3.2868308396
  H         7.1065229267        0.0682817531       10.6807604331
  H         8.4249339477        2.6736813953       13.2361333257
  H         1.6677612260        5.6580360046        5.8515003340
  H        -1.3764476555        5.5587850505        3.2852756864
  H         0.1273096456        2.8037772435       10.6749254356
  H        10.1521417553        0.1911642663       13.2354564487
  H         8.6690915060        2.9441441480        5.8522673522
  H        -0.5548533767        3.0229037367        4.6026756846
  H        -2.0904411380        5.8709457549       11.9458839297
  H         9.3278679502        2.6987371803       11.9259986468
  H        10.8646574783       -0.1360369123        4.5855517071
  H         7.7815029477       -0.1570180796        4.5977654824
  H         1.0721039754        2.7305608158       11.9395289446
  H         1.0088818905        5.8980183532       11.9375687450
  H         7.7260192882        3.0040767489        4.5819973006
 Ca         3.6056340867        1.4152897298        2.7451242868
 Ca         8.0081431079        4.3053304513        9.5119536565
 Ca         5.1853120396        4.3157563956       13.7728937910
 Ca         6.4585981342        1.4318081408        6.9935044427
  S         8.0293729118        4.2881888084        1.8730426398
  S         3.6219752954        1.4347115571        9.3725164853
  S         6.4443191522        1.4442434829       14.6515768058
  S         5.1687626636        4.3016364676        7.1379120484
  O         1.8994982080        3.1629365590        2.9087891349
  O         3.1764417210        0.2770860102       10.2130663704
  O         6.8667510378        2.5829128511       13.6155323546
  O         5.6108555238        5.4535167595        6.2886062580
  O         8.4396403514        5.4321143637        2.9133778015
  O         4.0606825036        2.5903720388       10.2195633528
  O         0.3393516827        0.2735707049       13.6176410972
  O         4.7263671825        3.1493694857        6.2892782762
  O         3.3117625526        3.7061641618        0.8964184788
  O         4.7484081622        0.9236954459        8.5416715356
  O         5.4506070830        2.0532742197       15.6589154709
  O         4.0452168156        4.8216501600        7.9690480957
  O         7.0162066400        4.8928399214        0.9019156944
  O         2.5004782839        1.9479983306        8.5382615610
  O         1.7903735731        0.7887821704       15.5939798647
  O         6.2916368942        3.7809788311        7.9698378974
  O         5.1343809106        2.8134410991        3.6434671058
  O         3.6725538833        5.4910972976       11.0309329853
  O         3.6565245984        2.9068729998       12.8772295420
  O         5.1066564757        0.2270080633        5.4983978549
  O         2.1059182339        0.0596499136        3.6458467995
  O         6.6667806835        3.1002236064       11.0292895718
  O         6.6808758439        5.6721526823       12.8867201128
  O         2.1260568982        2.6435225856        5.5004302588
  H         6.0376228010        3.0453923861        3.2823533936
  H         1.4273761714        0.0678485028       10.6802298787
  H         2.7550482954        2.6684448229       13.2329924262
  H         7.3504069735        5.6572479199        5.8489332542
  H         4.2996937268        5.5594200545        3.2841524827
  H         5.8041532050        2.8019809903       10.6788003788
  H         4.4793223742        0.1926338980       13.2396953162
  H         2.9876833861        2.9464717916        5.8499177734
  H         5.1286322711        3.0231731635        4.5958888240
  H         3.5875281866        5.8645985466       11.9465910013
  H         3.6557396442        2.7009744031       11.9241908965
  H         5.1941742653       -0.1413571208        4.5814213312
  H         2.1028068533       -0.1566830727        4.5963529319
  H         6.7477961935        2.7399382003       11.9470452848
  H         6.6928446419        5.9019570878       11.9385973284
  H         2.0394040475        3.0100407957        4.5828765848
 Ca         1.0491032728        7.1787709676        2.7417495542
 Ca         5.4343293082       10.0334476581        9.5095844145
 Ca         2.5856101715       10.0202953934       13.7684031063
 Ca         3.8784967432        7.1713916498        6.9969390151
  S         5.4265752124       10.0542965716        1.8768722098
  S         1.0334103768        7.1686880038        9.3756964827
  S         3.8795028617        7.1506952900       14.6292406800
  S         2.5941217560       10.0368922076        7.1416487398
  O        -0.6651070907        8.8939189667        2.9241553830
  O         0.5989952641        6.0134222635       10.2257655058
  O         4.2897520463        8.2974646200       13.5965118814
  O         3.0372397349       11.1894733000        6.2941237285
  O         5.8617737402       11.1776753773        2.9258419607
  O         1.4819751066        8.3287375336       10.2115139660
  O        -2.2136283881        6.0355285159       13.6270986179
  O         2.1512919418        8.8846793998        6.2933003024
  O         0.7650457296        9.4015175081        0.9082716105
  O         2.1498024411        6.6568839364        8.5330922049
  O         2.8921441719        7.7526639143       15.6353336686
  O         1.4710107750       10.5575168514        7.9728348800
  O         4.4102790163       10.6892258387        0.9151110347
  O        -0.0972114623        7.6750381313        8.5471552838
  O        -0.7942316339        6.5791897467       15.6643242998
  O         3.7177241037        9.5168596959        7.9723687929
  O         2.5516139397        8.5427424813        3.6482576751
  O         1.0966625460       11.2398148400       11.0317133464
  O         1.0854363333        8.6667499946       12.8855123724
  O         2.5305787652        5.9578368544        5.5021759453
  O        -0.4755868956        5.7932950347        3.6505359619
  O         4.0896906345        8.8470614963       11.0312273893
  O         4.1010139147       11.4317956943       12.8742644611
  O        -0.4466670251        8.3788310193        5.5031527526
  H         3.4533527219        8.7856301022        3.2923688056
  H        -1.1465314624        5.8033043336       10.6827472484
  H         0.1833269345        8.4131595402       13.2257507952
  H         4.7713574026       11.3934913269        5.8531493433
  H         1.7366216688       11.2916499818        3.2939193228
  H         3.2310445380        8.5358743283       10.6804757660
  H         1.8965195420        5.9216904423       13.2254674260
  H         0.4158991287        8.6812573373        5.8510169798
  H         2.5547846774        8.7607488017        4.5984353852
  H         1.0144143193       11.6018853422       11.9485647420
  H         1.0723901699        8.4398596134       11.9364217648
  H         2.6116950263        5.5980228546        4.5819623147
  H        -0.4673629896        5.5806030278        4.6017553703
  H         4.1747693830        8.4634616057       11.9435063094
  H         4.1047124675       11.6361581385       11.9211158595
  H        -0.5285777302        8.7415659956        4.5836184298
 Ca         6.7291023237        7.1808887056        2.7466792132
 Ca        -0.2463360805       10.0338516368        9.5111404115
 Ca        -3.0976234480       10.0170567312       13.7723485477
 Ca        -1.7996416617        7.1715559299        6.9966867062
  S        -0.2375733925       10.0309241393        1.8874268205
  S         6.7164339834        7.1687567038        9.3742590737
  S        -1.8004738713        7.1741874589       14.6728145414
  S        -3.0845777772       10.0369939209        7.1393990173
  O         5.0124409346        8.9080729239        2.9108621794
  O         6.2781066810        6.0139575068       10.2229763675
  O        -1.3764288353        8.3119847133       13.6309685464
  O        -2.6412034517       11.1895925017        6.2917048421
  O         0.1823309315       11.1704384045        2.9280725515
  O         7.1618348228        8.3281253426       10.2123831540
  O         3.4370419739        6.0136294811       13.6024491776
  O        -3.5278083977        8.8846115265        6.2911708940
  O         6.4116351104        9.4522247635        0.8641938233
  O         7.8333061667        6.6557592727        8.5333473726
  O        -2.8035784845        7.7708821130       15.6733596347
  O        -4.2071911941       10.5576268264        7.9710900357
  O        -1.2239367550       10.6432874064        0.8840568326
  O         5.5907056600        7.6770710285        8.5412202431
  O         4.9077703764        6.5252581997       15.5722072101
  O        -1.9612811097        9.5174010838        7.9707512927
  O        -3.1254011576        8.5437854009        3.6459780034
  O        -4.5821148132       11.2378624893       11.0311951011
  O         6.7622459176        8.6659410204       12.8855226434
  O         8.2118635962        5.9600635085        5.4991117158
  O         5.2016708486        5.7965652020        3.6446903503
  O        -1.5906889083        8.8466106528       11.0336526788
  O        -1.5709684363       11.4312163785       12.8785552688
  O         5.2305895029        8.3766853170        5.4999766385
  H        -2.2220362049        8.7820486136        3.2906065301
  H         4.5321964626        5.8021597992       10.6819703659
  H         5.8618923674        8.4060709740       13.2263475737
  H        -0.9020102921       11.3929349925        5.8483127499
  H        -3.9464680242       11.2952933731        3.2930837741
  H        -2.4490794035        8.5345159178       10.6825333130
  H         7.5810683933        5.9290615177       13.2297361965
  H         6.0916652071        8.6822761099        5.8487139773
  H        -3.1232607636        8.7605136418        4.5965991913
  H        -4.6656870818       11.5985609291       11.9492157752
  H         6.7504956121        8.4376393232       11.9369722468
  H         8.2978723019        5.5949769185        4.5812982876
  H         5.2090221834        5.5813313651        4.5957959819
  H        -1.5057971851        8.4704397081       11.9487220821
  H        -1.5690448020       11.6377891301       11.9259506965
  H         5.1438701520        8.7470961177        4.5836017737
     192
 i =       29, E =     -2329.5099415416
 Ca         9.2513267204        1.3823654018        2.6948957065
 Ca         2.3313719877        4.3159440221        9.5139765893
 Ca        -0.4770926252        4.3273802628       13.7751204237
 Ca         0.7773525098        1.4261672143        6.9846426714
  S         2.3306081461        4.3098490227        1.8570320763
  S         9.3003183139        1.4365739195        9.3649267206
  S         0.7791676997        1.4216572898       14.7049615975
  S        -0.5106352152        4.3016442029        7.1426023794
  O         7.5652107865        3.1726952377        2.9218278283
  O         8.8577949155        0.2845519364       10.2120196979
  O         1.2120167910        2.5236169344       13.6278517376
  O        -0.0711044182        5.4535268171        6.2935932318
  O         2.7764970323        5.4250822131        2.9135148482
  O         9.7404754293        2.5917145758       10.2107655102
  O         6.0292370556        0.2924007818       13.6192296817
  O        -0.9502808667        3.1496865489        6.2937795397
  O         9.0556646618        3.6536352413        0.9850136374
  O        10.4268654823        0.9210509338        8.5382025649
  O        -0.2025781002        2.0360323073       15.7184570249
  O        -1.6352613894        4.8195433774        7.9722765138
  O         1.2631948106        4.9554315505        0.9768670576
  O         8.1783531228        1.9514621666        8.5332564999
  O         7.4775943776        0.8457951998       15.6278505437
  O         0.6128959864        3.7813516109        7.9729871849
  O        -0.5336811413        2.8229559872        3.6558026725
  O        -2.0041458774        5.4891835570       11.0309280288
  O         9.3317486916        2.8991686545       12.8827776278
  O        10.7800210876        0.2255551959        5.5063138807
  O         7.8039339551        0.0619989740        3.6402088835
  O         0.9963257836        3.0781128076       11.0164065773
  O         0.9684898666        5.6263761997       12.9146341109
  O         7.8084053428        2.6498577129        5.5028845767
  H         0.3626321966        3.0479506230        3.2730248205
  H         7.1098553805        0.0674716051       10.6770782300
  H         8.4255767078        2.6783650789       13.2368748047
  H         1.6656497169        5.6567324981        5.8551339891
  H        -1.3826774327        5.5594134192        3.2703439682
  H         0.1255499222        2.8059017267       10.6709679610
  H        10.1523619245        0.1877933129       13.2353200933
  H         8.6711101720        2.9452029748        5.8568165384
  H        -0.5641715785        3.0241843515        4.6091957804
  H        -2.0883898375        5.8698287134       11.9435864904
  H         9.3314449912        2.7023779553       11.9278378072
  H        10.8650084243       -0.1339672562        4.5865317840
  H         7.7773935289       -0.1609183907        4.5877648855
  H         1.0696519677        2.7393852625       11.9349644933
  H         1.0205992635        5.8962545815       11.9737371752
  H         7.7271827645        3.0002346824        4.5814640257
 Ca         3.5731878039        1.3771505021        2.6918938274
 Ca         8.0098992446        4.3140221025        9.5157036784
 Ca         5.2179203612        4.3670553037       13.7902116890
 Ca         6.4590079151        1.4256049853        6.9830097235
  S         7.9996943998        4.2989665404        1.8804613431
  S         3.6196946541        1.4340787516        9.3582435587
  S         6.4677839985        1.4357684016       14.6398769675
  S         5.1689528797        4.3017908685        7.1390100047
  O         1.9243951156        3.1457764582        2.8677811267
  O         3.1763827540        0.2809687727       10.2029734466
  O         6.8809806588        2.5783729848       13.6107075991
  O         5.6088301108        5.4532556668        6.2891546630
  O         8.4238997146        5.4415364891        2.9108313405
  O         4.0633248872        2.5871676873       10.2035754431
  O         0.3526578674        0.2813948313       13.6728110868
  O         4.7284323602        3.1491127036        6.2910641287
  O         3.2571408500        3.7229287399        0.7488333532
  O         4.7485567457        0.9181782281        8.5355217175
  O         5.4408564333        2.0515232804       15.5892676625
  O         4.0445757726        4.8192652901        7.9692836884
  O         7.0370383197        4.8835806088        0.8257493482
  O         2.4933622639        1.9529906373        8.5354888325
  O         1.7465321707        0.8062403994       15.7494371023
  O         6.2915056996        3.7812769603        7.9706887247
  O         5.1456335853        2.8223201554        3.6509233935
  O         3.6769615295        5.4816691085       11.0310422996
  O         3.6578698288        2.8982862986       12.8786756334
  O         5.1017385474        0.2247267327        5.4974024269
  O         2.1155017967        0.0679738676        3.6399313287
  O         6.6707190576        3.0768790017       11.0237616726
  O         6.6615522039        5.6203480530       12.9141529942
  O         2.1292362436        2.6473992193        5.5015213203
  H         6.0439089694        3.0449050248        3.2746811182
  H         1.4301326051        0.0672228623       10.6757528984
  H         2.7526077258        2.6727641932       13.2291127281
  H         7.3466009306        5.6549661952        5.8526450611
  H         4.2970389547        5.5621318083        3.2775483777
  H         5.8017280840        2.8033922289       10.6744662401
  H         4.4788992589        0.1883406576       13.2368962672
  H         2.9905086520        2.9485420016        5.8536064461
  H         5.1230477251        3.0265871828        4.6043054400
  H         3.5873042989        5.8631815890       11.9445773336
  H         3.6570642725        2.7039519234       11.9224688937
  H         5.1938735081       -0.1419594285        4.5814704169
  H         2.1015919294       -0.1601625951        4.5871181603
  H         6.7472848542        2.7489542142       11.9457472354
  H         6.7019494643        5.8989589589       11.9752643734
  H         2.0409214768        3.0101946960        4.5835360295
 Ca         1.0649944012        7.2032214536        2.6913373450
 Ca         5.4332406853       10.0245462386        9.5072585096
 Ca         2.5537474953        9.9891598142       13.7808909919
 Ca         3.8790412263        7.1775175191        6.9960243433
  S         5.4152222676       10.0590408868        1.8848974456
  S         1.0333631849        7.1684214495        9.3641363002
  S         3.8715816087        7.1467545113       14.5869016497
  S         2.5941672813       10.0366735255        7.1423897016
  O        -0.6204606049        8.8625175261        2.9465311765
  O         0.5953838075        6.0101345927       10.2068636464
  O         4.2890904324        8.3105497103       13.5886424464
  O         3.0379278945       11.1911816952        6.2987501813
  O         5.8635012338       11.1716147911        2.9369759635
  O         1.4808557352        8.3249365338       10.2035820020
  O        -2.2203357001        6.0176215389       13.6084256563
  O         2.1512720682        8.8830353735        6.2966932232
  O         0.7270221745        9.4512285463        0.8335742600
  O         2.1440435181        6.6566698672        8.5148866774
  O         2.8831176451        7.7308436413       15.5955549006
  O         1.4727317562       10.5572170638        7.9749818413
  O         4.4018592167       10.6836843151        0.9120975001
  O        -0.0977905386        7.6734274428        8.5367381177
  O        -0.7753187969        6.5940397394       15.5804360557
  O         3.7168768430        9.5192523450        7.9743739973
  O         2.5438079936        8.5391375097        3.6426076852
  O         1.0927951692       11.2648880039       11.0248203847
  O         1.1064509371        8.7133527841       12.9156651177
  O         2.5280441410        5.9549895243        5.5022294995
  O        -0.4863806561        5.7823186192        3.6548517158
  O         4.0870078713        8.8538603226       11.0275425720
  O         4.0990702345       11.4395655734       12.8737886086
  O        -0.4447999416        8.3771521869        5.5012042069
  H         3.4461851014        8.7855704102        3.2970388906
  H        -1.1467323509        5.8049485483       10.6826252542
  H         0.2029718557        8.4129061406       13.1989750756
  H         4.7707760285       11.3926723977        5.8567355334
  H         1.7475704942       11.2935117552        3.3023142433
  H         3.2310961405        8.5334973055       10.6804419049
  H         1.8747331540        5.9197502049       13.1973473810
  H         0.4158428725        8.6829068431        5.8526308039
  H         2.5560627797        8.7650508755        4.5906581066
  H         1.0176088802       11.5938358769       11.9466554174
  H         1.0614677311        8.4428532599       11.9738470723
  H         2.6094449324        5.6003573484        4.5816304196
  H        -0.4563957794        5.5800697640        4.6074690611
  H         4.1702106432        8.4615710656       11.9376353664
  H         4.0995507193       11.6314498606       11.9179866133
  H        -0.5275708347        8.7417537143        4.5835206384
 Ca         6.7570459788        7.1985004003        2.6953088699
 Ca        -0.2468759036       10.0242413076        9.5093009417
 Ca        -3.1343096168        9.9835074262       13.7872799623
 Ca        -1.7998605647        7.1766159443        6.9947815175
  S        -0.2043414037       10.0227510422        1.9434938361
  S         6.7196676269        7.1680020394        9.3642697298
  S        -1.8004030629        7.1744458620       14.6162833657
  S        -3.0848191852       10.0367416763        7.1401877403
  O         5.0011220502        8.9080122022        2.9072476204
  O         6.2744306946        6.0080720519       10.2007703496
  O        -1.3528084411        8.3276790744       13.6164672595
  O        -2.6409288931       11.1911685125        6.2961376835
  O         0.2163693570       11.1653926713        2.9735225595
  O         7.1615593582        8.3220493459       10.2096100523
  O         3.4040229587        6.0155908857       13.5705395971
  O        -3.5276576701        8.8829132206        6.2945634734
  O         6.4273757545        9.4507602603        0.9188517779
  O         7.8310629979        6.6557799488        8.5164811846
  O        -2.8382716963        7.7655021036       15.5613440202
  O        -4.2055812254       10.5576495034        7.9732203638
  O        -1.2813299154       10.6286258974        1.0840568326
  O         5.5908002824        7.6787952394        8.5392020528
  O         4.8976258822        6.5387249798       15.5330626362
  O        -1.9619314488        9.5204429231        7.9725548073
  O        -3.1352524884        8.5368841285        3.6413520795
  O        -4.5851977729       11.2577915446       11.0236342710
  O         6.7798742815        8.7185738610       12.9124301725
  O         8.2080624266        5.9528225681        5.4989490542
  O         5.1984895983        5.7843114247        3.6477223066
  O        -1.5963136608        8.8552276522       11.0355967607
  O        -1.5750534662       11.4383842978       12.8785608814
  O         5.2338085282        8.3764971685        5.5014817738
  H        -2.2327553371        8.7839490133        3.2934400266
  H         4.5322751700        5.8042683586       10.6820110604
  H         5.8824849187        8.4047479187       13.2040128694
  H        -0.9053260408       11.3901732981        5.8504541972
  H        -3.9364072733       11.2963880603        3.2990225167
  H        -2.4495629358        8.5321287934       10.6807962641
  H         7.5602531057        5.9281123122       13.2076329062
  H         6.0936100510        8.6849727897        5.8510247726
  H        -3.1231553366        8.7645324489        4.5895722728
  H        -4.6639184065       11.5911648527       11.9462816403
  H         6.7427235048        8.4418130544       11.9723841796
  H         8.2957944888        5.5960997910        4.5803965316
  H         5.2153576961        5.5791738375        4.6009032074
  H        -1.5077158034        8.4698032581       11.9481141429
  H        -1.5710637707       11.6343783845       11.9232929079
  H         5.1457922067        8.7483151732        4.5856244575
     192
 i =       30, E =     -2330.1910506722
 Ca         9.3081788241        1.4448805076        2.7755849762
 Ca         2.3298512848        4.2967305276        9.5059290961
 Ca        -0.5268838323        4.2722355681       13.7496606916
 Ca         0.7797215771        1.4370111506        6.9963469450
  S         2.3056550621        4.3155396256        1.8665829845
  S         9.3032567714        1.4352396862        9.3652262130
  S         0.7757839908        1.4172862939       14.6523257269
  S        -0.5110256380        4.3016562576        7.1452253020
  O         7.5963416087        3.1527164584        2.9203065566
  O         8.8540444542        0.2713545062       10.1953965290
  O         1.1875644027        2.5439532387       13.5951394779
  O        -0.0679394906        5.4530536866        6.2955685048
  O         2.7384515042        5.4448277724        2.9154620123
  O         9.7398754289        2.5912231093       10.2140335708
  O         6.0415466343        0.2944423710       13.6238274471
  O        -0.9537752300        3.1502384247        6.2955702824
  O         9.0338815663        3.6605011498        0.8817859569
  O        10.4295518956        0.9256405680        8.5335872024
  O        -0.2212691433        2.0578098323       15.6276434364
  O        -1.6345150091        4.8235885021        7.9755204289
  O         1.3122391082        4.9434785767        0.8654782566
  O         8.1815682809        1.9487685981        8.5325684640
  O         7.4599672676        0.8457195203       15.6610523787
  O         0.6126837416        3.7808431136        7.9754394111
  O        -0.5554738822        2.8071123109        3.6517934070
  O        -2.0055493849        5.4997119115       11.0342679697
  O         9.3233242157        2.9131693646       12.8709942701
  O        10.7810216143        0.2187262494        5.5089786169
  O         7.7737562690        0.0487092314        3.6595758759
  O         0.9860816581        3.1129300305       11.0272642349
  O         1.0157353117        5.7045733285       12.8582697265
  O         7.8082393800        2.6462370518        5.5056745165
  H         0.3476483051        3.0493700153        3.2993886211
  H         7.1056083016        0.0733641560       10.6798607824
  H         8.4246431404        2.6709049719       13.2348182921
  H         1.6656344878        5.6537766515        5.8530532272
  H        -1.3699416710        5.5537482449        3.2988324017
  H         0.1284700282        2.7997888063       10.6733225300
  H        10.1475991546        0.1926319436       13.2303426280
  H         8.6710835608        2.9486142463        5.8530174983
  H        -0.5477640777        3.0320802480        4.6005669299
  H        -2.0890064781        5.8745723526       11.9479131091
  H         9.3256742926        2.6913030503       11.9218603915
  H        10.8592106643       -0.1434873476        4.5890546635
  H         7.7850592352       -0.1643766749        4.6109464442
  H         1.0710874995        2.7183199068       11.9370668599
  H         0.9949189283        5.9013179487       11.9042645120
  H         7.7307339051        3.0139160242        4.5865521014
 Ca         3.6263383420        1.4448798058        2.7796407973
 Ca         8.0071494512        4.2971585112        9.5081890953
 Ca         5.1472318094        4.2740918921       13.7557132335
 Ca         6.4597478170        1.4369741930        6.9969288292
  S         8.0335627994        4.2833487421        1.8772515211
  S         3.6233511557        1.4347294612        9.3623386492
  S         6.4563524070        1.4408612972       14.6631948804
  S         5.1684786283        4.3015909976        7.1412082819
  O         1.8955742491        3.1742989320        2.9150109497
  O         3.1758386754        0.2735121647       10.1973666092
  O         6.8794989549        2.5753530645       13.6176101838
  O         5.6116001470        5.4530138617        6.2912098916
  O         8.4383883815        5.4330834384        2.9165890979
  O         4.0627635005        2.5936420709       10.2050841292
  O         0.3404961060        0.2784989077       13.6163902783
  O         4.7252817130        3.1503471154        6.2910511041
  O         3.3069998293        3.7097626609        0.8791580895
  O         4.7479832476        0.9231392778        8.5297304753
  O         5.4299247166        2.0618541562       15.6166137967
  O         4.0453824008        4.8238202936        7.9718695728
  O         7.0249923346        4.8911051688        0.9005686005
  O         2.5009591823        1.9467573915        8.5297391381
  O         1.7782784917        0.7897172215       15.6353301907
  O         6.2918585457        3.7810030009        7.9722006215
  O         5.1253510600        2.8103995219        3.6464659527
  O         3.6716623850        5.5005593089       11.0302945468
  O         3.6539574272        2.9161436053       12.8683665993
  O         5.1059479725        0.2213592526        5.5042422275
  O         2.0947640052        0.0465808545        3.6583678343
  O         6.6638556546        3.1110801579       11.0313509637
  O         6.7042333183        5.7115501458       12.8601866618
  O         2.1282456002        2.6465864440        5.5026444461
  H         6.0299479916        3.0487461743        3.2927908847
  H         1.4264461104        0.0727517067       10.6800605207
  H         2.7582335558        2.6644572559       13.2309235706
  H         7.3482656550        5.6523052720        5.8501214905
  H         4.3057878754        5.5559718362        3.2931491464
  H         5.8056018685        2.7976839443       10.6787860731
  H         4.4752584688        0.1967945402       13.2356913827
  H         2.9900175289        2.9511277705        5.8507015077
  H         5.1337521967        3.0317068798        4.5959390439
  H         3.5892916303        5.8667634430       11.9469384601
  H         3.6548732499        2.6944771351       11.9196307477
  H         5.1893441060       -0.1489840181        4.5875451629
  H         2.1041445433       -0.1648756596        4.6103238664
  H         6.7449363447        2.7288292177       11.9457791474
  H         6.6824668021        5.9061004638       11.9059340385
  H         2.0434527073        3.0180773568        4.5865456743
 Ca         1.0335312431        7.1599913941        2.7776344210
 Ca         5.4353323600       10.0419083759        9.5095274367
 Ca         2.6147631679       10.0530855180       13.7512077521
 Ca         3.8768645081        7.1661874177        6.9917906668
  S         5.4169840810       10.0568702368        1.8740289343
  S         1.0308788170        7.1673483881        9.3662578914
  S         3.8897103567        7.1456864881       14.6645814995
  S         2.5943522409       10.0370547594        7.1457727514
  O        -0.6648900578        8.8965438945        2.9199827335
  O         0.5978853230        6.0122320524       10.2176364380
  O         4.2985109289        8.2740137841       13.6016085546
  O         3.0361520291       11.1874016987        6.2940097161
  O         5.8467653582       11.1879396357        2.9177937272
  O         1.4802999513        8.3287088267       10.1995757712
  O        -2.2129831938        6.0303637164       13.6062775111
  O         2.1521960487        8.8865897103        6.2943276707
  O         0.7604211657        9.3841174195        0.8783751803
  O         2.1545123462        6.6540115289        8.5355446740
  O         2.8723506421        7.7694964995       15.6167440620
  O         1.4695217614       10.5577862816        7.9740142437
  O         4.4276697917       10.6859103741        0.8672352915
  O        -0.1009939374        7.6793049329        8.5427461646
  O        -0.7717617692        6.5685586707       15.6054152104
  O         3.7188351790        9.5146118595        7.9738575708
  O         2.5611395177        8.5538701424        3.6568763832
  O         1.1012251200       11.2292114341       11.0348554661
  O         1.0608459323        8.6311491635       12.8561256743
  O         2.5283800471        5.9563931823        5.5060328423
  O        -0.4666804485        5.7963023023        3.6509893679
  O         4.0893550284        8.8392504558       11.0319812785
  O         4.0992561528       11.4254223941       12.8663776292
  O        -0.4450536121        8.3848541327        5.5077361114
  H         3.4611869971        8.7896685696        3.2903055835
  H        -1.1462611094        5.8046123264       10.6781757179
  H         0.1639547163        8.4131063268       13.2489428987
  H         4.7691045639       11.3899110160        5.8555736249
  H         1.7261431291       11.2860273521        3.2898876597
  H         3.2308193745        8.5350152274       10.6739169305
  H         1.9129535732        5.9212419646       13.2502219883
  H         0.4186274371        8.6847543894        5.8543366923
  H         2.5530876364        8.7676191401        4.6081680724
  H         1.0161752109       11.6137098151       11.9480991074
  H         1.0842810211        8.4358427455       11.9023201757
  H         2.6073896183        5.5895554746        4.5869463431
  H        -0.4750555822        5.5712511986        4.5999448887
  H         4.1740916424        8.4592818520       11.9439469166
  H         4.1073857599       11.6427238240       11.9164182877
  H        -0.5244194689        8.7477649410        4.5881756746
 Ca         6.7107953069        7.1630553806        2.7817807592
 Ca        -0.2461708239       10.0430012755        9.5112615517
 Ca        -3.0632921163       10.0607604972       13.7558364040
 Ca        -1.8008427081        7.1665454707        6.9911648632
  S        -0.2318601827       10.0245770196        1.8703434450
  S         6.7144324535        7.1674262861        9.3638506955
  S        -1.7963121575        7.1727765152       14.6449308691
  S        -3.0843238458       10.0373515607        7.1431162184
  O         5.0036892353        8.9125325767        2.9154152737
  O         6.2774991323        6.0137749491       10.2153050794
  O        -1.3798501111        8.3166597191       13.6078880638
  O        -2.6424023451       11.1875119185        6.2908568462
  O         0.1878876313       11.1655714635        2.9125565659
  O         7.1612614224        8.3288180114       10.1982638147
  O         3.4646779071        6.0132726525       13.6196407021
  O        -3.5269974955        8.8869225244        6.2915117329
  O         6.4244343659        9.4444185630        0.8999457566
  O         7.8389511857        6.6527097901        8.5356683243
  O        -2.8311039941        7.7819125627       15.5927794243
  O        -4.2087322373       10.5577445256        7.9720296382
  O        -1.2252188304       10.6555752975        0.8840568326
  O         5.5897750467        7.6793863540        8.5318133813
  O         4.8817518695        6.5222748288       15.6693659767
  O        -1.9606653949        9.5147554757        7.9721212559
  O        -3.1176856521        8.5555638524        3.6566176686
  O        -4.5783502796       11.2281630622       11.0335554236
  O         6.7385324683        8.6272487274       12.8578625105
  O         8.2093372629        5.9587710160        5.5022614448
  O         5.2081921530        5.7998355381        3.6491167652
  O        -1.5907546948        8.8365853612       11.0344138192
  O        -1.5699953229       11.4230114871       12.8694743091
  O         5.2322538708        8.3844798241        5.5022012480
  H        -2.2154532681        8.7852645085        3.2911306613
  H         4.5326694632        5.8031050325       10.6773700895
  H         5.8412354296        8.4059641292       13.2451297476
  H        -0.9042266136       11.3888523650        5.8511355608
  H        -3.9552819766       11.2897394347        3.2903662389
  H        -2.4497337318        8.5326737080       10.6783290852
  H         7.6012889230        5.9291779517       13.2502693532
  H         6.0942377452        8.6862545005        5.8517058049
  H        -3.1239615444        8.7683120532        4.6081671549
  H        -4.6635865048       11.6079451577       11.9482967861
  H         6.7610059278        8.4339675350       11.9036499196
  H         8.2943977500        5.5854050195        4.5861922890
  H         5.2040363315        5.5722763985        4.5973444149
  H        -1.5081454686        8.4677558394       11.9499872745
  H        -1.5659691302       11.6448114074       11.9209681215
  H         5.1473041282        8.7539633377        4.5864199970
     192
 i =       31, E =     -2329.6142446189
 Ca         9.3066011049        1.4377380824        2.7732024703
 Ca         2.3300572146        4.2983774389        9.5064882340
 Ca        -0.5207023104        4.2781634616       13.7498096584
 Ca         0.7794092870        1.4361002731        6.9942571801
  S         2.2883084668        4.3221072183        1.9196521159
  S         9.3022474644        1.4345935111        9.3644197662
  S         0.7732956892        1.4184060040       14.6495133399
  S        -0.5109487867        4.3016817618        7.1454993469
  O         7.5633869072        3.1742260248        2.9131482883
  O         8.8544641183        0.2749670205       10.2011965987
  O         1.1855774273        2.5464639915       13.5945867551
  O        -0.0679410964        5.4529640960        6.2956756993
  O         2.7289706590        5.4657166904        2.9401863965
  O         9.7406825490        2.5913352471       10.2107373492
  O         6.0312571320        0.2819307410       13.6000080868
  O        -0.9537507009        3.1502610717        6.2958702283
  O         9.0687824585        3.6455575677        0.9882187839
  O        10.4287209147        0.9230808186        8.5342731934
  O        -0.2211914940        2.0561607349       15.6302704879
  O        -1.6345809448        4.8237707363        7.9753399089
  O         1.3078740715        4.9429326721        0.8971370317
  O         8.1802943695        1.9489910386        8.5325147133
  O         7.4904429066        0.8410904771       15.5517893450
  O         0.6127413215        3.7804811236        7.9754660808
  O        -0.5530209661        2.8097137268        3.6528795212
  O        -2.0047609961        5.4979512231       11.0337037818
  O         9.3219399276        2.9106649374       12.8696503103
  O        10.7806671096        0.2195172900        5.5094865484
  O         7.7742778822        0.0491676201        3.6603917835
  O         0.9849058861        3.1143501570       11.0284684467
  O         1.0128645691        5.6964871859       12.8610205208
  O         7.8084471193        2.6468892598        5.5066395155
  H         0.3497962573        3.0499850778        3.2984510317
  H         7.1056071577        0.0740094810       10.6787990951
  H         8.4228398001        2.6703430758       13.2336908436
  H         1.6655614648        5.6536462983        5.8542768246
  H        -1.3690485849        5.5530314488        3.2983711903
  H         0.1285643999        2.7994745153       10.6720841188
  H        10.1497559392        0.1930444504       13.2299070143
  H         8.6714027291        2.9488871535        5.8540559301
  H        -0.5481402516        3.0333490977        4.6019017602
  H        -2.0885207984        5.8758813682       11.9468289173
  H         9.3244609652        2.6904687369       11.9200280752
  H        10.8591277643       -0.1442026803        4.5899011143
  H         7.7834693946       -0.1663354040        4.6111965737
  H         1.0710298641        2.7175734507       11.9374090488
  H         0.9984490347        5.9022796890       11.9086079444
  H         7.7311593124        3.0139207727        4.5874248265
 Ca         3.6250232002        1.4367849476        2.7797614465
 Ca         8.0071517883        4.2987613973        9.5087079398
 Ca         5.1540712899        4.2842140285       13.7546367158
 Ca         6.4595605525        1.4357367409        6.9947583464
  S         7.9930161604        4.2978548942        1.8547666742
  S         3.6224805348        1.4342883770        9.3626015266
  S         6.4527772212        1.4430419334       14.6117005594
  S         5.1685775976        4.3017052796        7.1418100266
  O         1.8740414670        3.1692277529        2.9460789396
  O         3.1762697318        0.2769120739       10.2035342498
  O         6.8837113122        2.5902769466       13.5920399785
  O         5.6116256603        5.4529822368        6.2915827026
  O         8.3995656005        5.4407399423        2.9045654405
  O         4.0615634608        2.5918975313       10.2069967298
  O         0.3394805716        0.2799750439       13.6124967434
  O         4.7254400588        3.1503569695        6.2917678053
  O         3.3592363813        3.6932738088        1.0521155277
  O         4.7475251212        0.9211081252        8.5313716559
  O         5.4051430245        2.0713118217       15.5266743963
  O         4.0452249564        4.8238849769        7.9720023011
  O         7.0881925415        4.8682880041        0.7005686005
  O         2.5003685669        1.9471685856        8.5298193284
  O         1.7780460961        0.7890524305       15.6276557911
  O         6.2919119331        3.7807047477        7.9725263852
  O         5.1302660328        2.8125998346        3.6469921832
  O         3.6723163040        5.4986871067       11.0298374903
  O         3.6523030590        2.9133432315       12.8660892847
  O         5.1049995880        0.2216501841        5.5043046065
  O         2.0950471927        0.0469966046        3.6586500566
  O         6.6623580191        3.1113425987       11.0337654147
  O         6.7010628490        5.7035434722       12.8623698674
  O         2.1287766866        2.6473827812        5.5009710535
  H         6.0340921454        3.0491893711        3.2919514562
  H         1.4265961556        0.0733976210       10.6793124376
  H         2.7562775938        2.6636255628       13.2300733957
  H         7.3477285689        5.6517512067        5.8509442376
  H         4.3056664359        5.5551110033        3.2927448453
  H         5.8055926119        2.7973352030       10.6772784887
  H         4.4773112064        0.1972762280       13.2347487870
  H         2.9899682638        2.9515223756        5.8514463995
  H         5.1330663508        3.0326480093        4.5968011881
  H         3.5894271789        5.8682843039       11.9459500164
  H         3.6541694423        2.6937851101       11.9168053807
  H         5.1894964926       -0.1501372318        4.5879966483
  H         2.1023319362       -0.1667685406        4.6100745309
  H         6.7453866533        2.7282929546       11.9474953849
  H         6.6863956072        5.9072012887       11.9099094107
  H         2.0434197643        3.0188693190        4.5853600687
 Ca         1.0382817126        7.1657632481        2.7769835758
 Ca         5.4353594709       10.0400397816        9.5093230768
 Ca         2.6099329283       10.0414166602       13.7494563636
 Ca         3.8766686749        7.1672979859        6.9917198225
  S         5.4205125409       10.0553603346        1.8585225747
  S         1.0315724314        7.1683450756        9.3656962114
  S         3.8782156025        7.1487802436       14.6826959212
  S         2.5942920044       10.0369293169        7.1461982541
  O        -0.6708279226        8.8999380648        2.9156876140
  O         0.5959912651        6.0110327133       10.2122872093
  O         4.2849332183        8.2741497511       13.6128950801
  O         3.0365064608       11.1876567708        6.2951622851
  O         5.8477883756       11.1818480225        2.9113063841
  O         1.4798966598        8.3264301290       10.2042324286
  O        -2.2212300151        6.0445730208       13.6218460529
  O         2.1519051445        8.8863601971        6.2950060807
  O         0.7659833818        9.3799120723        0.8897962821
  O         2.1557993758        6.6543924372        8.5361858514
  O         2.9012537763        7.7577043761       15.7045653633
  O         1.4697680355       10.5579230794        7.9746217316
  O         4.4333747223       10.6816267854        0.8462114944
  O        -0.0988553033        7.6811695922        8.5408550565
  O        -0.7718215801        6.5700628260       15.6152488815
  O         3.7187572088        9.5147724074        7.9743151976
  O         2.5605132963        8.5533720060        3.6577054622
  O         1.1027661346       11.2286659592       11.0373281707
  O         1.0647543023        8.6395842930       12.8575710914
  O         2.5277266961        5.9553410044        5.5044444667
  O        -0.4657687526        5.7949981604        3.6529985880
  O         4.0884903586        8.8413243462       11.0317208476
  O         4.1011185751       11.4284532140       12.8645007492
  O        -0.4446361799        8.3841387441        5.5082858890
  H         3.4605260454        8.7905649821        3.2920987876
  H        -1.1462174402        5.8053567163       10.6779302425
  H         0.1675710091        8.4125290605       13.2421128803
  H         4.7691571433       11.3896025635        5.8564343748
  H         1.7266492365       11.2846813151        3.2924478934
  H         3.2309697082        8.5341790999       10.6735057137
  H         1.9106214558        5.9216463731       13.2438729769
  H         0.4186421577        8.6850461844        5.8554200935
  H         2.5540921293        8.7694555337        4.6083086449
  H         1.0164513119       11.6144662724       11.9497660730
  H         1.0801047864        8.4344086165       11.9057361049
  H         2.6074877950        5.5890079880        4.5856655643
  H        -0.4744386628        5.5699569935        4.6020215891
  H         4.1735190328        8.4574122872       11.9428789543
  H         4.1078173168       11.6432512753       11.9139442785
  H        -0.5242886582        8.7484941031        4.5889144198
 Ca         6.7167009536        7.1627319975        2.7820730680
 Ca        -0.2461266481       10.0411220630        9.5112032447
 Ca        -3.0686346397       10.0510579325       13.7542797040
 Ca        -1.8007219954        7.1674977170        6.9912476292
  S        -0.2379633975       10.0255813062        1.8623489520
  S         6.7151171736        7.1683259984        9.3630334624
  S        -1.8115703398        7.1785538414       14.6784804408
  S        -3.0844485466       10.0372386393        7.1434696524
  O         5.0101013668        8.9148281210        2.9081059306
  O         6.2760579151        6.0125458885       10.2100355219
  O        -1.3982553075        8.3142054718       13.6258099862
  O        -2.6420805626       11.1877949981        6.2919415975
  O         0.1792561888       11.1673688976        2.9055232198
  O         7.1613085640        8.3264031282       10.2025198211
  O         3.4560444432        6.0189987382       13.6309101400
  O        -3.5274406191        8.8866854278        6.2921544325
  O         6.4093282345        9.4500752131        0.8518721309
  O         7.8396120573        6.6530828961        8.5349493752
  O        -2.7912274719        7.7673679463       15.7219660351
  O        -4.2084979634       10.5579782444        7.9725756809
  O        -1.2169882486       10.6467669019        0.8476189395
  O         5.5903942913        7.6812148726        8.5316255620
  O         4.8876044059        6.5198172828       15.6592224196
  O        -1.9608360621        9.5149362317        7.9724908020
  O        -3.1170429200        8.5554049130        3.6572198379
  O        -4.5773662081       11.2280408320       11.0344091997
  O         6.7425480497        8.6351283065       12.8588495863
  O         8.2087508908        5.9579236522        5.5024254981
  O         5.2077480479        5.7979482344        3.6497237492
  O        -1.5915321039        8.8379775758       11.0337572448
  O        -1.5679543818       11.4257217664       12.8677001230
  O         5.2323713394        8.3833084880        5.5026628863
  H        -2.2148715133        8.7859129216        3.2931875870
  H         4.5326078757        5.8038578568       10.6771859391
  H         5.8451272166        8.4050708699       13.2387838491
  H        -0.9045916191       11.3882870409        5.8523909289
  H        -3.9553165945       11.2886898250        3.2930772958
  H        -2.4498889995        8.5316412180       10.6782089050
  H         7.5986387192        5.9293932198       13.2437392404
  H         6.0939988075        8.6868521467        5.8520499193
  H        -3.1230050926        8.7700375006        4.6083002458
  H        -4.6632373171       11.6082193216       11.9487394510
  H         6.7571924705        8.4326509116       11.9064844464
  H         8.2941664291        5.5845309580        4.5864620170
  H         5.2044605010        5.5712769295        4.5982603586
  H        -1.5088316531        8.4662285706       11.9488976576
  H        -1.5650836732       11.6453761732       11.9187388860
  H         5.1477631433        8.7552573577        4.5873120015
     192
 i =       32, E =     -2330.1823313779
 Ca         9.2774449544        1.4143914607        2.7440467967
 Ca         2.3309707365        4.3075374163        9.5097805340
 Ca        -0.4956602610        4.3073300302       13.7566737544
 Ca         0.7776289915        1.4310117976        6.9860824392
  S         2.3119893505        4.3155426509        1.8860577780
  S         9.2995241814        1.4338771947        9.3618538115
  S         0.7702906233        1.4212606535       14.6435777019
  S        -0.5108263199        4.3017644592        7.1455180021
  O         7.5947883904        3.1589540908        2.9234800469
  O         8.8564824501        0.2857740877       10.2159098841
  O         1.1942978969        2.5483185283       13.5963486252
  O        -0.0691210418        5.4529811963        6.2955701851
  O         2.7456379240        5.4470051055        2.9273556492
  O         9.7423526921        2.5917536146       10.2025455435
  O         6.0232776579        0.2980478929       13.6220205436
  O        -0.9523806503        3.1502113209        6.2960889692
  O         9.0278767711        3.6643221367        0.8781122278
  O        10.4262992481        0.9170038923        8.5359308587
  O        -0.2280897214        2.0495761021       15.6226987485
  O        -1.6351800882        4.8224656981        7.9743405488
  O         1.3036924020        4.9427112898        0.9076171330
  O         8.1768308510        1.9501019987        8.5318937044
  O         7.4786448870        0.8558773440       15.6026835530
  O         0.6128893662        3.7801602691        7.9748912764
  O        -0.5454214756        2.8186839108        3.6573967226
  O        -2.0024868236        5.4921218133       11.0330634501
  O         9.3239631617        2.9022061230       12.8706593535
  O        10.7793294158        0.2225171372        5.5087016453
  O         7.7848029899        0.0537786504        3.6558563170
  O         0.9864463053        3.1035858446       11.0271479950
  O         0.9912996313        5.6555648963       12.8841813803
  O         7.8098554793        2.6500942638        5.5048850653
  H         0.3552607106        3.0503557871        3.2886039343
  H         7.1075674416        0.0737679399       10.6763286998
  H         8.4210910953        2.6725188119       13.2322182885
  H         1.6651326142        5.6538512151        5.8568250129
  H        -1.3775883523        5.5534283022        3.2872640453
  H         0.1277241225        2.8008962633       10.6686595237
  H        10.1541820169        0.1919020339       13.2302267790
  H         8.6721517457        2.9483453789        5.8578838006
  H        -0.5547702285        3.0333291651        4.6080953157
  H        -2.0877916178        5.8767643074       11.9447280534
  H         9.3249948430        2.6927032248       11.9184248295
  H        10.8608433725       -0.1424936442        4.5899416305
  H         7.7785624827       -0.1691446736        4.6042423438
  H         1.0703639817        2.7231878907       11.9376143652
  H         1.0129233019        5.9021558472       11.9391821084
  H         7.7298309963        3.0099992707        4.5851807715
 Ca         3.6005690305        1.4141579986        2.7495329102
 Ca         8.0086839943        4.3071903308        9.5126647921
 Ca         5.1900272923        4.3204273262       13.7640681030
 Ca         6.4591219601        1.4300998238        6.9863964012
  S         8.0311909101        4.2859263714        1.8782885778
  S         3.6196980690        1.4333788347        9.3608202988
  S         6.4452815609        1.4472443511       14.6504987476
  S         5.1687328408        4.3017846135        7.1422794045
  O         1.9012864942        3.1681342481        2.9223163450
  O         3.1770852745        0.2852600609       10.2149405856
  O         6.8679354476        2.5824451434       13.6100786206
  O         5.6104628925        5.4529309185        6.2917991645
  O         8.4413977815        5.4327584476        2.9167299802
  O         4.0601458850        2.5866889296       10.2087003242
  O         0.3385081401        0.2774346306       13.6170303652
  O         4.7265167881        3.1500848329        6.2928830888
  O         3.3103949232        3.7126116730        0.8948503977
  O         4.7466371861        0.9154378023        8.5353860479
  O         5.4508330416        2.0564898227       15.6551760656
  O         4.0446987267        4.8224055428        7.9716330403
  O         7.0238883694        4.8891620682        0.9005686005
  O         2.4965383655        1.9500935711        8.5314097233
  O         1.7792957472        0.7897128768       15.6125476912
  O         6.2918043236        3.7802335024        7.9726374218
  O         5.1367316426        2.8172434562        3.6517593772
  O         3.6757333651        5.4897915425       11.0306775367
  O         3.6509404017        2.9035716741       12.8657366792
  O         5.1015723515        0.2226336312        5.5021437463
  O         2.1014487711        0.0539704461        3.6536798171
  O         6.6629633232        3.1006101742       11.0306494588
  O         6.6798140832        5.6585114157       12.8831574519
  O         2.1296322354        2.6479487365        5.5016969511
  H         6.0372970210        3.0493049035        3.2855184407
  H         1.4282154357        0.0729443923       10.6761540623
  H         2.7516510354        2.6650706645       13.2275673537
  H         7.3462073969        5.6512850375        5.8535923336
  H         4.2999719839        5.5559933650        3.2868001072
  H         5.8038457165        2.7981768769       10.6736114193
  H         4.4816014621        0.1947633843       13.2331473387
  H         2.9905512336        2.9518624776        5.8534017143
  H         5.1282534394        3.0333305832        4.6026245780
  H         3.5887443263        5.8698349346       11.9446278805
  H         3.6536720101        2.6958248615       11.9133902647
  H         5.1909062289       -0.1501474005        4.5868784918
  H         2.0982864572       -0.1692385679        4.6026042699
  H         6.7457154818        2.7344809107       11.9464214150
  H         6.6995607876        5.9067905642       11.9390127187
  H         2.0433374407        3.0177534172        4.5859313789
 Ca         1.0557198355        7.1849641689        2.7439837168
 Ca         5.4347351551       10.0312482551        9.5084015019
 Ca         2.5785360924       10.0153471010       13.7570115581
 Ca         3.8777155307        7.1732679928        6.9927638705
  S         5.4255515611       10.0528279465        1.8847336251
  S         1.0335628726        7.1703720929        9.3630224923
  S         3.8782474423        7.1452540542       14.6329231496
  S         2.5942005968       10.0365992708        7.1460064380
  O        -0.6639445961        8.8892603869        2.9237377669
  O         0.5916785553        6.0083125351       10.1984070997
  O         4.2899378392        8.2920884219       13.6008591824
  O         3.0376704883       11.1892850622        6.2987886089
  O         5.8611799341       11.1787363264        2.9296331790
  O         1.4793076561        8.3209916135       10.2128144993
  O        -2.2095306059        6.0340601903       13.6249020030
  O         2.1511631720        8.8848878047        6.2970730829
  O         0.7673653777        9.3960217184        0.9073438865
  O         2.1543473717        6.6558915049        8.5293073384
  O         2.8891971836        7.7472654151       15.6353236195
  O         1.4713484610       10.5579287273        7.9761360688
  O         4.4078310939       10.6804793646        0.9203935707
  O        -0.0937668457        7.6833462309        8.5347413607
  O        -0.7870514903        6.5901137089       15.6592219626
  O         3.7179389000        9.5163480958        7.9753890814
  O         2.5545786211        8.5487421544        3.6548856113
  O         1.1018929361       11.2395316633       11.0336389628
  O         1.0828708218        8.6804767697       12.8801703162
  O         2.5271687754        5.9542760705        5.5048141047
  O        -0.4777063219        5.7861936506        3.6561430506
  O         4.0856836940        8.8489562913       11.0313423637
  O         4.1035006960       11.4374901881       12.8640159211
  O        -0.4434660940        8.3806301003        5.5068743626
  H         3.4551241955        8.7912681712        3.2975264989
  H        -1.1463681965        5.8067875298       10.6783360782
  H         0.1836115617        8.4113455153       13.2142167698
  H         4.7697266105       11.3898558762        5.8589447701
  H         1.7345552983       11.2847393911        3.3008796129
  H         3.2313827462        8.5321038361       10.6742216768
  H         1.8926659829        5.9216686886       13.2151826254
  H         0.4178993884        8.6851610344        5.8572637644
  H         2.5569304832        8.7726381413        4.6033412567
  H         1.0187359162       11.6088210767       11.9483005579
  H         1.0653583104        8.4341968044       11.9354594258
  H         2.6067161506        5.5918420457        4.5856085258
  H        -0.4671353122        5.5702455655        4.6065564959
  H         4.1712078199        8.4545657321       11.9401212237
  H         4.1059159793       11.6403408475       11.9107808064
  H        -0.5249109410        8.7480206203        4.5886326198
 Ca         6.7360520887        7.1868721090        2.7508524657
 Ca        -0.2468663131       10.0315853938        9.5105147132
 Ca        -3.1046889517       10.0151166856       13.7622507056
 Ca        -1.8001972813        7.1724312317        6.9922106701
  S        -0.2362036464       10.0252864196        1.8863520887
  S         6.7179858490        7.1699642775        9.3606533642
  S        -1.7975114297        7.1744713645       14.6681932954
  S        -3.0846098057       10.0368722258        7.1435166216
  O         5.0123870948        8.9042871415        2.9171388206
  O         6.2725371469        6.0086983413       10.1952510655
  O        -1.3760738910        8.3149013303       13.6291166002
  O        -2.6410315120       11.1893729763        6.2957246452
  O         0.1790092039       11.1717024146        2.9210921560
  O         7.1611497798        8.3197850883       10.2127282726
  O         3.4357305074        6.0060826399       13.6090731117
  O        -3.5279957521        8.8848914732        6.2947153953
  O         6.4151635385        9.4511611120        0.8796608032
  O         7.8381539252        6.6546061601        8.5264006244
  O        -2.8096861496        7.7658005767       15.6575744595
  O        -4.2069436082       10.5584416987        7.9740212657
  O        -1.2327733457       10.6259245861        0.8903017548
  O         5.5917377014        7.6844217593        8.5329776634
  O         4.9045801023        6.5227677777       15.5808423642
  O        -1.9613621144        9.5174084776        7.9737399451
  O        -3.1222765615        8.5489799117        3.6533408745
  O        -4.5777120849       11.2387949894       11.0330287633
  O         6.7602306822        8.6793879023       12.8795525974
  O         8.2069677518        5.9536656191        5.5005640311
  O         5.2016403823        5.7882000274        3.6502266747
  O        -1.5952334137        8.8459645031       11.0346711795
  O        -1.5672731706       11.4351267282       12.8671175741
  O         5.2336157138        8.3793891478        5.5017802398
  H        -2.2201603837        8.7869686788        3.2982669709
  H         4.5324124579        5.8056396766       10.6778704767
  H         5.8633950559        8.4030698524       13.2140647471
  H        -0.9059406828       11.3873778763        5.8546981237
  H        -3.9496177630       11.2886316576        3.3006761410
  H        -2.4499522266        8.5294405476       10.6782683846
  H         7.5785728184        5.9296229075       13.2182472596
  H         6.0933654463        8.6877031154        5.8530852226
  H        -3.1207265707        8.7726361954        4.6022782024
  H        -4.6627092382       11.6032392485       11.9493274462
  H         6.7444332042        8.4330577186       11.9352257081
  H         8.2934662827        5.5861215496        4.5842459535
  H         5.2096606194        5.5711014675        4.6011342617
  H        -1.5100972212        8.4640637990       11.9477148716
  H        -1.5658013438       11.6429359208       11.9151166477
  H         5.1479914560        8.7561066114        4.5874749100
     192
 i =       33, E =     -2330.1951884794
 Ca         9.3025236414        1.4394172204        2.7737395929
 Ca         2.3290868247        4.2983815469        9.5078139426
 Ca        -0.5284841956        4.2701750081       13.7469935500
 Ca         0.7787458870        1.4374665060        6.9946240346
  S         2.3112324149        4.3168455480        1.8659214397
  S         9.3016958877        1.4352532526        9.3582680115
  S         0.7728604767        1.4167794380       14.6595376126
  S        -0.5110956067        4.3016794341        7.1477200618
  O         7.5934873145        3.1525443212        2.9210603447
  O         8.8533241330        0.2735926325       10.1912386477
  O         1.1868654483        2.5424232799       13.6017573587
  O        -0.0681423715        5.4526669472        6.2975525328
  O         2.7438532855        5.4439699966        2.9171546496
  O         9.7397414940        2.5894936729       10.2075418994
  O         6.0390042311        0.2963456402       13.6258095831
  O        -0.9535785275        3.1506924865        6.2973390962
  O         9.0359708682        3.6549089495        0.8921947292
  O        10.4257373892        0.9191758405        8.5277027682
  O        -0.2263020239        2.0487866221       15.6374167728
  O        -1.6351001346        4.8238000063        7.9764486340
  O         1.3093641189        4.9454618067        0.8770536669
  O         8.1785971369        1.9485254989        8.5274569153
  O         7.4628634942        0.8467691068       15.6593873819
  O         0.6130737366        3.7804040192        7.9763704012
  O        -0.5526626449        2.8115063428        3.6562678726
  O        -2.0041409367        5.5027899897       11.0343833651
  O         9.3227480842        2.9153866454       12.8695621009
  O        10.7796040475        0.2168938852        5.5106003470
  O         7.7753733702        0.0404743995        3.6634369899
  O         0.9852802540        3.1099776444       11.0276576326
  O         1.0190652909        5.6858440064       12.8545048692
  O         7.8095561229        2.6461613111        5.5077842530
  H         0.3489928225        3.0531614547        3.3003977763
  H         7.1069520027        0.0769880645       10.6770520560
  H         8.4239701567        2.6705508836       13.2302565732
  H         1.6647767850        5.6517767388        5.8571635581
  H        -1.3713002698        5.5505254823        3.2990713274
  H         0.1290034991        2.7986816910       10.6691942619
  H        10.1452145759        0.1922215045       13.2247295757
  H         8.6715505428        2.9508791078        5.8565179578
  H        -0.5490770492        3.0387321871        4.6042383589
  H        -2.0858144899        5.8770757308       11.9474005460
  H         9.3236427555        2.6891270878       11.9214232097
  H        10.8570775013       -0.1460986099        4.5915585807
  H         7.7824978103       -0.1725914771        4.6144984640
  H         1.0690396309        2.7159048381       11.9358026969
  H         0.9938610036        5.9004550230       11.9050103250
  H         7.7337389039        3.0167508414        4.5895231603
 Ca         3.6195102876        1.4389997712        2.7799015230
 Ca         8.0074105100        4.2980899932        9.5102604826
 Ca         5.1485531286        4.2794649439       13.7542249871
 Ca         6.4585162532        1.4365646582        6.9946717372
  S         8.0318060697        4.2827895772        1.8791005634
  S         3.6216590431        1.4340745582        9.3568270005
  S         6.4580509746        1.4421697992       14.6639609141
  S         5.1684649648        4.3016861476        7.1442902477
  O         1.8991333334        3.1681957541        2.9033589885
  O         3.1737837928        0.2732829487       10.1916750977
  O         6.8781021710        2.5749698803       13.6157344451
  O         5.6112823174        5.4526809934        6.2936125163
  O         8.4395848336        5.4334942291        2.9160373220
  O         4.0629305935        2.5923600297       10.1987435006
  O         0.3407967815        0.2780723812       13.6219155555
  O         4.7255568796        3.1506969732        6.2937175694
  O         3.3046631793        3.7131036702        0.8664003082
  O         4.7451242691        0.9175886720        8.5256281536
  O         5.4319212064        2.0645064637       15.6165181200
  O         4.0448468670        4.8236871593        7.9737282780
  O         7.0273264012        4.8888761588        0.8979797895
  O         2.4985211633        1.9479940209        8.5263635148
  O         1.7735789214        0.7914721161       15.6462952155
  O         6.2920770501        3.7805468362        7.9738556304
  O         5.1291291140        2.8143403137        3.6526662112
  O         3.6733137010        5.5029432588       11.0308239983
  O         3.6531663468        2.9193390381       12.8667173855
  O         5.1037029068        0.2180167574        5.5048379064
  O         2.0949232875        0.0407992447        3.6623093911
  O         6.6624293378        3.1078559860       11.0309726965
  O         6.7063580703        5.6929227663       12.8555986827
  O         2.1301965673        2.6469178721        5.5041416860
  H         6.0316362986        3.0516214919        3.2951209353
  H         1.4274294436        0.0762029882       10.6778961386
  H         2.7577139864        2.6628929857       13.2245473521
  H         7.3471706402        5.6488102533        5.8528699288
  H         4.3051601282        5.5541643912        3.2953759895
  H         5.8054614345        2.7955929562       10.6755243145
  H         4.4750135654        0.1969732770       13.2303031442
  H         2.9908426589        2.9540200939        5.8539871628
  H         5.1329858167        3.0387136987        4.6013305211
  H         3.5907931759        5.8679622554       11.9468808413
  H         3.6519989674        2.6923238547       11.9184552566
  H         5.1861985215       -0.1534483514        4.5895943052
  H         2.1017914427       -0.1728301651        4.6135115338
  H         6.7425778729        2.7271468720       11.9447310406
  H         6.6828966205        5.9057772103       11.9060096503
  H         2.0453851075        3.0235708419        4.5892292396
 Ca         1.0346811969        7.1639180005        2.7742555229
 Ca         5.4361926516       10.0415818069        9.5127480020
 Ca         2.6135677132       10.0482593515       13.7456886307
 Ca         3.8779984753        7.1667493911        6.9895929216
  S         5.4155735582       10.0559756703        1.8735088965
  S         1.0327164356        7.1673369961        9.3599315276
  S         3.8864103466        7.1428436791       14.6608841704
  S         2.5945532987       10.0371145554        7.1482050105
  O        -0.6605367280        8.8932774158        2.9248769068
  O         0.5989458279        6.0156603141       10.2145541276
  O         4.2958340627        8.2728205159       13.6012746129
  O         3.0362898987       11.1872745218        6.2960847657
  O         5.8454856379       11.1840493453        2.9207770996
  O         1.4803039013        8.3275876648       10.1950022346
  O        -2.2121876344        6.0316257249       13.6080639828
  O         2.1522752197        8.8869651798        6.2964436563
  O         0.7596593124        9.3879059921        0.8746712338
  O         2.1568460404        6.6551871596        8.5296178838
  O         2.8699252665        7.7614208561       15.6158606474
  O         1.4699493048       10.5576814923        7.9760795824
  O         4.4216394851       10.6836226858        0.8717055697
  O        -0.0948195710        7.6851943500        8.5344168331
  O        -0.7679290886        6.5762088083       15.6050997312
  O         3.7188356475        9.5147548304        7.9758989103
  O         2.5610412981        8.5616982628        3.6607410882
  O         1.1041707686       11.2341401053       11.0357529007
  O         1.0568523679        8.6484850115       12.8529451488
  O         2.5265734413        5.9560039505        5.5079681100
  O        -0.4692854698        5.7906535175        3.6555141260
  O         4.0867380348        8.8364241603       11.0315394553
  O         4.0956790434       11.4236462429       12.8653727020
  O        -0.4436256271        8.3867282724        5.5093563418
  H         3.4622658883        8.7932534547        3.2953959251
  H        -1.1459734739        5.8065299585       10.6749839652
  H         0.1643766103        8.4146157762       13.2436160682
  H         4.7685547826       11.3883645027        5.8603356697
  H         1.7262083700       11.2820378108        3.2958396525
  H         3.2301029904        8.5322387909       10.6701833228
  H         1.9114789891        5.9182502013       13.2467239856
  H         0.4191596466        8.6864096605        5.8591585624
  H         2.5551816701        8.7758453604        4.6116203122
  H         1.0191370939       11.6160237118       11.9482315750
  H         1.0818479636        8.4345209688       11.9031851637
  H         2.6044833074        5.5867799159        4.5896636895
  H        -0.4732908501        5.5646638432        4.6037479120
  H         4.1708075530        8.4548795430       11.9417506891
  H         4.1084570549       11.6442442168       11.9154287672
  H        -0.5221345116        8.7499763178        4.5906468086
 Ca         6.7156501497        7.1647665113        2.7797792330
 Ca        -0.2461636488       10.0422859440        9.5149829712
 Ca        -3.0682305896       10.0578978584       13.7521495530
 Ca        -1.7994348435        7.1662627467        6.9884867779
  S        -0.2289901032       10.0210642462        1.8759671719
  S         6.7159068218        7.1667567255        9.3576081190
  S        -1.7975015677        7.1737668672       14.6477035441
  S        -3.0843423711       10.0374870056        7.1460309452
  O         5.0033554129        8.9096233079        2.9126178585
  O         6.2792336148        6.0169301062       10.2134593908
  O        -1.3801900761        8.3169805797       13.6103318868
  O        -2.6423324543       11.1874932412        6.2936091130
  O         0.1875957251       11.1642667342        2.9167848417
  O         7.1619984312        8.3266967949       10.1937768155
  O         3.4589828293        6.0119174959       13.6157387049
  O        -3.5269714621        8.8871285376        6.2943896218
  O         6.4254862889        9.4444770359        0.9029246317
  O         7.8402341996        6.6527376552        8.5283842680
  O        -2.8361313706        7.7758887637       15.5946486018
  O        -4.2086609943       10.5578519618        7.9742527208
  O        -1.2335231838       10.6446831674        0.9038619483
  O         5.5917531494        7.6849393663        8.5286299467
  O         4.8815238433        6.5220613929       15.6609106381
  O        -1.9608106122        9.5151737122        7.9744515280
  O        -3.1163695985        8.5622896368        3.6613673925
  O        -4.5759420747       11.2318763972       11.0337730651
  O         6.7350598796        8.6464740454       12.8534140371
  O         8.2074242815        5.9574147957        5.5034714788
  O         5.2076949477        5.7922551792        3.6524470110
  O        -1.5943793765        8.8356370251       11.0351418925
  O        -1.5702969080       11.4201688459       12.8678581397
  O         5.2340324584        8.3869599125        5.5035177004
  H        -2.2137959521        8.7888139673        3.2956951783
  H         4.5330030112        5.8052027101       10.6743620464
  H         5.8437808869        8.4059412883       13.2401799003
  H        -0.9057462334       11.3855826024        5.8548674746
  H        -3.9557462261       11.2859302835        3.2960549780
  H        -2.4508755641        8.5288857323       10.6757971112
  H         7.5983855236        5.9269794396       13.2461759343
  H         6.0950363080        8.6889134768        5.8558724268
  H        -3.1225887588        8.7764694500        4.6124125584
  H        -4.6614502726       11.6104253094       11.9479997699
  H         6.7599384043        8.4332852393       11.9036152858
  H         8.2915114682        5.5800784007        4.5887648789
  H         5.2052684860        5.5658578891        4.6008062561
  H        -1.5117564965        8.4643689422       11.9495732259
  H        -1.5639452984       11.6468845899       11.9195761437
  H         5.1493798167        8.7581523434        4.5886882103
     192
 i =       34, E =     -2330.2400973498
 Ca         9.2924317464        1.4292583302        2.7668230767
 Ca         2.3300484153        4.3024785759        9.5093539917
 Ca        -0.5119990371        4.2883113922       13.7487717000
 Ca         0.7779553941        1.4341608238        6.9895657699
  S         2.3113042453        4.3175512298        1.8795237544
  S         9.3000479161        1.4339734486        9.3578252095
  S         0.7696484545        1.4183996100       14.6502431911
  S        -0.5110239106        4.3017614645        7.1476783273
  O         7.5926505708        3.1564980742        2.9225617841
  O         8.8539821161        0.2788317703       10.2008464872
  O         1.1864904987        2.5464028087       13.5983467371
  O        -0.0684578412        5.4526790931        6.2973873083
  O         2.7432204426        5.4480200968        2.9245757703
  O         9.7404369051        2.5887002413       10.2046087295
  O         6.0325357851        0.2959289119       13.6232545815
  O        -0.9531172431        3.1505709320        6.2975716610
  O         9.0344706235        3.6578963249        0.8917272681
  O        10.4252755149        0.9167003935        8.5295751571
  O        -0.2299703734        2.0477754686       15.6287260822
  O        -1.6351459521        4.8234890681        7.9761977418
  O         1.3104378537        4.9457782993        0.8892750913
  O         8.1770114763        1.9503379115        8.5283051002
  O         7.4728844812        0.8513951511       15.6288393941
  O         0.6128937092        3.7801109452        7.9764673139
  O        -0.5502295048        2.8169370014        3.6584512010
  O        -2.0021250251        5.4980769520       11.0345138290
  O         9.3209297361        2.9073133698       12.8674271505
  O        10.7788993970        0.2195587674        5.5104829958
  O         7.7769510015        0.0464595197        3.6632120634
  O         0.9842060774        3.1095527340       11.0287343240
  O         1.0035474940        5.6752640178       12.8654254449
  O         7.8105155251        2.6491780757        5.5073668951
  H         0.3512776610        3.0532981347        3.2967992928
  H         7.1073320250        0.0775903975       10.6761195162
  H         8.4203050808        2.6708741894       13.2305355824
  H         1.6644934587        5.6521070567        5.8590664630
  H        -1.3734868276        5.5501919156        3.2959787435
  H         0.1288918957        2.7985707859       10.6677502055
  H        10.1506980928        0.1922760792       13.2272903008
  H         8.6723638358        2.9504084015        5.8592616165
  H        -0.5513150707        3.0395803303        4.6073736944
  H        -2.0852511422        5.8795031213       11.9463197240
  H         9.3234743371        2.6889731280       11.9174441280
  H        10.8575250561       -0.1466603971        4.5921705777
  H         7.7797421257       -0.1749822584        4.6122987659
  H         1.0685160673        2.7170075975       11.9363513568
  H         1.0034337480        5.9024805067       11.9176195507
  H         7.7325991640        3.0150609885        4.5886692523
 Ca         3.6127444761        1.4314679992        2.7730008565
 Ca         8.0079132317        4.3020595301        9.5122028624
 Ca         5.1690476820        4.2982814094       13.7557735233
 Ca         6.4583504646        1.4332495333        6.9897960361
  S         8.0288250122        4.2845566173        1.8770238847
  S         3.6203061225        1.4333311287        9.3566958577
  S         6.4530949620        1.4447937753       14.6554957581
  S         5.1685502305        4.3017407623        7.1448960471
  O         1.8991346341        3.1717934837        2.9198225886
  O         3.1744848075        0.2789572592       10.2010593121
  O         6.8739139338        2.5787661378       13.6108412795
  O         5.6109344382        5.4527193388        6.2941736659
  O         8.4374258122        5.4327132741        2.9169306393
  O         4.0612894993        2.5881573951       10.2029689551
  O         0.3395097919        0.2788755360       13.6142812379
  O         4.7258360079        3.1504805817        6.2947850236
  O         3.3134783452        3.7094819619        0.8961293557
  O         4.7449693411        0.9149131799        8.5280653994
  O         5.4388865040        2.0641349270       15.6267062717
  O         4.0447692488        4.8234926540        7.9739369127
  O         7.0311044348        4.8874466967        0.8846755058
  O         2.4972254385        1.9500310786        8.5272104846
  O         1.7742450126        0.7897720239       15.6285415527
  O         6.2920196340        3.7803194317        7.9744248942
  O         5.1318736959        2.8179274908        3.6543487574
  O         3.6751742388        5.4969336734       11.0311867071
  O         3.6498326266        2.9114552925       12.8633035620
  O         5.1020551328        0.2199541977        5.5038931340
  O         2.0957785513        0.0460169127        3.6614376428
  O         6.6610061232        3.1068348912       11.0319692754
  O         6.6914850204        5.6808216063       12.8661249326
  O         2.1306114026        2.6487324797        5.5031157624
  H         6.0338503946        3.0518096249        3.2931380760
  H         1.4279267722        0.0764708992       10.6765288500
  H         2.7534559954        2.6631786164       13.2256505552
  H         7.3463130656        5.6488179019        5.8549664942
  H         4.3028099471        5.5536390359        3.2933957386
  H         5.8050424234        2.7955256657       10.6733712668
  H         4.4790991994        0.1963120781       13.2313590421
  H         2.9909760394        2.9540615000        5.8553308838
  H         5.1315237374        3.0396385447        4.6037180444
  H         3.5909716640        5.8707601877       11.9458272120
  H         3.6526590356        2.6926632478       11.9133515373
  H         5.1870244152       -0.1547308504        4.5894099004
  H         2.0990144257       -0.1752443508        4.6110032114
  H         6.7429353462        2.7285682530       11.9455104722
  H         6.6915889023        5.9074902723       11.9183970281
  H         2.0449584860        3.0228517228        4.5884134298
 Ca         1.0436181049        7.1742323050        2.7672422730
 Ca         5.4358056040       10.0366725376        9.5118396554
 Ca         2.5956774718       10.0310603972       13.7461706862
 Ca         3.8778750508        7.1701103519        6.9901978418
  S         5.4196332043       10.0544135763        1.8780860821
  S         1.0342896401        7.1697397522        9.3595109665
  S         3.8820817409        7.1433906046       14.6528166640
  S         2.5944351048       10.0368097479        7.1485151793
  O        -0.6663271537        8.8933725381        2.9215326723
  O         0.5952156919        6.0130691803       10.2040058235
  O         4.2926492933        8.2795869239       13.6029272230
  O         3.0368546791       11.1880233914        6.2982892600
  O         5.8511046166       11.1829477921        2.9233823816
  O         1.4806854818        8.3247803891       10.2026794484
  O        -2.2107396338        6.0336344307       13.6158221864
  O         2.1518807986        8.8861904593        6.2975907698
  O         0.7659655092        9.3852649609        0.8908210485
  O         2.1580172009        6.6545100065        8.5303234669
  O         2.8795296729        7.7549590576       15.6315778923
  O         1.4705268163       10.5578636477        7.9769918481
  O         4.4161925188       10.6811798392        0.8904332901
  O        -0.0920039701        7.6860093402        8.5315385198
  O        -0.7748717265        6.5842398955       15.6293305782
  O         3.7187000362        9.5153038762        7.9764338181
  O         2.5598787683        8.5560449564        3.6614686061
  O         1.1053578580       11.2349450116       11.0368573488
  O         1.0719964652        8.6569762121       12.8629841417
  O         2.5261700072        5.9542098480        5.5076197190
  O        -0.4718129621        5.7860497859        3.6576526196
  O         4.0848773131        8.8420127846       11.0324508120
  O         4.1007889114       11.4324762809       12.8622112222
  O        -0.4428029165        8.3839002733        5.5092091157
  H         3.4597693085        8.7943977031        3.2984292898
  H        -1.1459609475        5.8080642280       10.6756016811
  H         0.1735930597        8.4145237983       13.2281097730
  H         4.7690789658       11.3881982068        5.8614559435
  H         1.7288064873       11.2804972766        3.3000451574
  H         3.2306045027        8.5306554712       10.6706744675
  H         1.9020504554        5.9179788555       13.2299720336
  H         0.4188010454        8.6867238981        5.8602234628
  H         2.5569451056        8.7783539312        4.6103478042
  H         1.0204896184       11.6154668977       11.9490099044
  H         1.0727970389        8.4324224076       11.9145992773
  H         2.6045845389        5.5876973247        4.5890970853
  H        -0.4711524286        5.5636537791        4.6066290466
  H         4.1696786082        8.4511808101       11.9408196610
  H         4.1066916196       11.6436769162       11.9104713620
  H        -0.5222419502        8.7510647911        4.5911382602
 Ca         6.7249390958        7.1739098269        2.7734613284
 Ca        -0.2462489429       10.0372940010        9.5143475898
 Ca        -3.0862422682       10.0385393832       13.7528187771
 Ca        -1.7997873773        7.1692668086        6.9894561397
  S        -0.2325732706       10.0222606429        1.8756247279
  S         6.7172703479        7.1689910243        9.3570525302
  S        -1.7988678717        7.1744847547       14.6594911073
  S        -3.0844527084       10.0371565292        7.1465764349
  O         5.0083345194        8.9076984980        2.9167052287
  O         6.2757658503        6.0135552243       10.2021291574
  O        -1.3807424775        8.3170812004       13.6208496750
  O        -2.6418080746       11.1881996620        6.2959803038
  O         0.1815435318       11.1682251467        2.9138568227
  O         7.1624720898        8.3236661814       10.2013211418
  O         3.4510775120        6.0068399195       13.6175462663
  O        -3.5274347762        8.8862659782        6.2958802987
  O         6.4191099051        9.4477353190        0.8897475156
  O         7.8402765347        6.6519734916        8.5274343713
  O        -2.8246983380        7.7675032288       15.6306212442
  O        -4.2080464143       10.5583125828        7.9752449407
  O        -1.2269490213       10.6398015329        0.8849170331
  O         5.5926140403        7.6860688588        8.5281400347
  O         4.8906845877        6.5225272930       15.6312621173
  O        -1.9608697982        9.5160369562        7.9752599438
  O        -3.1171635768        8.5568404564        3.6610271248
  O        -4.5749585343       11.2338618458       11.0348349937
  O         6.7492530554        8.6571777361       12.8625496701
  O         8.2063403461        5.9544717608        5.5023495304
  O         5.2051261153        5.7880350203        3.6533800711
  O        -1.5957183292        8.8388535235       11.0356656251
  O        -1.5672630588       11.4277554647       12.8647090458
  O         5.2343393675        8.3835864389        5.5031246853
  H        -2.2153809584        8.7899428433        3.2997001128
  H         4.5326519827        5.8068364190       10.6754122619
  H         5.8535710552        8.4051000099       13.2258061207
  H        -0.9058639376       11.3850146589        5.8563573604
  H        -3.9542727437       11.2845857153        3.3004030497
  H        -2.4507101775        8.5274356887       10.6760312363
  H         7.5885798930        5.9269351857       13.2312128959
  H         6.0941489740        8.6896026557        5.8560278966
  H        -3.1204620156        8.7787962823        4.6103275764
  H        -4.6609077364       11.6092361290       11.9489993271
  H         6.7518197460        8.4314268910       11.9146155950
  H         8.2919504590        5.5804606106        4.5874856196
  H         5.2068333592        5.5648429219        4.6026258872
  H        -1.5125901819        8.4619119548       11.9491025321
  H        -1.5647090931       11.6463004850       11.9148650096
  H         5.1497815380        8.7595977976        4.5892223499
     192
 i =       35, E =     -2330.2408035410
 Ca         9.2944295778        1.4324678136        2.7704938698
 Ca         2.3299782009        4.3025825211        9.5099033079
 Ca        -0.5132307664        4.2880921002       13.7451334583
 Ca         0.7778198594        1.4344398862        6.9891258779
  S         2.3109522147        4.3187361653        1.8749665863
  S         9.2992274378        1.4334978507        9.3568647851
  S         0.7682259105        1.4176119767       14.6499585695
  S        -0.5110689155        4.3017538175        7.1483816974
  O         7.5927428437        3.1566528224        2.9210570064
  O         8.8536258527        0.2801847042       10.2027534990
  O         1.1872407970        2.5459769569       13.5994485556
  O        -0.0685074810        5.4525905802        6.2979894477
  O         2.7465775857        5.4464755303        2.9220198115
  O         9.7407399499        2.5882580665       10.2028502256
  O         6.0329752205        0.2956219013       13.6228762883
  O        -0.9531603124        3.1507065481        6.2980218529
  O         9.0305490095        3.6583296687        0.8863986345
  O        10.4236829492        0.9145321162        8.5283259867
  O        -0.2341208885        2.0442995136       15.6268145090
  O        -1.6352461668        4.8234815484        7.9766259471
  O         1.3087036912        4.9499900641        0.8880934721
  O         8.1766017698        1.9509184553        8.5270050140
  O         7.4738809633        0.8465213763       15.6259483876
  O         0.6128505454        3.7801142381        7.9769946529
  O        -0.5496781006        2.8193528172        3.6601941286
  O        -2.0013334295        5.4985838487       11.0350028646
  O         9.3205340713        2.9102346908       12.8679604955
  O        10.7783110000        0.2190750821        5.5106664587
  O         7.7763381141        0.0434631164        3.6655833685
  O         0.9838793575        3.1077726462       11.0285415905
  O         1.0023391796        5.6768854870       12.8608530349
  O         7.8107359759        2.6484919138        5.5085878138
  H         0.3512859718        3.0551290471        3.2975011838
  H         7.1078309769        0.0790008674       10.6756727691
  H         8.4201571578        2.6706479447       13.2288418780
  H         1.6643819794        5.6516750880        5.8607289845
  H        -1.3733049629        5.5487624699        3.2968191192
  H         0.1288492204        2.7979877301       10.6665677967
  H        10.1483642949        0.1919089726       13.2248397893
  H         8.6721719951        2.9509866008        5.8606809764
  H        -0.5515910859        3.0423391332        4.6088420004
  H        -2.0836698947        5.8807740038       11.9464791409
  H         9.3225525295        2.6881789572       11.9186568485
  H        10.8567822088       -0.1475081275        4.5926922193
  H         7.7790448924       -0.1781570555        4.6145091025
  H         1.0674645283        2.7161904822       11.9358521781
  H         1.0026970248        5.9031575640       11.9132933937
  H         7.7336106113        3.0158849555        4.5901918983
 Ca         3.6134194710        1.4315332123        2.7752871193
 Ca         8.0080065054        4.3021115291        9.5129607909
 Ca         5.1684997356        4.2982899152       13.7563701280
 Ca         6.4580658053        1.4333189594        6.9892131519
  S         8.0267925797        4.2850250084        1.8750800477
  S         3.6195735831        1.4328421552        9.3558173676
  S         6.4528438759        1.4439363173       14.6564018138
  S         5.1685496571        4.3017657648        7.1462399792
  O         1.8999269204        3.1702571963        2.9127129465
  O         3.1742276357        0.2804097166       10.2031256654
  O         6.8728348825        2.5783862441       13.6123246247
  O         5.6109165187        5.4526530897        6.2954385337
  O         8.4380002049        5.4316230675        2.9161166889
  O         4.0615622531        2.5871789258       10.2021235243
  O         0.3384907563        0.2760992684       13.6168391713
  O         4.7258969985        3.1506213342        6.2959260382
  O         3.3076513846        3.7108087099        0.8835841801
  O         4.7435859729        0.9126696313        8.5270475110
  O         5.4379836913        2.0623879628       15.6278290588
  O         4.0446375367        4.8234445167        7.9749392289
  O         7.0258934299        4.8910564040        0.8885321675
  O         2.4970297961        1.9509580874        8.5260603465
  O         1.7740023565        0.7884188164       15.6265448296
  O         6.2920753413        3.7802306731        7.9753890638
  O         5.1332318526        2.8199939241        3.6567230606
  O         3.6760290085        5.4966311768       11.0318718129
  O         3.6502177439        2.9132253662       12.8642119708
  O         5.1012941583        0.2195358653        5.5037746072
  O         2.0944074692        0.0433698191        3.6636959447
  O         6.6605055426        3.1053865684       11.0318030047
  O         6.6904524854        5.6859316168       12.8646225901
  O         2.1307997455        2.6481715410        5.5034866816
  H         6.0346107832        3.0531610630        3.2944619820
  H         1.4283517105        0.0776825700       10.6758772214
  H         2.7536462585        2.6631562482       13.2237140653
  H         7.3466108738        5.6479000117        5.8559478598
  H         4.3026884752        5.5527353046        3.2946228019
  H         5.8049290689        2.7947885192       10.6722723295
  H         4.4786631163        0.1961734679       13.2298857339
  H         2.9905685665        2.9548772950        5.8564057723
  H         5.1313927700        3.0425333535        4.6058451038
  H         3.5918440268        5.8712042658       11.9461325027
  H         3.6518438369        2.6922904221       11.9144504847
  H         5.1861565285       -0.1562317028        4.5898818498
  H         2.0985636157       -0.1782089375        4.6130335228
  H         6.7419353663        2.7278100568       11.9451926107
  H         6.6910376089        5.9077088296       11.9159132418
  H         2.0457653838        3.0247970002        4.5893868273
 Ca         1.0411707555        7.1700593541        2.7701284638
 Ca         5.4357743080       10.0368286210        9.5129317220
 Ca         2.5974490727       10.0312912216       13.7418796841
 Ca         3.8783533537        7.1700100224        6.9893866923
  S         5.4191088641       10.0548156105        1.8753032207
  S         1.0354216078        7.1702216034        9.3584464119
  S         3.8800217122        7.1444505712       14.6484875930
  S         2.5945328447       10.0368272089        7.1494196258
  O        -0.6613200021        8.8914145841        2.9230226932
  O         0.5955334545        6.0149829840       10.2042949375
  O         4.2911345565        8.2811815227       13.6001081977
  O         3.0368277078       11.1878508306        6.2988016801
  O         5.8501457376       11.1827229465        2.9217632346
  O         1.4810634308        8.3238968396       10.2038329766
  O        -2.2113400100        6.0338349629       13.6132063392
  O         2.1518847006        8.8863970192        6.2982571931
  O         0.7640935676        9.3892777444        0.8872337754
  O         2.1585692351        6.6545877715        8.5285247709
  O         2.8760806039        7.7557782485       15.6261525491
  O         1.4705585245       10.5578479717        7.9776118490
  O         4.4160978576       10.6836218026        0.8877315485
  O        -0.0897075660        7.6884024067        8.5299859476
  O        -0.7757464813        6.5803895020       15.6277831937
  O         3.7188622538        9.5151038909        7.9769325796
  O         2.5606947675        8.5593507578        3.6637490614
  O         1.1060869753       11.2374541476       11.0372982827
  O         1.0726660438        8.6519466821       12.8629316680
  O         2.5256269248        5.9545221586        5.5085392246
  O        -0.4718872640        5.7837358482        3.6596892783
  O         4.0838701588        8.8415891518       11.0330384835
  O         4.0976467383       11.4309437980       12.8628501900
  O        -0.4421928761        8.3842477554        5.5096971369
  H         3.4608339799        8.7958533013        3.3001150806
  H        -1.1459254180        5.8090506455       10.6747242365
  H         0.1728240592        8.4148548140       13.2280196456
  H         4.7690282963       11.3878683169        5.8633156538
  H         1.7280525290       11.2788637124        3.3017230972
  H         3.2305262515        8.5295898792       10.6696104087
  H         1.9008191682        5.9162137134       13.2288663143
  H         0.4189129508        8.6871119537        5.8620506804
  H         2.5576692993        8.7815458575        4.6125658391
  H         1.0219089709       11.6170207990       11.9492867945
  H         1.0727330314        8.4316700617       11.9134816662
  H         2.6038902596        5.5868853230        4.5902834376
  H        -0.4706636739        5.5609355370        4.6083228102
  H         4.1682477685        8.4489626552       11.9405071652
  H         4.1067776994       11.6440064166       11.9113640685
  H        -0.5214858812        8.7517499069        4.5920099688
 Ca         6.7232669641        7.1698935800        2.7756903454
 Ca        -0.2462688405       10.0373833594        9.5156541532
 Ca        -3.0865504950       10.0388807819       13.7515391105
 Ca        -1.7994571052        7.1690040648        6.9886945071
  S        -0.2323912543       10.0219618630        1.8775328294
  S         6.7179485126        7.1690387623        9.3562867063
  S        -1.7970609969        7.1742565610       14.6562532990
  S        -3.0843994960       10.0371720437        7.1478774697
  O         5.0083141394        8.9078683069        2.9142595573
  O         6.2758717529        6.0155548996       10.2036345958
  O        -1.3764979775        8.3174051382       13.6194569606
  O        -2.6418096667       11.1880026745        6.2969456027
  O         0.1813872117       11.1663483215        2.9184907595
  O         7.1628386862        8.3222446849       10.2027071702
  O         3.4515790272        6.0087055194       13.6111311313
  O        -3.5273216937        8.8864562010        6.2969309435
  O         6.4174344946        9.4479710389        0.8853942210
  O         7.8405100987        6.6511322003        8.5261070452
  O        -2.8209904281        7.7711067506       15.6275617101
  O        -4.2081302578       10.5584113203        7.9760998884
  O        -1.2303884635       10.6329168784        0.8889806207
  O         5.5939175458        7.6884276707        8.5276039691
  O         4.8907100317        6.5237032742       15.6240401930
  O        -1.9607732142        9.5158097582        7.9761326541
  O        -3.1158623555        8.5600419348        3.6634930744
  O        -4.5741003503       11.2351480199       11.0348894872
  O         6.7506209009        8.6526637266       12.8627158010
  O         8.2061397259        5.9549049560        5.5028961600
  O         5.2050838497        5.7853804166        3.6551704548
  O        -1.5965609216        8.8378839778       11.0364913051
  O        -1.5680537387       11.4263171774       12.8653440375
  O         5.2350690105        8.3839123558        5.5034398221
  H        -2.2140736635        8.7918619363        3.3010414985
  H         4.5325333233        5.8078009308       10.6747000184
  H         5.8536137273        8.4049045258       13.2254573990
  H        -0.9059895159       11.3841710206        5.8577209583
  H        -3.9553729799       11.2828752789        3.3017224976
  H        -2.4508692021        8.5260205059       10.6754887705
  H         7.5887703593        5.9263087267       13.2309730926
  H         6.0942430165        8.6902979606        5.8576956584
  H        -3.1199906671        8.7819298114        4.6127369665
  H        -4.6601195660       11.6106731433       11.9489067767
  H         6.7523992683        8.4311782016       11.9136589515
  H         8.2912527649        5.5785966636        4.5886402148
  H         5.2071131347        5.5622348050        4.6042452264
  H        -1.5143325570        8.4603774227       11.9496424359
  H        -1.5643421776       11.6465640613       11.9156629555
  H         5.1504013969        8.7608056932        4.5899080840
     192
 i =       36, E =     -2330.2411558243
 Ca         9.2928748759        1.4317022843        2.7731086462
 Ca         2.3302211878        4.3026317601        9.5107280313
 Ca        -0.5120816290        4.2897468615       13.7407640654
 Ca         0.7776400259        1.4340896338        6.9888187007
  S         2.3118907863        4.3187866335        1.8749285739
  S         9.2988436319        1.4334008544        9.3558849619
  S         0.7671900691        1.4163936340       14.6489271473
  S        -0.5111383837        4.3017680844        7.1490981781
  O         7.5926999193        3.1567843488        2.9215794621
  O         8.8530343999        0.2798133474       10.2013472861
  O         1.1856001147        2.5455163035       13.5989247749
  O        -0.0684800401        5.4524716759        6.2985302375
  O         2.7452134090        5.4471964568        2.9220837974
  O         9.7407021168        2.5875120361       10.2026238662
  O         6.0337311930        0.2948973619       13.6210962003
  O        -0.9531619039        3.1507913611        6.2985414940
  O         9.0293973987        3.6569762635        0.8851554583
  O        10.4226956287        0.9131456260        8.5270640232
  O        -0.2367995211        2.0411559959       15.6250153538
  O        -1.6354033361        4.8236236915        7.9769901519
  O         1.3110644365        4.9495342188        0.8852968298
  O         8.1760580507        1.9515174796        8.5263474817
  O         7.4728528464        0.8432804444       15.6256242471
  O         0.6128500298        3.7800365977        7.9774372019
  O        -0.5487940325        2.8215219693        3.6624374754
  O        -2.0004580512        5.4988724936       11.0352986853
  O         9.3190197373        2.9094481480       12.8665492551
  O        10.7778938426        0.2191712857        5.5107863518
  O         7.7754039558        0.0436334518        3.6676884725
  O         0.9829896017        3.1082930241       11.0289771752
  O         1.0005452991        5.6766363761       12.8589067586
  O         7.8114688782        2.6492132040        5.5089155627
  H         0.3518456485        3.0568830678        3.2985854765
  H         7.1081654308        0.0804501212       10.6754751721
  H         8.4188360778        2.6704638078       13.2288272906
  H         1.6641607330        5.6512817141        5.8621931486
  H        -1.3738796885        5.5468200792        3.2980421290
  H         0.1289293945        2.7971875841       10.6657189486
  H        10.1488938002        0.1919158985       13.2251504316
  H         8.6724771878        2.9514411670        5.8624029736
  H        -0.5510454327        3.0453466028        4.6108796624
  H        -2.0826790180        5.8823524762       11.9464474826
  H         9.3222765042        2.6871446961       11.9174421412
  H        10.8558528689       -0.1488654186        4.5932525137
  H         7.7781944518       -0.1811425820        4.6158828576
  H         1.0665823559        2.7147692037       11.9355616429
  H         1.0035583874        5.9044674651       11.9115352686
  H         7.7339207393        3.0167393480        4.5907693714
 Ca         3.6129358440        1.4327566589        2.7783089809
 Ca         8.0082153839        4.3021438402        9.5140075365
 Ca         5.1701980724        4.2995567263       13.7550371405
 Ca         6.4576139579        1.4329159181        6.9888774737
  S         8.0261793201        4.2846907063        1.8744216575
  S         3.6192401196        1.4327765260        9.3549918571
  S         6.4529948635        1.4428510304       14.6556297907
  S         5.1685377977        4.3017532039        7.1473246111
  O         1.9005706386        3.1728578590        2.9167779407
  O         3.1735335390        0.2799842685       10.2017017914
  O         6.8731024495        2.5776659144       13.6120654595
  O         5.6108913338        5.4524928354        6.2963100090
  O         8.4370561803        5.4316873952        2.9156838502
  O         4.0616662148        2.5868978841       10.2014435532
  O         0.3381260071        0.2763637544       13.6135291691
  O         4.7258497980        3.1507833621        6.2967467019
  O         3.3090122266        3.7107835170        0.8838687639
  O         4.7427165013        0.9114637865        8.5259649407
  O         5.4367238839        2.0610612095       15.6253287611
  O         4.0445732465        4.8236467849        7.9756775074
  O         7.0269406929        4.8914008159        0.8855092637
  O         2.4966839569        1.9515935640        8.5253742770
  O         1.7734021827        0.7867332298       15.6248631987
  O         6.2921486270        3.7801179671        7.9761571606
  O         5.1342478131        2.8217275493        3.6590272454
  O         3.6764540376        5.4966695375       11.0319431590
  O         3.6493413942        2.9130294098       12.8632663662
  O         5.1007489518        0.2195968575        5.5039414303
  O         2.0930799138        0.0427299726        3.6656829841
  O         6.6598266464        3.1055894164       11.0322593676
  O         6.6893276324        5.6875014014       12.8648556689
  O         2.1312128837        2.6490388391        5.5033586308
  H         6.0353775975        3.0545367118        3.2960657162
  H         1.4285402271        0.0788068591       10.6756101405
  H         2.7530887038        2.6630005449       13.2237271455
  H         7.3465819138        5.6472167734        5.8572616407
  H         4.3017597606        5.5511672532        3.2957648783
  H         5.8050379313        2.7939910831       10.6716020038
  H         4.4790406906        0.1960346421       13.2297920028
  H         2.9905520905        2.9555147416        5.8576055338
  H         5.1319775252        3.0453756050        4.6078454241
  H         3.5926037377        5.8721354990       11.9460576265
  H         3.6520883000        2.6918087626       11.9135843651
  H         5.1854334368       -0.1580471353        4.5905585068
  H         2.0975386755       -0.1812301767        4.6144735893
  H         6.7409200073        2.7265922082       11.9451360233
  H         6.6918766932        5.9086828909       11.9157329196
  H         2.0460845699        3.0260880823        4.5897294629
 Ca         1.0433755149        7.1717419572        2.7727519035
 Ca         5.4357457744       10.0365740931        9.5139921247
 Ca         2.5954281515       10.0293309396       13.7367358059
 Ca         3.8786924145        7.1703804293        6.9891956666
  S         5.4188513633       10.0553584971        1.8752243685
  S         1.0360557644        7.1708096967        9.3571363777
  S         3.8792437606        7.1450863233       14.6488200859
  S         2.5945999141       10.0367551769        7.1503023218
  O        -0.6622245405        8.8918164469        2.9231769950
  O         0.5953703090        6.0154183795       10.2023787639
  O         4.2913298545        8.2808022878       13.5993550755
  O         3.0369293129       11.1877619820        6.2995899796
  O         5.8495707822       11.1828559805        2.9227187465
  O         1.4819318081        8.3245677399       10.2023548546
  O        -2.2110999103        6.0352233659       13.6101781800
  O         2.1519012245        8.8864075453        6.2990104404
  O         0.7654988504        9.3863937205        0.8855071711
  O         2.1593536132        6.6542655162        8.5278165702
  O         2.8746188203        7.7592887520       15.6245976285
  O         1.4706483521       10.5578190115        7.9783783698
  O         4.4173375319       10.6849675630        0.8855562762
  O        -0.0883659997        7.6899853791        8.5282316184
  O        -0.7760775663        6.5764495899       15.6252229462
  O         3.7190704855        9.5150165642        7.9775146290
  O         2.5616207025        8.5594192104        3.6660281095
  O         1.1070702801       11.2384643159       11.0382449953
  O         1.0732287523        8.6493367611       12.8630163252
  O         2.5251423074        5.9539622414        5.5091271278
  O        -0.4728028303        5.7815844560        3.6619429332
  O         4.0830148862        8.8412782596       11.0335978569
  O         4.0979921041       11.4338289959       12.8614119533
  O        -0.4416687837        8.3841265924        5.5101778141
  H         3.4610396120        8.7972781871        3.3016424954
  H        -1.1458046783        5.8100821330       10.6739502338
  H         0.1723930968        8.4144388366       13.2270630193
  H         4.7691200612       11.3873858247        5.8644288096
  H         1.7279376995       11.2771204442        3.3034084033
  H         3.2304694150        8.5286722087       10.6687310132
  H         1.8993217101        5.9156929601       13.2258473180
  H         0.4189735561        8.6875807219        5.8633733452
  H         2.5584058137        8.7845280301        4.6140971091
  H         1.0230868400       11.6191629491       11.9498400576
  H         1.0717204567        8.4301484499       11.9131423542
  H         2.6033069582        5.5861041670        4.5910792889
  H        -0.4711709433        5.5579638046        4.6104050591
  H         4.1672725104        8.4465676628       11.9402975923
  H         4.1058189117       11.6447522759       11.9095312216
  H        -0.5205721515        8.7529380658        4.5928474437
 Ca         6.7249990858        7.1712971783        2.7782246521
 Ca        -0.2461623337       10.0372461164        9.5172351486
 Ca        -3.0879407437       10.0381118321       13.7492711374
 Ca        -1.7993080348        7.1693430576        6.9886743697
  S        -0.2314563344       10.0202549080        1.8754615017
  S         6.7182303505        7.1693485331        9.3552948354
  S        -1.7959639100        7.1747356520       14.6540773640
  S        -3.0843550791       10.0371262744        7.1489600782
  O         5.0088629626        8.9085097346        2.9153249558
  O         6.2754993306        6.0155324358       10.2018856067
  O        -1.3753922962        8.3186768746       13.6181742939
  O        -2.6418164180       11.1878820295        6.2978416689
  O         0.1805739024       11.1667300711        2.9150028811
  O         7.1634961117        8.3228617971       10.2012301711
  O         3.4507343148        6.0072591920       13.6142021804
  O        -3.5273419472        8.8865363578        6.2978329771
  O         6.4167355356        9.4483447183        0.8846821540
  O         7.8407589622        6.6504787927        8.5253681340
  O        -2.8192375849        7.7747235925       15.6244346754
  O        -4.2081138631       10.5585236304        7.9769475343
  O        -1.2277909173       10.6316351442        0.8846110209
  O         5.5948629570        7.6896463149        8.5260532596
  O         4.8901490438        6.5239468491       15.6246054308
  O        -1.9606620657        9.5157671365        7.9770021518
  O        -3.1147098783        8.5604557107        3.6655523940
  O        -4.5733803625       11.2357841869       11.0355023199
  O         6.7510901455        8.6508400479       12.8629282351
  O         8.2056737621        5.9541552986        5.5029487972
  O         5.2039672814        5.7829927862        3.6574931954
  O        -1.5972895969        8.8368482432       11.0370535986
  O        -1.5676622231       11.4267297077       12.8645129167
  O         5.2355863329        8.3839725094        5.5035269228
  H        -2.2134361430        8.7934037404        3.3030502094
  H         4.5323915040        5.8086068386       10.6742206723
  H         5.8535206534        8.4038968127       13.2242705726
  H        -0.9059200598       11.3834069111        5.8588841294
  H        -3.9561354347       11.2810736111        3.3033660795
  H        -2.4510905971        8.5247536137       10.6750539785
  H         7.5885581992        5.9268219963       13.2290222636
  H         6.0941864462        8.6910063515        5.8587881628
  H        -3.1189935447        8.7849004706        4.6141599709
  H        -4.6593117862       11.6120313969       11.9491558147
  H         6.7519794867        8.4299777179       11.9134654904
  H         8.2908915172        5.5771016639        4.5891279450
  H         5.2066327583        5.5593325564        4.6064090609
  H        -1.5153432277        8.4587048689       11.9500455230
  H        -1.5645170458       11.6471671064       11.9148496580
  H         5.1510588429        8.7622134535        4.5904523866
     192
 i =       37, E =     -2330.2413412833
 Ca         9.2926349305        1.4329537835        2.7743934290
 Ca         2.3304062319        4.3023932681        9.5116804786
 Ca        -0.5135385025        4.2902997598       13.7322875119
 Ca         0.7774400438        1.4340112989        6.9879231008
  S         2.3137528539        4.3195777331        1.8745553426
  S         9.2980088912        1.4329565180        9.3541893329
  S         0.7656795796        1.4139301995       14.6484101475
  S        -0.5112539766        4.3018213352        7.1503952176
  O         7.5922473931        3.1563670567        2.9217924524
  O         8.8520495677        0.2799035226       10.2004424478
  O         1.1846979662        2.5439426786       13.5993338136
  O        -0.0683875266        5.4523873617        6.2997027448
  O         2.7450065362        5.4477009968        2.9228904640
  O         9.7406497006        2.5863566471       10.2015090535
  O         6.0336895487        0.2938308078       13.6180527409
  O        -0.9533322343        3.1509061730        6.2996958113
  O         9.0277076585        3.6553011007        0.8850103779
  O        10.4210226880        0.9108779692        8.5249043633
  O        -0.2399913060        2.0354301680       15.6242531895
  O        -1.6356239073        4.8238178765        7.9778087698
  O         1.3133145484        4.9510701059        0.8842472304
  O         8.1752200791        1.9526757716        8.5250159188
  O         7.4715946363        0.8390418421       15.6245295890
  O         0.6127261102        3.7800252959        7.9784482129
  O        -0.5472861617        2.8230650588        3.6663591207
  O        -1.9988329278        5.5000713094       11.0356456439
  O         9.3172543157        2.9106702299       12.8653390558
  O        10.7773803200        0.2186677032        5.5111024378
  O         7.7733173253        0.0422714981        3.6714286177
  O         0.9815003827        3.1081308887       11.0294846275
  O         1.0004474318        5.6765940874       12.8545665923
  O         7.8120889057        2.6492978518        5.5099494698
  H         0.3521976946        3.0603777537        3.3015140533
  H         7.1090405943        0.0832364824       10.6750800019
  H         8.4175884526        2.6700919070       13.2278814266
  H         1.6641167001        5.6506313816        5.8645521213
  H        -1.3741162643        5.5433526061        3.3007930275
  H         0.1288633538        2.7956977173       10.6640625969
  H        10.1469181015        0.1915428267       13.2234178994
  H         8.6723788181        2.9522449292        5.8647893277
  H        -0.5496898957        3.0508406809        4.6138380329
  H        -2.0807454116        5.8851990904       11.9463205545
  H         9.3212916943        2.6852654112       11.9170792525
  H        10.8543478569       -0.1507119328        4.5941437377
  H         7.7772500929       -0.1862267147        4.6187519727
  H         1.0649767326        2.7123006863       11.9350417559
  H         1.0030875346        5.9061422291       11.9074585491
  H         7.7349666494        3.0183314839        4.5924417221
 Ca         3.6121674818        1.4333361771        2.7808936059
 Ca         8.0085321663        4.3019798611        9.5155713073
 Ca         5.1699323966        4.2996906525       13.7527284445
 Ca         6.4571412527        1.4329128291        6.9881914601
  S         8.0245060801        4.2843322688        1.8739776409
  S         3.6185241189        1.4325392638        9.3536403757
  S         6.4529057364        1.4404756993       14.6544311596
  S         5.1685689936        4.3017733428        7.1491859271
  O         1.9013520296        3.1725577352        2.9151671845
  O         3.1726833226        0.2801728971       10.2009626812
  O         6.8724338764        2.5758389355       13.6113165833
  O         5.6109672396        5.4523053603        6.2979302131
  O         8.4352991299        5.4317491973        2.9155068466
  O         4.0615675215        2.5860849917       10.2005982301
  O         0.3367657334        0.2747280163       13.6122241884
  O         4.7257987306        3.1509988989        6.2983329978
  O         3.3118559069        3.7108665927        0.8847412675
  O         4.7415834815        0.9098776470        8.5244801328
  O         5.4354943404        2.0570318368       15.6233039988
  O         4.0445415432        4.8238754439        7.9770862642
  O         7.0266507839        4.8917005803        0.8828994183
  O         2.4960550615        1.9527331842        8.5241481861
  O         1.7718020192        0.7833016381       15.6239756278
  O         6.2922142845        3.7799994067        7.9776075546
  O         5.1365152242        2.8236758894        3.6632335419
  O         3.6772471301        5.4980416313       11.0323978045
  O         3.6486926993        2.9145760854       12.8628078842
  O         5.1001552366        0.2186989880        5.5040388778
  O         2.0909135315        0.0410618388        3.6687317529
  O         6.6585521889        3.1051660875       11.0329742670
  O         6.6894001373        5.6891975017       12.8644428740
  O         2.1316194321        2.6490999214        5.5036404621
  H         6.0368567701        3.0572874387        3.2994835483
  H         1.4290930141        0.0808075599       10.6750231829
  H         2.7530010257        2.6630363713       13.2231240646
  H         7.3470176434        5.6460249180        5.8592142072
  H         4.3006852287        5.5483502775        3.2988078035
  H         5.8049884058        2.7925658293       10.6702980493
  H         4.4789209949        0.1952894250       13.2289937136
  H         2.9899928556        2.9566555188        5.8594515329
  H         5.1333022006        3.0507173651        4.6112103833
  H         3.5938155386        5.8729692904       11.9464881456
  H         3.6523230927        2.6912741303       11.9136445060
  H         5.1840925421       -0.1604419131        4.5914332283
  H         2.0960810581       -0.1862607205        4.6167129524
  H         6.7392037733        2.7244255506       11.9450918561
  H         6.6916728458        5.9097709484       11.9149291692
  H         2.0467752627        3.0288610452        4.5909527792
 Ca         1.0434106072        7.1707169169        2.7741869159
 Ca         5.4358616984       10.0368610411        9.5160169365
 Ca         2.5956998991       10.0296121940       13.7270611997
 Ca         3.8792792088        7.1703269804        6.9881162397
  S         5.4194283350       10.0561280233        1.8746493337
  S         1.0373836622        7.1718086883        9.3549230709
  S         3.8777007481        7.1460895460       14.6491235355
  S         2.5948063279       10.0366573495        7.1518146619
  O        -0.6613766578        8.8905247585        2.9228920217
  O         0.5957352854        6.0171880701       10.2007058210
  O         4.2913376768        8.2800893270       13.5982708814
  O         3.0369314833       11.1875512240        6.3007098486
  O         5.8492563858       11.1835881025        2.9228854713
  O         1.4831894958        8.3243008551       10.2019837414
  O        -2.2098555109        6.0405548583       13.6045107758
  O         2.1520024813        8.8866192287        6.3000848371
  O         0.7671358612        9.3847375098        0.8843986811
  O         2.1608515842        6.6534725512        8.5265131423
  O         2.8732662929        7.7638187226       15.6242166680
  O         1.4708387469       10.5576672229        7.9796564288
  O         4.4185534830       10.6874933528        0.8844227811
  O        -0.0859658731        7.6932743975        8.5256742570
  O        -0.7782564439        6.5708667296       15.6237934274
  O         3.7195391549        9.5146830494        7.9783868887
  O         2.5636880894        8.5611138566        3.6698804320
  O         1.1088459980       11.2411025251       11.0396519840
  O         1.0722731340        8.6454083864       12.8627718581
  O         2.5245373082        5.9537376936        5.5103035724
  O        -0.4743660388        5.7801208989        3.6659954516
  O         4.0814274721        8.8396281491       11.0343660103
  O         4.0947943283       11.4363705013       12.8607754166
  O        -0.4409847709        8.3846926467        5.5109110653
  H         3.4622836255        8.7997974209        3.3041596608
  H        -1.1454236301        5.8120139267       10.6722563074
  H         0.1704922021        8.4135271188       13.2265574665
  H         4.7693514013       11.3867933171        5.8666175608
  H         1.7269647271       11.2743482459        3.3055708046
  H         3.2300463872        8.5270715330       10.6669105240
  H         1.8984066051        5.9149149195       13.2230598318
  H         0.4189670873        8.6881028791        5.8659780035
  H         2.5596033312        8.7897124573        4.6171031576
  H         1.0252196493       11.6233816733       11.9508201043
  H         1.0706491156        8.4276177731       11.9124397405
  H         2.6021806025        5.5848023889        4.5927835204
  H        -0.4721962035        5.5526150853        4.6134998454
  H         4.1654578861        8.4426104083       11.9399281726
  H         4.1049698685       11.6460444164       11.9086291704
  H        -0.5190131321        8.7543576503        4.5940369530
 Ca         6.7252368067        7.1704957336        2.7803719585
 Ca        -0.2460064901       10.0376073860        9.5204327441
 Ca        -3.0882615533       10.0382873368       13.7448760043
 Ca        -1.7991025608        7.1693574977        6.9877157258
  S        -0.2310295369       10.0183371723        1.8743127168
  S         6.7188895009        7.1697586924        9.3537859732
  S        -1.7953782292        7.1765817501       14.6530960260
  S        -3.0842151902       10.0371005192        7.1507721289
  O         5.0098100138        8.9087973779        2.9150468425
  O         6.2755570673        6.0165806766       10.2009366879
  O        -1.3739667228        8.3208911735       13.6179708585
  O        -2.6417726389       11.1875952767        6.2991600631
  O         0.1792407535       11.1654000743        2.9148119774
  O         7.1641069734        8.3225351676       10.2008816005
  O         3.4494190418        6.0082900730       13.6141238844
  O        -3.5272250075        8.8867778395        6.2992301508
  O         6.4171766933        9.4479211813        0.8842803495
  O         7.8415301212        6.6493354933        8.5243546558
  O        -2.8170807421        7.7797741867       15.6238472018
  O        -4.2080921195       10.5586789008        7.9782886333
  O        -1.2279691878       10.6283109263        0.8834522438
  O         5.5961940973        7.6917960373        8.5242409813
  O         4.8891976449        6.5243088841       15.6245359166
  O        -1.9604121823        9.5156071719        7.9783969748
  O        -3.1122886780        8.5624164542        3.6689428091
  O        -4.5719739414       11.2371966031       11.0363654538
  O         6.7500366292        8.6485377192       12.8628710759
  O         8.2052341125        5.9537044102        5.5032106404
  O         5.2021885344        5.7804113899        3.6615188829
  O        -1.5985716994        8.8338919107       11.0379547716
  O        -1.5679354241       11.4261060306       12.8640003657
  O         5.2362176304        8.3844612298        5.5038250246
  H        -2.2116487923        8.7961640402        3.3058845286
  H         4.5323816241        5.8099860867       10.6730543808
  H         5.8525382938        8.4018825696       13.2237005533
  H        -0.9056968612       11.3822492535        5.8609179385
  H        -3.9575965480       11.2782262916        3.3059644492
  H        -2.4517456371        8.5224112757       10.6741796233
  H         7.5889488690        5.9280534450       13.2274275361
  H         6.0939420699        8.6920735396        5.8608132364
  H        -3.1176772281        8.7899928106        4.6168040666
  H        -4.6580299107       11.6147629339       11.9495891699
  H         6.7523287127        8.4282848840       11.9130722210
  H         8.2900859100        5.5745936308        4.5903199280
  H         5.2053679707        5.5540476598        4.6096779857
  H        -1.5172022223        8.4559257853       11.9509588281
  H        -1.5648987001       11.6478969409       11.9146768104
  H         5.1522770999        8.7642520562        4.5914266961
     192
 i =       38, E =     -2330.2415121838
 Ca         9.2914477482        1.4328616726        2.7771615374
 Ca         2.3306287555        4.3024711782        9.5137248629
 Ca        -0.5139676581        4.2944370804       13.7194995900
 Ca         0.7770268377        1.4335810117        6.9865957067
  S         2.3162634971        4.3207570674        1.8742114814
  S         9.2966477014        1.4325812531        9.3518110242
  S         0.7636554392        1.4098381454       14.6470285734
  S        -0.5115152795        4.3019419760        7.1524889044
  O         7.5920789319        3.1557477115        2.9224492711
  O         8.8510269096        0.2801831493       10.1993111489
  O         1.1840852496        2.5414344533       13.5996759690
  O        -0.0682263559        5.4520557934        6.3012875852
  O         2.7454429509        5.4485037975        2.9233691102
  O         9.7403838144        2.5849109056       10.2000396311
  O         6.0333967243        0.2917348063       13.6149284491
  O        -0.9535244056        3.1512646504        6.3012782814
  O         9.0245755220        3.6527163673        0.8842824759
  O        10.4192227537        0.9086189444        8.5225538571
  O        -0.2421404254        2.0292832517       15.6234939509
  O        -1.6361295666        4.8242866122        7.9789908815
  O         1.3160870933        4.9533080263        0.8836208479
  O         8.1737403169        1.9543453439        8.5230985276
  O         7.4705710398        0.8341482786       15.6238957745
  O         0.6124290040        3.7799917196        7.9800873591
  O        -0.5442629289        2.8256751738        3.6727721057
  O        -1.9958983726        5.5014208573       11.0363890901
  O         9.3139567152        2.9101089625       12.8630795945
  O        10.7767363697        0.2178705434        5.5117312464
  O         7.7707292874        0.0410741234        3.6761583110
  O         0.9787689821        3.1073352079       11.0306269699
  O         0.9992948732        5.6763248005       12.8487287840
  O         7.8128792051        2.6501873358        5.5116396892
  H         0.3531207586        3.0657023585        3.3055121209
  H         7.1105720208        0.0880591493       10.6743054103
  H         8.4147209474        2.6692616456       13.2270809633
  H         1.6640549880        5.6499194227        5.8684117308
  H        -1.3748433952        5.5381183917        3.3052666061
  H         0.1285022863        2.7930262405       10.6613408614
  H        10.1449974845        0.1912800912       13.2223030158
  H         8.6722290174        2.9532479829        5.8687119455
  H        -0.5481788380        3.0591511506        4.6188144212
  H        -2.0775660046        5.8911470275       11.9459359301
  H         9.3196318209        2.6818601996       11.9156928334
  H        10.8519367776       -0.1532170872        4.5955681753
  H         7.7758589473       -0.1937991091        4.6220243223
  H         1.0625330500        2.7080886447       11.9345924648
  H         1.0024700989        5.9089331317       11.9020807467
  H         7.7364911331        3.0203163214        4.5949963946
 Ca         3.6121133394        1.4341157697        2.7857041161
 Ca         8.0089518206        4.3020705605        9.5186892842
 Ca         5.1696972524        4.3008280690       13.7488249003
 Ca         6.4563445037        1.4325622469        6.9868865191
  S         8.0221116848        4.2836857939        1.8736954714
  S         3.6173888774        1.4324664019        9.3519389418
  S         6.4525100594        1.4362499518       14.6540172423
  S         5.1686680900        4.3017915045        7.1518817565
  O         1.9037972091        3.1737244664        2.9159380427
  O         3.1716993149        0.2806018825       10.2001597307
  O         6.8697296445        2.5716516241       13.6095846101
  O         5.6111659226        5.4518694504        6.3000474477
  O         8.4331089775        5.4315130990        2.9154419244
  O         4.0610862127        2.5852962261       10.1995485594
  O         0.3341218752        0.2726977962       13.6090138600
  O         4.7256475788        3.1515065349        6.3003634057
  O         3.3142369956        3.7110345761        0.8842659502
  O         4.7405346814        0.9086835449        8.5231625510
  O         5.4336474818        2.0489616876       15.6227940899
  O         4.0445433854        4.8242913525        7.9790554154
  O         7.0243253071        4.8924122822        0.8825981200
  O         2.4949406715        1.9542193062        8.5224415626
  O         1.7681302214        0.7763712538       15.6230085108
  O         6.2923644544        3.7797534329        7.9796497569
  O         5.1397629675        2.8268439004        3.6695369246
  O         3.6790858500        5.4988343573       11.0335760986
  O         3.6470881850        2.9158430546       12.8615091002
  O         5.0994314483        0.2180189749        5.5044638280
  O         2.0880535303        0.0385803541        3.6728316215
  O         6.6563521528        3.1040038417       11.0342370187
  O         6.6904124037        5.6895097699       12.8639684006
  O         2.1321029125        2.6503840931        5.5039130125
  H         6.0391159633        3.0613976748        3.3049813302
  H         1.4300463348        0.0841194877       10.6742316744
  H         2.7522969592        2.6631685922       13.2230008770
  H         7.3478104179        5.6443151812        5.8623216755
  H         4.2988500796        5.5439319781        3.3039318759
  H         5.8047090223        2.7901427293       10.6682670933
  H         4.4791276123        0.1936132069       13.2281623840
  H         2.9891791651        2.9582646312        5.8625302726
  H         5.1351850571        3.0588957537        4.6162325332
  H         3.5958286822        5.8751301810       11.9473563843
  H         3.6529970795        2.6903833450       11.9130521756
  H         5.1820014283       -0.1641633490        4.5931183129
  H         2.0943339410       -0.1938291028        4.6196156190
  H         6.7363255899        2.7206252997       11.9452152146
  H         6.6908053162        5.9113655206       11.9144893609
  H         2.0478517543        3.0323253431        4.5925682083
 Ca         1.0449896504        7.1705444488        2.7771468133
 Ca         5.4361459034       10.0369306108        9.5195933019
 Ca         2.5944626432       10.0287282272       13.7144858294
 Ca         3.8803446709        7.1705015014        6.9867562863
  S         5.4209001766       10.0570150299        1.8742766467
  S         1.0395536902        7.1729489297        9.3518072025
  S         3.8751504903        7.1475829402       14.6489345878
  S         2.5952715586       10.0364253608        7.1541763971
  O        -0.6608443326        8.8894604358        2.9233391837
  O         0.5961349691        6.0191780477       10.1979197581
  O         4.2909720905        8.2796252743       13.5968053730
  O         3.0370986455       11.1871948583        6.3024795777
  O         5.8492937620       11.1843098400        2.9235295466
  O         1.4850855282        8.3242410007       10.2008199423
  O        -2.2064128875        6.0501756542       13.5953567587
  O         2.1521377864        8.8869546666        6.3016771283
  O         0.7692950842        9.3835744887        0.8838787771
  O         2.1628948115        6.6521213754        8.5240097059
  O         2.8704719288        7.7675698719       15.6237591567
  O         1.4714627085       10.5571658909        7.9820286693
  O         4.4204543055       10.6899366269        0.8837566852
  O        -0.0828997592        7.6969253384        8.5225463322
  O        -0.7816357667        6.5669677805       15.6232175848
  O         3.7205456688        9.5140558758        7.9796344002
  O         2.5663722492        8.5627129601        3.6749489093
  O         1.1115159253       11.2465255711       11.0418095950
  O         1.0696140557        8.6423203830       12.8627885908
  O         2.5236496596        5.9529122135        5.5119181165
  O        -0.4770648522        5.7774864515        3.6723704915
  O         4.0786122274        8.8376078604       11.0361077043
  O         4.0901722962       11.4460483801       12.8591693193
  O        -0.4401918365        8.3853657563        5.5120710491
  H         3.4637583774        8.8035526579        3.3084163210
  H        -1.1448713207        5.8155712484       10.6694870253
  H         0.1671897292        8.4121279213       13.2260923789
  H         4.7698055861       11.3859922938        5.8699794750
  H         1.7258297584       11.2702037670        3.3094769977
  H         3.2293654930        8.5241082505       10.6643218155
  H         1.8964685876        5.9139936799       13.2182212805
  H         0.4186941785        8.6888636313        5.8698424290
  H         2.5612587462        8.7974604503        4.6207427584
  H         1.0284772424       11.6307022357       11.9526154232
  H         1.0686758646        8.4230029697       11.9125929119
  H         2.6004964723        5.5830481061        4.5951554461
  H        -0.4735909464        5.5444496785        4.6184861795
  H         4.1624839302        8.4353755001       11.9396021831
  H         4.1028135969       11.6486243142       11.9055590660
  H        -0.5161895655        8.7562593139        4.5958954777
 Ca         6.7256923775        7.1703363636        2.7847381572
 Ca        -0.2456246618       10.0380169119        9.5267163244
 Ca        -3.0896955867       10.0376929688       13.7378050446
 Ca        -1.7986188274        7.1697759976        6.9866131629
  S        -0.2313482860       10.0159747072        1.8731520324
  S         6.7199509690        7.1700914939        9.3518806869
  S        -1.7950192990        7.1803830672       14.6521448421
  S        -3.0838956008       10.0370514852        7.1533906871
  O         5.0117704260        8.9090391569        2.9149723180
  O         6.2757453592        6.0175949240       10.1995413360
  O        -1.3721141987        8.3253207425       13.6184892376
  O        -2.6417065033       11.1871923276        6.3009679390
  O         0.1769682025       11.1645941924        2.9134674127
  O         7.1648998482        8.3223953717       10.1999695915
  O         3.4474678272        6.0090051063       13.6142571549
  O        -3.5271298805        8.8872147038        6.3011173563
  O         6.4181932093        9.4479381972        0.8835218478
  O         7.8428413983        6.6480579149        8.5228776442
  O        -2.8161229363        7.7847242739       15.6232589209
  O        -4.2079185568       10.5588692667        7.9803006302
  O        -1.2292609320       10.6238343905        0.8825167055
  O         5.5975931104        7.6936426798        8.5222612920
  O         4.8872894870        6.5252140990       15.6240313647
  O        -1.9598808886        9.5154517979        7.9804287749
  O        -3.1092543455        8.5649205180        3.6732064593
  O        -4.5699716316       11.2405771306       11.0379677092
  O         6.7475802966        8.6465938083       12.8630031106
  O         8.2047280456        5.9528480500        5.5038504789
  O         5.1990739155        5.7770359199        3.6680186756
  O        -1.6007161149        8.8285533114       11.0397938497
  O        -1.5681418450       11.4262631306       12.8625063290
  O         5.2370644841        8.3852180095        5.5043166286
  H        -2.2092503835        8.8000081247        3.3103017125
  H         4.5324051582        5.8126736766       10.6716763319
  H         5.8506199956        8.3984117734       13.2230439025
  H        -0.9050347506       11.3804555199        5.8639416716
  H        -3.9597289515       11.2742404867        3.3097599477
  H        -2.4529734828        8.5180475581       10.6732711505
  H         7.5896208269        5.9306352400       13.2252251238
  H         6.0934262594        8.6936573964        5.8639438900
  H        -3.1158745434        8.7975848258        4.6199104366
  H        -4.6558291246       11.6191934530       11.9507951665
  H         6.7525743545        8.4251917737       11.9132997134
  H         8.2887612426        5.5711142149        4.5923140431
  H         5.2034979641        5.5457928775        4.6148462275
  H        -1.5203808164        8.4508689194       11.9529304595
  H        -1.5657980956       11.6492836942       11.9136620590
  H         5.1542471096        8.7671545350        4.5929462040
     192
 i =       39, E =     -2330.2416625556
 Ca         9.2922633701        1.4335619541        2.7785759713
 Ca         2.3305904968        4.3024434821        9.5153619246
 Ca        -0.5159498139        4.2965742906       13.7156230758
 Ca         0.7768906077        1.4334949429        6.9856967568
  S         2.3175525676        4.3215314705        1.8742538170
  S         9.2960328448        1.4328545593        9.3509318144
  S         0.7624049939        1.4076809259       14.6461295955
  S        -0.5118971556        4.3021242114        7.1537871953
  O         7.5918989013        3.1553925513        2.9230926657
  O         8.8509396709        0.2802780946       10.1985767542
  O         1.1845243189        2.5401234966       13.5998343100
  O        -0.0681579912        5.4518889617        6.3022063228
  O         2.7457233598        5.4488301066        2.9236553333
  O         9.7398031879        2.5848314163       10.1995875750
  O         6.0324969116        0.2886700399       13.6163131095
  O        -0.9537063299        3.1515385295        6.3022176778
  O         9.0226986824        3.6511830167        0.8844532969
  O        10.4194952825        0.9097766572        8.5223417938
  O        -0.2413094956        2.0280501704       15.6237166313
  O        -1.6367230703        4.8247338303        7.9796838509
  O         1.3168404369        4.9534541716        0.8842709160
  O         8.1728263230        1.9548380106        8.5223517562
  O         7.4720043446        0.8356928717       15.6238951691
  O         0.6117978975        3.7802079943        7.9814645633
  O        -0.5428099772        2.8254873606        3.6756201177
  O        -1.9942291685        5.5030750615       11.0366988557
  O         9.3129410124        2.9104588630       12.8630784739
  O        10.7762951991        0.2174891320        5.5121982586
  O         7.7695442757        0.0409262279        3.6775738761
  O         0.9765295577        3.1065074915       11.0318028702
  O         0.9999019219        5.6774303153       12.8449572824
  O         7.8132628423        2.6503474996        5.5123316897
  H         0.3532601544        3.0684593974        3.3082169575
  H         7.1111687418        0.0917091624       10.6740309622
  H         8.4136597166        2.6683229617       13.2261323331
  H         1.6642882210        5.6496839656        5.8705073854
  H        -1.3748942145        5.5355464119        3.3080944684
  H         0.1279203956        2.7907494986       10.6600167044
  H        10.1414041053        0.1917488865       13.2203901603
  H         8.6719037260        2.9536553922        5.8709181853
  H        -0.5476656053        3.0635275558        4.6206008666
  H        -2.0754992828        5.8962786524       11.9452688390
  H         9.3179259210        2.6791997825       11.9163090154
  H        10.8506465170       -0.1541197223        4.5963628545
  H         7.7759617499       -0.1974271844        4.6226667965
  H         1.0608115170        2.7048796339       11.9347075965
  H         1.0016814570        5.9108784170       11.8984234759
  H         7.7374913841        3.0212976249        4.5962992387
 Ca         3.6126629817        1.4341118398        2.7886272086
 Ca         8.0090569352        4.3020586800        9.5216733271
 Ca         5.1688243916        4.3008900357       13.7453764049
 Ca         6.4559843147        1.4324578884        6.9862032934
  S         8.0208599826        4.2829676095        1.8739608066
  S         3.6169197350        1.4328272396        9.3514937913
  S         6.4520290696        1.4332108114       14.6544691720
  S         5.1688312035        4.3018184553        7.1531721170
  O         1.9057275136        3.1737115914        2.9152760523
  O         3.1716640045        0.2809569460       10.2000038922
  O         6.8661949689        2.5669575750       13.6061808665
  O         5.6113983827        5.4516465431        6.3009466588
  O         8.4319009008        5.4311201632        2.9152036805
  O         4.0604338155        2.5853794444       10.1995274448
  O         0.3322884735        0.2712538297       13.6079513567
  O         4.7255617512        3.1517378481        6.3013706407
  O         3.3153080644        3.7119615015        0.8840698863
  O         4.7407304638        0.9095553189        8.5233755725
  O         5.4327527113        2.0434564068       15.6235636105
  O         4.0446927674        4.8245178704        7.9800275298
  O         7.0229554645        4.8916854688        0.8831565239
  O         2.4941673866        1.9545218826        8.5219486667
  O         1.7648200871        0.7724840717       15.6232947245
  O         6.2924962449        3.7797563441        7.9807122052
  O         5.1409607100        2.8279227962        3.6723483463
  O         3.6804807131        5.5000731822       11.0346255221
  O         3.6463546892        2.9164968052       12.8612398239
  O         5.0989630635        0.2174851927        5.5046485852
  O         2.0875692527        0.0389167438        3.6739423516
  O         6.6548113354        3.1025163415       11.0351561524
  O         6.6921697132        5.6878282063       12.8638889000
  O         2.1322447280        2.6503126332        5.5043294618
  H         6.0400446862        3.0633990476        3.3082029735
  H         1.4307729738        0.0865998313       10.6740779852
  H         2.7518090790        2.6632016013       13.2228456300
  H         7.3484555067        5.6434603905        5.8642908515
  H         4.2981407866        5.5416119652        3.3072323102
  H         5.8042766061        2.7883513296       10.6672049274
  H         4.4789622549        0.1918269679       13.2274919093
  H         2.9883971832        2.9592134014        5.8641745777
  H         5.1357337739        3.0633404851        4.6182566200
  H         3.5971585289        5.8766054804       11.9483296682
  H         3.6531046777        2.6897202651       11.9132477185
  H         5.1809797500       -0.1657618581        4.5939487674
  H         2.0943244479       -0.1975491555        4.6198236345
  H         6.7342297861        2.7176376139       11.9455030161
  H         6.6896782728        5.9120378700       11.9150223612
  H         2.0486099812        3.0341138173        4.5938282661
 Ca         1.0448570944        7.1695197269        2.7787040796
 Ca         5.4365991961       10.0370943029        9.5227242970
 Ca         2.5947919697       10.0302444388       13.7146119557
 Ca         3.8810280336        7.1703178002        6.9857486598
  S         5.4221266374       10.0572835261        1.8741989118
  S         1.0408012216        7.1727596477        9.3507080638
  S         3.8736964928        7.1479299615       14.6489563821
  S         2.5959803077       10.0360499262        7.1556468869
  O        -0.6605458301        8.8892725758        2.9232576769
  O         0.5970936130        6.0194687573       10.1973538483
  O         4.2901638163        8.2794551785       13.5968724760
  O         3.0371629407       11.1870097125        6.3036371739
  O         5.8492869602       11.1844506655        2.9237755373
  O         1.4857342436        8.3237696632       10.2005670955
  O        -2.2036894122        6.0541994155       13.5939244262
  O         2.1523561132        8.8871677909        6.3024290479
  O         0.7696804587        9.3848665765        0.8842683663
  O         2.1638592596        6.6509936737        8.5225951468
  O         2.8685805321        7.7671060530       15.6239618287
  O         1.4727787592       10.5559808170        7.9845608397
  O         4.4210807094       10.6895881569        0.8842778086
  O        -0.0830439001        7.6956660692        8.5228289552
  O        -0.7815412844        6.5712768998       15.6238362425
  O         3.7219134574        9.5133017939        7.9800541106
  O         2.5675107696        8.5629283037        3.6765995438
  O         1.1124849121       11.2499822236       11.0423001597
  O         1.0663665356        8.6427805531       12.8627724802
  O         2.5232231330        5.9528543236        5.5125013014
  O        -0.4783852985        5.7775117043        3.6753624168
  O         4.0773559231        8.8348654199       11.0372850888
  O         4.0833717520       11.4554436989       12.8586909807
  O        -0.4396550163        8.3857394221        5.5125122442
  H         3.4643783806        8.8051939098        3.3104031912
  H        -1.1446832540        5.8182025682       10.6673510700
  H         0.1641874993        8.4118061182       13.2266399597
  H         4.7700503311       11.3856379019        5.8720228448
  H         1.7252238916       11.2683960110        3.3111374795
  H         3.2289215880        8.5220533805       10.6630454503
  H         1.8965214785        5.9141627781       13.2159349654
  H         0.4184667078        8.6891472321        5.8722361840
  H         2.5613474037        8.8011852159        4.6216462940
  H         1.0305934397       11.6357198529       11.9531537238
  H         1.0671868482        8.4192955482       11.9135361087
  H         2.5994075211        5.5821043463        4.5963333921
  H        -0.4739038148        5.5401596146        4.6204707974
  H         4.1604895322        8.4305369004       11.9396469573
  H         4.1017198086       11.6515073062       11.9036477103
  H        -0.5144135026        8.7568580305        4.5966221019
 Ca         6.7252256341        7.1700780512        2.7875326768
 Ca        -0.2453159524       10.0382457627        9.5329441552
 Ca        -3.0908441542       10.0384974083       13.7332025024
 Ca        -1.7984160583        7.1699414240        6.9858475503
  S        -0.2326793404       10.0156946199        1.8730023695
  S         6.7204917109        7.1698626905        9.3515867387
  S        -1.7950985738        7.1828265484       14.6526129159
  S        -3.0834097893       10.0370095504        7.1546797896
  O         5.0130671170        8.9093083364        2.9149830516
  O         6.2762414885        6.0177172535       10.1996963268
  O        -1.3723271053        8.3274375594       13.6185534611
  O        -2.6415438656       11.1870430876        6.3017666618
  O         0.1758061058       11.1637672754        2.9140542506
  O         7.1648730463        8.3221639266       10.2000903230
  O         3.4463320030        6.0094364714       13.6136974044
  O        -3.5269286772        8.8874601921        6.3019480934
  O         6.4195655754        9.4485011919        0.8836503001
  O         7.8437207917        6.6478699049        8.5226794581
  O        -2.8169428668        7.7857189286       15.6236214646
  O        -4.2074286913       10.5588041356        7.9815244859
  O        -1.2311571381       10.6232900442        0.8832716544
  O         5.5973773269        7.6925372349        8.5224473350
  O         4.8862847375        6.5255992025       15.6236206701
  O        -1.9591941210        9.5155576765        7.9815092839
  O        -3.1084810112        8.5645499603        3.6743265563
  O        -4.5690516303       11.2441734752       11.0389848206
  O         6.7450492312        8.6463550366       12.8632612085
  O         8.2044103495        5.9527326593        5.5042920848
  O         5.1975659566        5.7764201408        3.6713929870
  O        -1.6018136836        8.8244542678       11.0408397741
  O        -1.5688102611       11.4260312755       12.8618165036
  O         5.2375417115        8.3855020909        5.5047000807
  H        -2.2087224856        8.8013214820        3.3120972549
  H         4.5327370854        5.8146752036       10.6711151691
  H         5.8486411564        8.3962190279       13.2231795148
  H        -0.9045920924       11.3795338340        5.8659288650
  H        -3.9600120497       11.2729189470        3.3114199694
  H        -2.4538135334        8.5144796307       10.6733584637
  H         7.5904192673        5.9328760860       13.2242315306
  H         6.0930461237        8.6945367006        5.8658121585
  H        -3.1158114696        8.8012624365        4.6201704926
  H        -4.6543888583       11.6224356124       11.9520254651
  H         6.7522972073        8.4227332976       11.9142199931
  H         8.2880296227        5.5696086892        4.5935381176
  H         5.2028114846        5.5411653246        4.6172437482
  H        -1.5227251968        8.4473669583       11.9543544317
  H        -1.5663792746       11.6505295371       11.9134552446
  H         5.1554937521        8.7683997054        4.5938643426
     192
 i =       40, E =     -2330.2418645712
 Ca         9.2930948035        1.4335616886        2.7793970881
 Ca         2.3301895019        4.3024137566        9.5177661410
 Ca        -0.5167668941        4.2986289636       13.7164666919
 Ca         0.7769595663        1.4335501643        6.9851414069
  S         2.3180983089        4.3222048344        1.8740091045
  S         9.2959516740        1.4336813578        9.3509019034
  S         0.7605499532        1.4064294882       14.6457769226
  S        -0.5129229302        4.3025871412        7.1550848854
  O         7.5919204662        3.1549140675        2.9236003657
  O         8.8515059812        0.2806635815       10.1984523232
  O         1.1850840029        2.5389911393       13.5996814996
  O        -0.0682505361        5.4518079997        6.3029822924
  O         2.7457965064        5.4485184250        2.9237785743
  O         9.7389857591        2.5854681031       10.2001802285
  O         6.0289980833        0.2820391301       13.6228522665
  O        -0.9539443959        3.1519022600        6.3030344525
  O         9.0209293183        3.6501320446        0.8847188525
  O        10.4203447297        0.9120001848        8.5231407919
  O        -0.2392937288        2.0306096530       15.6243916531
  O        -1.6383234279        4.8255078668        7.9800233214
  O         1.3165682476        4.9531746510        0.8852332102
  O         8.1721958413        1.9549010850        8.5225537977
  O         7.4737865599        0.8381897279       15.6242366533
  O         0.6099800883        3.7810647109        7.9837466422
  O        -0.5415992981        2.8252973776        3.6770424409
  O        -1.9931150189        5.5069743463       11.0374699966
  O         9.3117712362        2.9105235788       12.8642561710
  O        10.7759129260        0.2173160302        5.5126847574
  O         7.7691477023        0.0411733351        3.6769715244
  O         0.9738918519        3.1043482033       11.0333544028
  O         1.0002372024        5.6780271002       12.8396735108
  O         7.8134085426        2.6501560395        5.5126598728
  H         0.3537358392        3.0698867211        3.3098514138
  H         7.1114503254        0.0957291087       10.6732295676
  H         8.4126464972        2.6665325379       13.2262566269
  H         1.6647229357        5.6497869792        5.8721837009
  H        -1.3750199179        5.5343941303        3.3099619351
  H         0.1267405548        2.7877408868       10.6594894892
  H        10.1384490311        0.1955380701       13.2192842181
  H         8.6713166682        2.9537489593        5.8726861192
  H        -0.5484631016        3.0662467859        4.6213479791
  H        -2.0732158400        5.9026974164       11.9447344206
  H         9.3168049436        2.6762610253       11.9180427734
  H        10.8496648977       -0.1543523242        4.5969265321
  H         7.7774543218       -0.1992755505        4.6215374817
  H         1.0585546149        2.7013165259       11.9353428419
  H         1.0014330267        5.9134390182       11.8937072849
  H         7.7384337616        3.0219788328        4.5971395218
 Ca         3.6144715712        1.4339301012        2.7907279809
 Ca         8.0089078335        4.3019972024        9.5263369185
 Ca         5.1678242686        4.3000704331       13.7396891433
 Ca         6.4559714232        1.4321509929        6.9858054387
  S         8.0199357810        4.2819378543        1.8744277541
  S         3.6169348247        1.4334535488        9.3518113799
  S         6.4507688836        1.4292500141       14.6552702812
  S         5.1691342615        4.3018020301        7.1540150352
  O         1.9072561821        3.1740704939        2.9144463854
  O         3.1720341494        0.2815560298       10.2006441135
  O         6.8617080803        2.5578774742       13.5985993701
  O         5.6116800536        5.4514802896        6.3013631466
  O         8.4311128466        5.4297130080        2.9154671382
  O         4.0598341848        2.5859856149       10.2001454992
  O         0.3296507133        0.2705228550       13.6076813302
  O         4.7255956089        3.1519072544        6.3018784097
  O         3.3157468690        3.7137139838        0.8836840504
  O         4.7412803282        0.9109952579        8.5244403044
  O         5.4332995275        2.0415358448       15.6246988667
  O         4.0450126603        4.8245884716        7.9807627416
  O         7.0216700093        4.8900589226        0.8845567290
  O         2.4936233548        1.9544434430        8.5224907317
  O         1.7602575336        0.7686539430       15.6240449995
  O         6.2927982681        3.7799191071        7.9814821415
  O         5.1413484805        2.8281717195        3.6737110155
  O         3.6822989824        5.5020805428       11.0361690088
  O         3.6454647166        2.9155654878       12.8613576292
  O         5.0986948939        0.2175291225        5.5050522361
  O         2.0882283792        0.0391074030        3.6737967087
  O         6.6530980636        3.0998765298       11.0362505413
  O         6.6952837749        5.6863196056       12.8636054477
  O         2.1325072888        2.6503443140        5.5047914880
  H         6.0405689322        3.0642644884        3.3101114798
  H         1.4317555235        0.0900558114       10.6744060697
  H         2.7505442437        2.6630508498       13.2229202937
  H         7.3492009720        5.6428661678        5.8661602373
  H         4.2978110387        5.5403256360        3.3097509915
  H         5.8034631188        2.7861671739       10.6663775287
  H         4.4788644222        0.1890149083       13.2272351639
  H         2.9877522144        2.9598881326        5.8659459341
  H         5.1348592988        3.0663446127        4.6190091681
  H         3.5985266764        5.8787800122       11.9498287443
  H         3.6526964942        2.6887853830       11.9135281101
  H         5.1802720422       -0.1667675324        4.5948229862
  H         2.0964041820       -0.1995605621        4.6190803742
  H         6.7315334762        2.7132117926       11.9460964636
  H         6.6882678112        5.9125149581       11.9155482705
  H         2.0491022260        3.0349324827        4.5948055699
 Ca         1.0442789200        7.1690046942        2.7796731189
 Ca         5.4373030690       10.0371925442        9.5271327793
 Ca         2.5933705442       10.0302760693       13.7190743796
 Ca         3.8817227672        7.1699525464        6.9849631402
  S         5.4233244254       10.0574255325        1.8738547906
  S         1.0412779511        7.1713914082        9.3506334638
  S         3.8727624331        7.1476462397       14.6496115377
  S         2.5980425969       10.0349035295        7.1575174604
  O        -0.6605565895        8.8897590353        2.9232695197
  O         0.5979074084        6.0184125679       10.1980687108
  O         4.2891147225        8.2795266781       13.5984722008
  O         3.0370033555       11.1868459604        6.3052727335
  O         5.8495953031       11.1841229304        2.9236937973
  O         1.4858765055        8.3224662966       10.2007893611
  O        -2.2044442374        6.0544379858       13.5977015578
  O         2.1529071304        8.8873588070        6.3029378406
  O         0.7688151796        9.3872604654        0.8849850980
  O         2.1641906725        6.6497420135        8.5218152333
  O         2.8673096714        7.7658285784       15.6244436072
  O         1.4773641352       10.5518280436        7.9912239291
  O         4.4212135790       10.6880296873        0.8850328127
  O        -0.0838868028        7.6928561113        8.5242288612
  O        -0.7808122149        6.5776698663       15.6247382359
  O         3.7256085837        9.5114309572        7.9796593008
  O         2.5679284241        8.5625712892        3.6762926338
  O         1.1133516851       11.2526665494       11.0424095337
  O         1.0627011792        8.6455404242       12.8629663358
  O         2.5229866542        5.9528575431        5.5125551583
  O        -0.4791773983        5.7777836699        3.6769586774
  O         4.0771563077        8.8300157639       11.0387508321
  O         4.0814122353       11.4605545741       12.8561059153
  O        -0.4391793542        8.3857827547        5.5126376045
  H         3.4647094360        8.8056164035        3.3108713206
  H        -1.1447264283        5.8212683609       10.6648282761
  H         0.1609286867        8.4128809522       13.2278124569
  H         4.7702536692       11.3854294309        5.8737382684
  H         1.7247983965       11.2678898794        3.3112972231
  H         3.2285987024        8.5197443996       10.6627102943
  H         1.8961141954        5.9151506361       13.2127004209
  H         0.4181138478        8.6893357223        5.8741825208
  H         2.5599345968        8.8030713019        4.6208734018
  H         1.0323451489       11.6393741897       11.9535069176
  H         1.0655789516        8.4146391034       11.9158435478
  H         2.5984477211        5.5813855338        4.5969127013
  H        -0.4730084435        5.5375295679        4.6214174321
  H         4.1579645267        8.4250704827       11.9403376135
  H         4.0994040977       11.6558963646       11.9011309302
  H        -0.5126733710        8.7570280684        4.5968442576
 Ca         6.7233955532        7.1691574793        2.7898198549
 Ca        -0.2448803113       10.0379665346        9.5423761385
 Ca        -3.0928991135       10.0401091587       13.7289741787
 Ca        -1.7982935360        7.1700936480        6.9854634324
  S        -0.2346377573       10.0164012911        1.8735080451
  S         6.7207181119        7.1690856615        9.3524780210
  S        -1.7961875965        7.1836153097       14.6538007840
  S        -3.0822511698       10.0369546539        7.1557015411
  O         5.0140078825        8.9098376612        2.9145636526
  O         6.2768728601        6.0171379767       10.2011662892
  O        -1.3739322920        8.3276080502       13.6187745143
  O        -2.6413214240       11.1870804338        6.3021604438
  O         0.1750246640       11.1633690251        2.9149918402
  O         7.1645401013        8.3217032795       10.2010173627
  O         3.4457533552        6.0097357429       13.6129386643
  O        -3.5263620474        8.8877780220        6.3024085498
  O         6.4212003722        9.4495295018        0.8838894941
  O         7.8443474922        6.6480110677        8.5236590155
  O        -2.8191305973        7.7843737020       15.6245115605
  O        -4.2060827265       10.5581379287        7.9832402128
  O        -1.2334758032       10.6236723533        0.8846596347
  O         5.5969639553        7.6905168669        8.5239308418
  O         4.8857164157        6.5253959070       15.6234887069
  O        -1.9574875733        9.5158371908        7.9821915501
  O        -3.1088969520        8.5643091045        3.6740618634
  O        -4.5679982101       11.2486143301       11.0402860758
  O         6.7415947989        8.6454834122       12.8635448946
  O         8.2041376138        5.9530600256        5.5048413827
  O         5.1969284053        5.7763345980        3.6734986476
  O        -1.6033446881        8.8222295220       11.0415127197
  O        -1.5694917119       11.4262264425       12.8607302231
  O         5.2381359050        8.3855517760        5.5051086458
  H        -2.2088126400        8.8008066646        3.3115587409
  H         4.5335577943        5.8173403193       10.6711758611
  H         5.8453792094        8.3942475711       13.2240306952
  H        -0.9039635271       11.3787876957        5.8676304466
  H        -3.9597076665       11.2734865302        3.3109983738
  H        -2.4546141755        8.5099349324       10.6737667112
  H         7.5921522836        5.9354880424       13.2240955900
  H         6.0927485743        8.6952790912        5.8676033990
  H        -3.1176781987        8.8031658027        4.6193572008
  H        -4.6528422223       11.6267702744       11.9538846340
  H         6.7509322713        8.4192689302       11.9154920055
  H         8.2873928510        5.5689788893        4.5946610230
  H         5.2033427478        5.5377872871        4.6186074273
  H        -1.5249663344        8.4438172355       11.9554609403
  H        -1.5670068206       11.6526610774       11.9129647826
  H         5.1565065817        8.7690062841        4.5945797557
     192
 i =       41, E =     -2330.2417799956
 Ca         9.2953428068        1.4340651467        2.7805874132
 Ca         2.3293928699        4.3022138019        9.5239497562
 Ca        -0.5176443281        4.3014920399       13.7158061834
 Ca         0.7771326248        1.4334418105        6.9843357839
  S         2.3191613346        4.3238254989        1.8735332433
  S         9.2957729515        1.4353201412        9.3508415543
  S         0.7556112498        1.4045260407       14.6452419589
  S        -0.5165588205        4.3041454051        7.1582784405
  O         7.5916077450        3.1540803337        2.9248505048
  O         8.8519322372        0.2815781742       10.1982999275
  O         1.1858212446        2.5373203596       13.5995885667
  O        -0.0687646421        5.4517432093        6.3048688885
  O         2.7457628263        5.4483769672        2.9237706732
  O         9.7376562890        2.5867137657       10.2013825701
  O         6.0227475161        0.2703765894       13.6296285785
  O        -0.9544587691        3.1527285914        6.3050268439
  O         9.0172511142        3.6477300371        0.8851149658
  O        10.4213013532        0.9152184556        8.5247155156
  O        -0.2366605093        2.0363735484       15.6252680160
  O        -1.6438447690        4.8280201048        7.9803032779
  O         1.3166514303        4.9532530601        0.8864031347
  O         8.1712185245        1.9556672407        8.5231251065
  O         7.4754827092        0.8396083780       15.6248186469
  O         0.6028887132        3.7845015026        7.9918638229
  O        -0.5390927106        2.8255209204        3.6798182549
  O        -1.9906077453        5.5178312010       11.0402837135
  O         9.3089203522        2.9105872693       12.8676236298
  O        10.7751095452        0.2170569783        5.5136604937
  O         7.7684885078        0.0404960136        3.6757148930
  O         0.9683392695        3.0986936077       11.0368098612
  O         1.0007729500        5.6795082935       12.8282502932
  O         7.8137238997        2.6498829829        5.5134216638
  H         0.3552186158        3.0726689219        3.3133554746
  H         7.1122150176        0.1047083985       10.6712133159
  H         8.4101945945        2.6618709286       13.2269485021
  H         1.6657040930        5.6499771807        5.8756944250
  H        -1.3756545487        5.5320634602        3.3138966166
  H         0.1240154608        2.7805598436       10.6589281660
  H        10.1308191317        0.2047265622       13.2148842139
  H         8.6700717031        2.9539481183        5.8766487131
  H        -0.5502701849        3.0719864931        4.6228121389
  H        -2.0676930246        5.9174351620       11.9446418088
  H         9.3151208339        2.6698499661       11.9227359649
  H        10.8477659608       -0.1550734793        4.5980622869
  H         7.7806820657       -0.2033434414        4.6193064545
  H         1.0528361667        2.6928258651       11.9369384875
  H         1.0011536737        5.9188938074       11.8832165238
  H         7.7403523843        3.0235509790        4.5988427635
 Ca         3.6175551607        1.4334560164        2.7942201393
 Ca         8.0082515914        4.3019282685        9.5387334278
 Ca         5.1678423016        4.2980776289       13.7244203204
 Ca         6.4564099660        1.4304956641        6.9856855780
  S         8.0177968443        4.2794581556        1.8749507887
  S         3.6171628341        1.4346169069        9.3522019864
  S         6.4470506724        1.4198046438       14.6562549408
  S         5.1699968816        4.3016783305        7.1561713249
  O         1.9098479512        3.1755705704        2.9131737254
  O         3.1725967482        0.2825415996       10.2015170452
  O         6.8516446000        2.5385790775       13.5844667072
  O         5.6121219783        5.4511845791        6.3025383501
  O         8.4291342115        5.4267904257        2.9150291345
  O         4.0589646571        2.5871602717       10.2011498818
  O         0.3237736483        0.2701460644       13.6064488777
  O         4.7259190206        3.1522070695        6.3031860934
  O         3.3166202780        3.7174575903        0.8831053149
  O         4.7421588734        0.9130541715        8.5264357659
  O         5.4336139798        2.0368261352       15.6262851333
  O         4.0458007819        4.8244440499        7.9827094171
  O         7.0193249326        4.8866366950        0.8864462919
  O         2.4927605488        1.9547271556        8.5237369732
  O         1.7485051122        0.7583884313       15.6251600507
  O         6.2939500494        3.7803169752        7.9832437665
  O         5.1424931702        2.8294820217        3.6766832847
  O         3.6862013552        5.5075077529       11.0398308140
  O         3.6421615284        2.9125212583       12.8617934471
  O         5.0981712280        0.2171794144        5.5066623104
  O         2.0899752941        0.0394286493        3.6731909638
  O         6.6490075702        3.0929524752       11.0388494758
  O         6.7005979433        5.6863657266       12.8635866411
  O         2.1330310987        2.6502796963        5.5060304884
  H         6.0422436489        3.0659197870        3.3139031203
  H         1.4340074277        0.0986486210       10.6753778018
  H         2.7462319355        2.6619808525       13.2229362308
  H         7.3507340704        5.6415048303        5.8704795871
  H         4.2964028392        5.5375666011        3.3147950315
  H         5.8012520542        2.7809792025       10.6642198663
  H         4.4783006946        0.1822761904       13.2267366018
  H         2.9863884842        2.9614913634        5.8696961393
  H         5.1325655473        3.0726986249        4.6208452952
  H         3.6018944095        5.8847343751       11.9533821596
  H         3.6507716589        2.6860477551       11.9140570243
  H         5.1790315038       -0.1689365451        4.5972357098
  H         2.1007798805       -0.2040073034        4.6171706548
  H         6.7251481891        2.7012342662       11.9475841987
  H         6.6864973389        5.9142840269       11.9165028238
  H         2.0503160911        3.0368297102        4.5970562787
 Ca         1.0428396246        7.1682724748        2.7810518416
 Ca         5.4390168200       10.0369791261        9.5389276318
 Ca         2.5934125955       10.0312435132       13.7241213385
 Ca         3.8833573346        7.1693395733        6.9838749741
  S         5.4256058413       10.0581273301        1.8731911089
  S         1.0421614309        7.1687514077        9.3501289396
  S         3.8706766924        7.1468710662       14.6512489539
  S         2.6055953819       10.0304843841        7.1642012278
  O        -0.6607975395        8.8904066492        2.9233397099
  O         0.5988659476        6.0160882492       10.1986873087
  O         4.2865052807        8.2796710676       13.6021069478
  O         3.0352159378       11.1861940715        6.3109363851
  O         5.8502584719       11.1839176561        2.9234851398
  O         1.4862816527        8.3194601131       10.2015471726
  O        -2.2040458620        6.0555400048       13.6044438288
  O         2.1545208350        8.8881217237        6.3046400516
  O         0.7670787578        9.3905900146        0.8859947584
  O         2.1650876613        6.6470552588        8.5205619300
  O         2.8647207233        7.7645040767       15.6250566645
  O         1.4983425688       10.5355852888        8.0214314314
  O         4.4220072457       10.6860757635        0.8861418986
  O        -0.0845250186        7.6886858145        8.5263496968
  O        -0.7787327796        6.5882172716       15.6260008368
  O         3.7387892797        9.5046684780        7.9781280178
  O         2.5686371355        8.5629694724        3.6755492634
  O         1.1157191472       11.2594035685       11.0436195911
  O         1.0563894369        8.6469257312       12.8638765708
  O         2.5225757103        5.9529608780        5.5128675130
  O        -0.4808299791        5.7778373646        3.6802374092
  O         4.0756027896        8.8190443384       11.0424613102
  O         4.0758494694       11.4689486038       12.8521142359
  O        -0.4380269261        8.3858852555        5.5129821427
  H         3.4656704557        8.8063607417        3.3114308908
  H        -1.1444939070        5.8287127962       10.6597856338
  H         0.1535868899        8.4160797822       13.2305212690
  H         4.7707415526       11.3848585106        5.8774141214
  H         1.7236286113       11.2669579747        3.3113175154
  H         3.2271530325        8.5137546481       10.6621002565
  H         1.8952466384        5.9177520043       13.2044396967
  H         0.4174252026        8.6899142092        5.8783945804
  H         2.5567685296        8.8070016720        4.6193291148
  H         1.0362581877       11.6453159433       11.9552488444
  H         1.0622792826        8.4034628459       11.9206392611
  H         2.5962139388        5.5794797889        4.5982558793
  H        -0.4709065747        5.5321201672        4.6234678280
  H         4.1521957054        8.4122528976       11.9424819229
  H         4.0946885062       11.6659952455       11.8976527147
  H        -0.5091587015        8.7576479268        4.5973496769
 Ca         6.7205781954        7.1681324921        2.7938623516
 Ca        -0.2441348400       10.0364238922        9.5644414132
 Ca        -3.0987940957       10.0425852973       13.7203755655
 Ca        -1.7982962407        7.1707260131        6.9848707758
  S        -0.2380545191       10.0171246137        1.8743631597
  S         6.7213212076        7.1674933549        9.3542839005
  S        -1.7975617033        7.1851653128       14.6565034481
  S        -3.0785647807       10.0365366333        7.1585099226
  O         5.0156194730        8.9114904554        2.9139571056
  O         6.2777415558        6.0155046035       10.2034508115
  O        -1.3761199814        8.3276430808       13.6191728786
  O        -2.6407119852       11.1873323203        6.3036040563
  O         0.1733025584       11.1625239660        2.9162549144
  O         7.1643975856        8.3208663876       10.2027175067
  O         3.4442754712        6.0097694895       13.6120600961
  O        -3.5246105769        8.8886238198        6.3036006513
  O         6.4243223652        9.4521546392        0.8843242557
  O         7.8455512292        6.6477440368        8.5259576886
  O        -2.8235798825        7.7812411302       15.6254775168
  O        -4.2010164048       10.5556133210        7.9893183065
  O        -1.2372394316       10.6228558466        0.8862716448
  O         5.5969425532        7.6870318830        8.5268543912
  O         4.8841435885        6.5246454621       15.6235081182
  O        -1.9518025853        9.5159545495        7.9831951363
  O        -3.1104252072        8.5639015840        3.6731104538
  O        -4.5649788868       11.2567132630       11.0428516668
  O         6.7346600181        8.6422252855       12.8648360953
  O         8.2034115299        5.9536500251        5.5060561262
  O         5.1951051445        5.7750836653        3.6781990157
  O        -1.6068953788        8.8164108991       11.0433134663
  O        -1.5713246658       11.4261175729       12.8580427223
  O         5.2395077529        8.3855658698        5.5063237639
  H        -2.2093411986        8.7994113353        3.3107705425
  H         4.5354750367        5.8240696732       10.6718615574
  H         5.8378921297        8.3902344795       13.2255744751
  H        -0.9028207568       11.3770894112        5.8716123486
  H        -3.9589206494       11.2749095632        3.3104129943
  H        -2.4564254853        8.4999789142       10.6737999700
  H         7.5961100543        5.9410308524       13.2234892625
  H         6.0921809786        8.6971485998        5.8715529728
  H        -3.1215061692        8.8072487698        4.6172129821
  H        -4.6497176752       11.6367291150       11.9572554373
  H         6.7465523866        8.4106405811       11.9186350311
  H         8.2860809563        5.5675006847        4.5970144494
  H         5.2049447795        5.5305321320        4.6219653565
  H        -1.5295826370        8.4371353755       11.9583961285
  H        -1.5681883927       11.6584118814       11.9117253347
  H         5.1587855889        8.7704536607        4.5964133191
     192
 i =       42, E =     -2330.2422567289
 Ca         9.2944277555        1.4336605238        2.7787598157
 Ca         2.3297054237        4.3023234251        9.5217205990
 Ca        -0.5155817146        4.2985793867       13.7184771701
 Ca         0.7771477776        1.4334779937        6.9856137012
  S         2.3178738665        4.3227771354        1.8737515839
  S         9.2962942303        1.4346285514        9.3516655546
  S         0.7581281282        1.4069086138       14.6465325792
  S        -0.5162514995        4.3040349986        7.1570845947
  O         7.5917626757        3.1545850509        2.9238162694
  O         8.8517895749        0.2811829080       10.1989927875
  O         1.1849526535        2.5391267205       13.5998727659
  O        -0.0688193951        5.4518142144        6.3039251312
  O         2.7456148222        5.4483637399        2.9234004216
  O         9.7385236192        2.5864964976       10.2014509714
  O         6.0264681345        0.2794944813       13.6230660252
  O        -0.9538652029        3.1523432291        6.3042052761
  O         9.0201869650        3.6499265395        0.8850216437
  O        10.4209300003        0.9135077263        8.5247964977
  O        -0.2383192967        2.0355523818       15.6248261535
  O        -1.6433663033        4.8276559025        7.9795701281
  O         1.3161230169        4.9530602156        0.8855696665
  O         8.1723486497        1.9552283159        8.5236985481
  O         7.4730920698        0.8373781827       15.6246941777
  O         0.6018226103        3.7851892846        7.9932870623
  O        -0.5410656553        2.8251173634        3.6763314945
  O        -1.9922357883        5.5123098269       11.0390207302
  O         9.3106088599        2.9100787977       12.8672075554
  O        10.7755887788        0.2173855528        5.5129823947
  O         7.7698527535        0.0406938899        3.6747666456
  O         0.9723545865        3.0994730913       11.0347249952
  O         1.0004708708        5.6800594151       12.8354683034
  O         7.8132191427        2.6497474342        5.5126444438
  H         0.3547474532        3.0695279638        3.3103070376
  H         7.1116072726        0.0995232766       10.6721298322
  H         8.4117294950        2.6635624278       13.2276420132
  H         1.6652629068        5.6501627075        5.8729865913
  H        -1.3754642517        5.5348849196        3.3105573161
  H         0.1253163359        2.7841047089       10.6603566473
  H        10.1339459741        0.2014924663       13.2167271717
  H         8.6705690295        2.9535223533        5.8737469712
  H        -0.5501742005        3.0666740964        4.6204925660
  H        -2.0704644399        5.9099314201       11.9446524563
  H         9.3171720505        2.6736894237       11.9214773692
  H        10.8494561711       -0.1540953653        4.5970372565
  H         7.7796975229       -0.1992371684        4.6192525524
  H         1.0555920316        2.6973457340       11.9365688395
  H         1.0015611855        5.9154971324       11.8894692780
  H         7.7389458090        3.0222237674        4.5972707085
 Ca         3.6160437615        1.4337540669        2.7904334277
 Ca         8.0081287190        4.3019999343        9.5341744333
 Ca         5.1691737148        4.2984108609       13.7310480285
 Ca         6.4569596959        1.4312102082        6.9866866190
  S         8.0193884387        4.2806430158        1.8743782421
  S         3.6175664918        1.4339214217        9.3523305948
  S         6.4488127086        1.4264414414       14.6551337058
  S         5.1698579618        4.3016184771        7.1546886041
  O         1.9073854931        3.1752328727        2.9139945726
  O         3.1724658622        0.2818386057       10.2012101238
  O         6.8596948569        2.5511155709       13.5942825873
  O         5.6118291725        5.4514293053        6.3015635136
  O         8.4304767741        5.4279564873        2.9148947749
  O         4.0598030569        2.5867304942       10.2007815702
  O         0.3272091453        0.2719694451       13.6073910031
  O         4.7260683634        3.1518686907        6.3021422899
  O         3.3155066778        3.7154282789        0.8836568198
  O         4.7419572864        0.9118157008        8.5257578067
  O         5.4339969397        2.0418236691       15.6251670230
  O         4.0457405964        4.8240136047        7.9817583808
  O         7.0210210954        4.8879211427        0.8852236866
  O         2.4937783377        1.9544399223        8.5237097078
  O         1.7550087341        0.7649635453       15.6245813132
  O         6.2939212978        3.7802467424        7.9819528884
  O         5.1410891814        2.8279028883        3.6732284416
  O         3.6836009173        5.5058993190       11.0378858743
  O         3.6429125746        2.9127642166       12.8621655516
  O         5.0987554562        0.2173014384        5.5064199680
  O         2.0901920629        0.0396856698        3.6720814963
  O         6.6514443635        3.0953935761       11.0372960847
  O         6.6971528462        5.6885615653       12.8641970540
  O         2.1326777247        2.6502038886        5.5055962686
  H         6.0410201233        3.0636780492        3.3103096456
  H         1.4327396856        0.0946128614       10.6752028896
  H         2.7470452859        2.6619064234       13.2230555226
  H         7.3497936557        5.6425774679        5.8677718943
  H         4.2972604782        5.5402581141        3.3107505968
  H         5.8020943867        2.7835767522       10.6655585739
  H         4.4781187064        0.1851170990       13.2272786309
  H         2.9873993793        2.9603316132        5.8672125454
  H         5.1326534618        3.0671365531        4.6183261190
  H         3.6000058405        5.8824519366       11.9516561043
  H         3.6506022192        2.6869369546       11.9140167981
  H         5.1804376653       -0.1668617115        4.5960929010
  H         2.0995661974       -0.1996700011        4.6170558382
  H         6.7282945138        2.7056472180       11.9468168170
  H         6.6884756627        5.9136115929       11.9161196497
  H         2.0494494727        3.0348082977        4.5955938342
 Ca         1.0431725852        7.1691877899        2.7790224767
 Ca         5.4384867451       10.0365174110        9.5344797730
 Ca         2.5941248318       10.0298014623       13.7223002538
 Ca         3.8826250721        7.1692308092        6.9851609995
  S         5.4240643038       10.0578483414        1.8734652901
  S         1.0410302469        7.1697626832        9.3511930554
  S         3.8724469288        7.1466687525       14.6508026352
  S         2.6024026402       10.0325120786        7.1616320317
  O        -0.6611205446        8.8902529391        2.9232983912
  O         0.5978161741        6.0164313398       10.1987573871
  O         4.2878435026        8.2794838260       13.6007838353
  O         3.0361661094       11.1867908778        6.3090804012
  O         5.8501197728       11.1840317800        2.9233518275
  O         1.4855608276        8.3207503502       10.2017482084
  O        -2.2048398630        6.0525886242       13.6029089175
  O         2.1540284691        8.8879851359        6.3040570505
  O         0.7671945646        9.3881003800        0.8853976218
  O         2.1642771640        6.6488201961        8.5223082327
  O         2.8670131441        7.7649685361       15.6247291587
  O         1.4889554799       10.5444284372        8.0070244237
  O         4.4214394926       10.6871635025        0.8854510929
  O        -0.0843717599        7.6904344466        8.5258238287
  O        -0.7783969043        6.5825469911       15.6251794945
  O         3.7331509239        9.5077123470        7.9792199337
  O         2.5672629089        8.5627953897        3.6741255401
  O         1.1141761578       11.2553495098       11.0425633989
  O         1.0617458593        8.6450237789       12.8643970616
  O         2.5230633760        5.9529980966        5.5123029270
  O        -0.4792578436        5.7782818422        3.6765444656
  O         4.0763740322        8.8262751748       11.0398011573
  O         4.0789964579       11.4617988387       12.8545517171
  O        -0.4387700764        8.3856789905        5.5125267175
  H         3.4648208774        8.8046976475        3.3095290586
  H        -1.1446194359        5.8251183945       10.6633157066
  H         0.1582985428        8.4158856269       13.2295632128
  H         4.7703308485       11.3852731885        5.8747090346
  H         1.7245201529       11.2688374302        3.3098971530
  H         3.2277269551        8.5165814004       10.6633951434
  H         1.8962877877        5.9173385223       13.2086766903
  H         0.4178251827        8.6895447496        5.8752638881
  H         2.5575564577        8.8026801029        4.6187958446
  H         1.0337752205       11.6391785670       11.9542639121
  H         1.0646079201        8.4089735624       11.9191536670
  H         2.5977004874        5.5807738549        4.5968801920
  H        -0.4711766930        5.5374002053        4.6209131717
  H         4.1552407040        8.4195566916       11.9409772417
  H         4.0966200935       11.6612243997       11.9003864819
  H        -0.5116537763        8.7569270194        4.5965649027
 Ca         6.7218540599        7.1687270393        2.7902387580
 Ca        -0.2442290029       10.0363918658        9.5503719257
 Ca        -3.0963500997       10.0410695163       13.7275996775
 Ca        -1.7985912486        7.1705157049        6.9857508766
  S        -0.2360299879       10.0169349966        1.8740904594
  S         6.7209193923        7.1680274544        9.3540210729
  S        -1.7965189637        7.1829273029       14.6555498596
  S        -3.0790710534       10.0364021227        7.1572581780
  O         5.0140770837        8.9110054249        2.9140953064
  O         6.2772039660        6.0157142251       10.2026446464
  O        -1.3751513058        8.3261491668       13.6190702849
  O        -2.6410582376       11.1875225432        6.3031044103
  O         0.1747397665       11.1631755620        2.9153069830
  O         7.1645453902        8.3212862459       10.2021330245
  O         3.4456296082        6.0092747897       13.6127617385
  O        -3.5248657108        8.8883675830        6.3027315768
  O         6.4225506066        9.4512033295        0.8842280990
  O         7.8446499907        6.6479044259        8.5255356935
  O        -2.8214028723        7.7809821829       15.6247913817
  O        -4.2000753273       10.5550149155        7.9901909632
  O        -1.2347360637       10.6234038774        0.8851135212
  O         5.5971290113        7.6882256693        8.5261197205
  O         4.8852079813        6.5243801192       15.6238896988
  O        -1.9525967282        9.5150712504        7.9817141618
  O        -3.1109858484        8.5637595235        3.6720226836
  O        -4.5664274659       11.2505992614       11.0407116856
  O         6.7388699408        8.6433944404       12.8647071026
  O         8.2038838077        5.9535224254        5.5054142402
  O         5.1966885868        5.7765019759        3.6738924870
  O        -1.6050626344        8.8204421567       11.0417925129
  O        -1.5707983458       11.4256414317       12.8593594824
  O         5.2387902854        8.3853461487        5.5056602757
  H        -2.2099521781        8.7985318544        3.3096844137
  H         4.5345886443        5.8210732478       10.6724102629
  H         5.8415555062        8.3933380061       13.2251923907
  H        -0.9036810896       11.3783650752        5.8690544946
  H        -3.9586178674       11.2757649200        3.3094170757
  H        -2.4554909972        8.5054220334       10.6736077871
  H         7.5943967190        5.9377564232       13.2244454492
  H         6.0926513366        8.6960197249        5.8689955629
  H        -3.1204678031        8.8029502702        4.6170883733
  H        -4.6520148258       11.6311474878       11.9545542937
  H         6.7475471328        8.4145081562       11.9174978637
  H         8.2870136409        5.5692330520        4.5953642225
  H         5.2052051713        5.5364834936        4.6187677356
  H        -1.5266060135        8.4422802301       11.9565358453
  H        -1.5674474190       11.6563286140       11.9124525057
  H         5.1572191229        8.7689406986        4.5951333011
     192
 i =       43, E =     -2330.2426653705
 Ca         9.2943263472        1.4333293966        2.7778583895
 Ca         2.3297381598        4.3024582589        9.5248258474
 Ca        -0.5130990521        4.2981058978       13.7171644139
 Ca         0.7769839113        1.4335455780        6.9873236325
  S         2.3176469985        4.3227926145        1.8735990227
  S         9.2966884225        1.4346647944        9.3520142594
  S         0.7568181075        1.4076209031       14.6477421900
  S        -0.5213930524        4.3065050416        7.1606972128
  O         7.5915704457        3.1545061794        2.9233114920
  O         8.8518739916        0.2812109238       10.1994273998
  O         1.1837277290        2.5399999787       13.6009398812
  O        -0.0692873343        5.4512835155        6.3053320233
  O         2.7454994574        5.4483954721        2.9231635937
  O         9.7387494965        2.5865932043       10.2020918091
  O         6.0272880963        0.2818473001       13.6197182490
  O        -0.9523740681        3.1529164186        6.3064633862
  O         9.0204716449        3.6500493403        0.8849460307
  O        10.4208697561        0.9129762837        8.5253652646
  O        -0.2402125565        2.0364859594       15.6245995288
  O        -1.6514791640        4.8315737131        7.9783188194
  O         1.3162763223        4.9533007017        0.8850069799
  O         8.1729247591        1.9555518476        8.5244718325
  O         7.4710374535        0.8343205797       15.6245716506
  O         0.5854575726        3.7936437963        8.0146792602
  O        -0.5412212873        2.8256940919        3.6752336570
  O        -1.9912903705        5.5135347528       11.0402113567
  O         9.3100603461        2.9094022148       12.8684786201
  O        10.7756712033        0.2173424780        5.5131199390
  O         7.7706389058        0.0404720099        3.6738912014
  O         0.9724330533        3.0954343739       11.0361184886
  O         1.0005637445        5.6819620888       12.8353068359
  O         7.8129804351        2.6495290786        5.5125205451
  H         0.3556069989        3.0686869826        3.3098491125
  H         7.1114426567        0.1004261729       10.6718573151
  H         8.4114413732        2.6620456329       13.2292049252
  H         1.6653027914        5.6503900596        5.8729209134
  H        -1.3760194284        5.5356068391        3.3100499432
  H         0.1246422802        2.7825272482       10.6610291006
  H        10.1320955177        0.2041349313       13.2166463092
  H         8.6702357167        2.9533882643        5.8737997328
  H        -0.5508342082        3.0658888453        4.6196925388
  H        -2.0691642979        5.9126925550       11.9450865947
  H         9.3184981624        2.6730539046       11.9229484723
  H        10.8497755303       -0.1539756676        4.5969821211
  H         7.7801198195       -0.1987781451        4.6183923116
  H         1.0544828313        2.6949499713       11.9385684023
  H         1.0014497576        5.9155710938       11.8887260025
  H         7.7387382606        3.0219658750        4.5969576569
 Ca         3.6160896206        1.4343489373        2.7882337160
 Ca         8.0076313385        4.3020212549        9.5395495891
 Ca         5.1703891497        4.2974663228       13.7260206389
 Ca         6.4583224476        1.4307871782        6.9878477755
  S         8.0192491140        4.2803514532        1.8737451516
  S         3.6180280567        1.4336956926        9.3520209575
  S         6.4484490810        1.4278505777       14.6540409238
  S         5.1708124049        4.3012122522        7.1551182521
  O         1.9068825530        3.1759890996        2.9142589156
  O         3.1724639311        0.2817511473       10.2010845595
  O         6.8618836093        2.5543947629       13.5976196165
  O         5.6118130826        5.4513507647        6.3017291165
  O         8.4300896918        5.4272386054        2.9144768607
  O         4.0601856078        2.5865860455       10.2006899509
  O         0.3264937599        0.2738742671       13.6066972038
  O         4.7266014676        3.1516993547        6.3022658480
  O         3.3153160376        3.7150205519        0.8839948782
  O         4.7420460397        0.9111409948        8.5255714773
  O         5.4339147173        2.0424733972       15.6244233519
  O         4.0468649074        4.8229684072        7.9829067886
  O         7.0211437629        4.8876440287        0.8844223840
  O         2.4943740681        1.9547266639        8.5237916091
  O         1.7533876233        0.7638064071       15.6243301603
  O         6.2955940711        3.7801015902        7.9818007134
  O         5.1407983335        2.8278740522        3.6723061887
  O         3.6840183787        5.5090225205       11.0390500498
  O         3.6399367906        2.9113429010       12.8629571429
  O         5.0989309176        0.2170486358        5.5075659801
  O         2.0909644909        0.0399445130        3.6712962375
  O         6.6503520663        3.0919655619       11.0388135369
  O         6.6980447985        5.6910219325       12.8648767377
  O         2.1326747115        2.6504939988        5.5064801026
  H         6.0413026256        3.0628198943        3.3097548913
  H         1.4328924040        0.0962191012       10.6749871328
  H         2.7437466792        2.6607080792       13.2233446062
  H         7.3498778686        5.6424904312        5.8681375743
  H         4.2967163453        5.5407645548        3.3103928941
  H         5.8009711260        2.7819807611       10.6649956232
  H         4.4769655676        0.1834011076       13.2270812041
  H         2.9877705555        2.9603465362        5.8674580768
  H         5.1316817431        3.0662795315        4.6175973256
  H         3.6003804085        5.8850838950       11.9530438402
  H         3.6482655110        2.6852786871       11.9146572704
  H         5.1810699412       -0.1665750501        4.5969402117
  H         2.1006364283       -0.1990621129        4.6162751460
  H         6.7269741302        2.7005154255       11.9479979449
  H         6.6904112002        5.9150291298       11.9163253387
  H         2.0493487383        3.0343175492        4.5960382963
 Ca         1.0430049494        7.1697895725        2.7779320889
 Ca         5.4393246114       10.0354459805        9.5396431781
 Ca         2.5940678489       10.0275655371       13.7199975409
 Ca         3.8833972413        7.1683639376        6.9858713767
  S         5.4240880565       10.0583877092        1.8731476762
  S         1.0410338416        7.1695330205        9.3513524037
  S         3.8727635329        7.1461809227       14.6513569063
  S         2.6034987702       10.0331173167        7.1651453725
  O        -0.6617085504        8.8900576999        2.9233784661
  O         0.5975250053        6.0161214479       10.1990290474
  O         4.2878581961        8.2787901599       13.6005271310
  O         3.0370843052       11.1874745127        6.3119526058
  O         5.8505265685       11.1842770433        2.9233827322
  O         1.4855531995        8.3205263113       10.2019159001
  O        -2.2043891364        6.0527112950       13.6018494956
  O         2.1543518942        8.8896053077        6.3062150048
  O         0.7666257928        9.3863542935        0.8849727551
  O         2.1646297895        6.6486206954        8.5231660433
  O         2.8676901889        7.7657531503       15.6245445447
  O         1.4927439541       10.5479540654        8.0122878126
  O         4.4218596013       10.6881500047        0.8849862956
  O        -0.0835889797        7.6904090268        8.5258057755
  O        -0.7767960983        6.5807544173       15.6245864784
  O         3.7348750158        9.5066460502        7.9811111467
  O         2.5664890144        8.5630794967        3.6728666372
  O         1.1147168718       11.2542200860       11.0422160491
  O         1.0624284161        8.6443160063       12.8658461097
  O         2.5231467108        5.9528739002        5.5121843103
  O        -0.4790493600        5.7779580555        3.6755532185
  O         4.0751263463        8.8259537009       11.0401645384
  O         4.0783860260       11.4610182458       12.8538358649
  O        -0.4386901936        8.3856441514        5.5124514718
  H         3.4646473387        8.8040440420        3.3085471670
  H        -1.1441585933        5.8270559879       10.6636071333
  H         0.1581042131        8.4174232136       13.2307880177
  H         4.7702756184       11.3851733456        5.8744715734
  H         1.7247482524       11.2696169939        3.3091725888
  H         3.2268286497        8.5152555497       10.6633786630
  H         1.8968247856        5.9188172172       13.2071249214
  H         0.4178224796        8.6897702944        5.8750570000
  H         2.5570522642        8.8017178822        4.6177667709
  H         1.0343086074       11.6375377001       11.9542045654
  H         1.0651194798        8.4064104765       11.9211750445
  H         2.5976589181        5.5807709019        4.5965675833
  H        -0.4704648417        5.5386446195        4.6203049584
  H         4.1545972622        8.4187117235       11.9413963085
  H         4.0936658814       11.6631589815       11.9000503419
  H        -0.5117734301        8.7569139516        4.5963467247
 Ca         6.7214716212        7.1684444416        2.7887483206
 Ca        -0.2434190238       10.0353138460        9.5495152117
 Ca        -3.0975193461       10.0409729534       13.7283479010
 Ca        -1.7989408280        7.1705375513        6.9862747621
  S        -0.2357701307       10.0162988547        1.8738252579
  S         6.7212972207        7.1675762199        9.3543328108
  S        -1.7952247530        7.1819598564       14.6556112560
  S        -3.0743886661       10.0346776226        7.1598833598
  O         5.0138957893        8.9117651617        2.9137540033
  O         6.2773958924        6.0151699661       10.2031143887
  O        -1.3749723014        8.3260360536       13.6195206062
  O        -2.6415686306       11.1878072040        6.3053323807
  O         0.1748575698       11.1628579192        2.9145936030
  O         7.1647067537        8.3209508843       10.2026058862
  O         3.4461825381        6.0088171468       13.6129413256
  O        -3.5239040922        8.8893810748        6.3031671722
  O         6.4226928269        9.4516329280        0.8841645723
  O         7.8448350930        6.6475760254        8.5262183349
  O        -2.8200573783        7.7800089649       15.6244202856
  O        -4.1869048995       10.5483994531        8.0064941034
  O        -1.2341771936       10.6229530847        0.8844348870
  O         5.5978760458        7.6873101185        8.5267319035
  O         4.8849487234        6.5234377045       15.6241612037
  O        -1.9454657224        9.5109649143        7.9797576992
  O        -3.1119567977        8.5637463841        3.6710259907
  O        -4.5657527048       11.2508251152       11.0410928131
  O         6.7377619064        8.6426888075       12.8654931730
  O         8.2038572121        5.9536187078        5.5056275516
  O         5.1967445335        5.7761486263        3.6730917340
  O        -1.6054428751        8.8198698596       11.0415492265
  O        -1.5718974725       11.4239535875       12.8587422050
  O         5.2390926084        8.3852697322        5.5057850961
  H        -2.2105739765        8.7972602884        3.3087584711
  H         4.5352494413        5.8233002482       10.6731997880
  H         5.8399653667        8.3937044928       13.2264035027
  H        -0.9040110929       11.3784513541        5.8694057627
  H        -3.9581123238       11.2769717601        3.3087137768
  H        -2.4557384936        8.5043721519       10.6733521811
  H         7.5960746070        5.9383681465       13.2251041785
  H         6.0927276865        8.6964121002        5.8692846308
  H        -3.1213473490        8.8020254638        4.6162167589
  H        -4.6526271631       11.6315853747       11.9546482712
  H         6.7458585034        8.4121700807       11.9185252497
  H         8.2868211761        5.5696183817        4.5954136252
  H         5.2062199293        5.5371590788        4.6182500107
  H        -1.5271335826        8.4433609751       11.9568170295
  H        -1.5678828369       11.6583083151       11.9125310700
  H         5.1573493193        8.7686879993        4.5951658260
     192
 i =       44, E =     -2330.2426942753
 Ca         9.2942716100        1.4335355829        2.7778325793
 Ca         2.3297565838        4.3027286001        9.5294323168
 Ca        -0.5124909773        4.2978501495       13.7134312583
 Ca         0.7765648529        1.4330358878        6.9895251124
  S         2.3179735279        4.3228862003        1.8736174724
  S         9.2971338077        1.4342348731        9.3515933827
  S         0.7551623394        1.4071319463       14.6482927204
  S        -0.5229595251        4.3077818833        7.1652610242
  O         7.5912244308        3.1544491140        2.9231860557
  O         8.8517475044        0.2809384956       10.1991156008
  O         1.1826609774        2.5402853905       13.6023191214
  O        -0.0700597288        5.4507144124        6.3076974218
  O         2.7454877331        5.4487363496        2.9231220540
  O         9.7392273937        2.5860934503       10.2019826909
  O         6.0265748262        0.2802252256       13.6199761126
  O        -0.9515222605        3.1539819976        6.3094531602
  O         9.0199844025        3.6494325454        0.8847394687
  O        10.4207054641        0.9114002914        8.5248556511
  O        -0.2424749591        2.0356590586       15.6242422881
  O        -1.6555096442        4.8335647458        7.9793944325
  O         1.3168934718        4.9536759540        0.8845793805
  O         8.1735474527        1.9558270389        8.5245135323
  O         7.4708519642        0.8328091708       15.6243228766
  O         0.5861197195        3.7979121740        8.0177330640
  O        -0.5409461871        2.8263192056        3.6757212513
  O        -1.9901694953        5.5153743905       11.0409805506
  O         9.3101083754        2.9093918127       12.8688201200
  O        10.7762850417        0.2170484994        5.5139548770
  O         7.7704542610        0.0403675394        3.6747746723
  O         0.9715926740        3.0920742504       11.0386396902
  O         1.0009141129        5.6831847364       12.8337764310
  O         7.8133763685        2.6497199918        5.5124924980
  H         0.3562113410        3.0690330031        3.3102790898
  H         7.1113052629        0.1010101764       10.6711565525
  H         8.4116150508        2.6613663487       13.2300545409
  H         1.6651999237        5.6504054411        5.8733601249
  H        -1.3765312746        5.5351311303        3.3104698683
  H         0.1238909841        2.7806596102       10.6615021948
  H        10.1308223993        0.2060025110       13.2162363215
  H         8.6702437368        2.9536189722        5.8744775143
  H        -0.5506288172        3.0668747103        4.6200487487
  H        -2.0678776239        5.9151236287       11.9455461066
  H         9.3191497683        2.6718454680       11.9237683045
  H        10.8499561203       -0.1543022161        4.5977346146
  H         7.7798985900       -0.1997839799        4.6190242246
  H         1.0527900425        2.6911184030       11.9412401784
  H         1.0011937397        5.9161484148       11.8868828237
  H         7.7387855443        3.0219619945        4.5969126205
 Ca         3.6157155615        1.4346770063        2.7870852213
 Ca         8.0070454673        4.3020108695        9.5461893791
 Ca         5.1707532659        4.2977029406       13.7216035030
 Ca         6.4593546892        1.4301087008        6.9884523666
  S         8.0186928223        4.2802230890        1.8732918773
  S         3.6178982870        1.4335748811        9.3511881277
  S         6.4476746318        1.4267202166       14.6540239158
  S         5.1724957434        4.3003571877        7.1560628344
  O         1.9073890589        3.1762900616        2.9146285847
  O         3.1722339341        0.2817831345       10.2004424611
  O         6.8602485364        2.5537166892       13.5982171870
  O         5.6118152645        5.4510243430        6.3023023148
  O         8.4294318020        5.4270887917        2.9138899636
  O         4.0604582993        2.5861779446       10.2003644825
  O         0.3252039114        0.2742226052       13.6061238193
  O         4.7270450470        3.1515925681        6.3026177668
  O         3.3154984489        3.7144027685        0.8841231112
  O         4.7415646865        0.9103892161        8.5246833765
  O         5.4333395757        2.0418714902       15.6240509350
  O         4.0493983489        4.8211773191        7.9855043687
  O         7.0209235800        4.8882857627        0.8837742858
  O         2.4944224996        1.9556844320        8.5232115508
  O         1.7512056638        0.7618881067       15.6240158934
  O         6.2983492678        3.7789818627        7.9813687685
  O         5.1410533223        2.8282799099        3.6726065764
  O         3.6853167178        5.5116279786       11.0404575075
  O         3.6367090833        2.9100231455       12.8634452863
  O         5.0988952352        0.2168249551        5.5089007484
  O         2.0910426999        0.0403237570        3.6718099204
  O         6.6487145657        3.0884811269       11.0406979288
  O         6.6999487620        5.6916327619       12.8653501596
  O         2.1325446077        2.6511802970        5.5079216917
  H         6.0417977797        3.0628503937        3.3103609115
  H         1.4328785627        0.0974803717       10.6747706067
  H         2.7403473091        2.6597853130       13.2239452577
  H         7.3501010146        5.6420704812        5.8689412801
  H         4.2959264406        5.5403443455        3.3110196427
  H         5.7996445143        2.7795607004       10.6648530038
  H         4.4761869027        0.1822590531       13.2267876215
  H         2.9883215812        2.9603582880        5.8679877231
  H         5.1316971770        3.0666765230        4.6179052560
  H         3.6012605762        5.8882097454       11.9545284564
  H         3.6457355309        2.6832815301       11.9152650396
  H         5.1811578434       -0.1668005258        4.5982926406
  H         2.1006584496       -0.1999657511        4.6164400795
  H         6.7253648701        2.6958197831       11.9492145970
  H         6.6926870125        5.9170476178       11.9168240170
  H         2.0492086327        3.0344986569        4.5972129058
 Ca         1.0428601912        7.1698987057        2.7778671199
 Ca         5.4399536764       10.0342516924        9.5460188479
 Ca         2.5954376885       10.0283031161       13.7163980849
 Ca         3.8840118081        7.1683421653        6.9865584189
  S         5.4243591411       10.0589499787        1.8731169704
  S         1.0420310625        7.1696457513        9.3508998808
  S         3.8725506259        7.1460904270       14.6516039711
  S         2.6044299617       10.0337305253        7.1670635630
  O        -0.6619727678        8.8894187227        2.9233022657
  O         0.5976296693        6.0168712873       10.1991521348
  O         4.2879549593        8.2783943276       13.5999550569
  O         3.0387481415       11.1903216667        6.3164325866
  O         5.8507022748       11.1848885987        2.9236611281
  O         1.4862604770        8.3206946975       10.2015550888
  O        -2.2028406550        6.0542754227       13.5994320611
  O         2.1552448493        8.8910054476        6.3068089504
  O         0.7667779607        9.3847503535        0.8846370981
  O         2.1657358244        6.6479177964        8.5234371640
  O         2.8678143663        7.7670924390       15.6243137625
  O         1.4917072460       10.5445206867        8.0137582488
  O         4.4225452250       10.6894034674        0.8846758710
  O        -0.0815481099        7.6910013660        8.5247534344
  O        -0.7768040031        6.5772621670       15.6241995424
  O         3.7356880680        9.5065872395        7.9827045529
  O         2.5667032620        8.5632077132        3.6734957130
  O         1.1154593407       11.2540312530       11.0427517597
  O         1.0613698712        8.6429545092       12.8663556811
  O         2.5230119390        5.9528498439        5.5125213279
  O        -0.4793442562        5.7772371162        3.6759778529
  O         4.0740706695        8.8237419403       11.0409788697
  O         4.0778325665       11.4603573684       12.8532978352
  O        -0.4384534377        8.3854791630        5.5123433132
  H         3.4647096855        8.8044199627        3.3086270737
  H        -1.1435102605        5.8288813516       10.6633096644
  H         0.1568050000        8.4177130931       13.2318834376
  H         4.7704349720       11.3851223825        5.8746031792
  H         1.7247698832       11.2693198426        3.3094371909
  H         3.2259782029        8.5140358769       10.6628137799
  H         1.8971391743        5.9198659547       13.2054448981
  H         0.4176449385        8.6902632445        5.8754820707
  H         2.5574194750        8.8024238520        4.6181830434
  H         1.0346891261       11.6371028626       11.9549535840
  H         1.0652933587        8.4036066377       11.9219757416
  H         2.5973001014        5.5806027260        4.5968619251
  H        -0.4706460241        5.5383530515        4.6208362580
  H         4.1538236303        8.4176259895       11.9422690481
  H         4.0908610634       11.6648881270       11.8998468212
  H        -0.5115737343        8.7571664189        4.5963904010
 Ca         6.7219556353        7.1686222641        2.7881096722
 Ca        -0.2425873277       10.0345296746        9.5515018657
 Ca        -3.0990693511       10.0403780202       13.7270309408
 Ca        -1.7990983387        7.1707133852        6.9862211382
  S        -0.2354450176       10.0153403095        1.8734034609
  S         6.7217911757        7.1674197690        9.3541292756
  S        -1.7939385317        7.1821930459       14.6552194342
  S        -3.0715393277       10.0328285262        7.1651289629
  O         5.0141830726        8.9122889731        2.9137175288
  O         6.2773304173        6.0148524198       10.2028119523
  O        -1.3741247973        8.3269626368       13.6193871631
  O        -2.6425163842       11.1876632953        6.3101793176
  O         0.1746892433       11.1623798987        2.9139471246
  O         7.1649107637        8.3204883053       10.2030864209
  O         3.4460075860        6.0084136301       13.6133896298
  O        -3.5234392624        8.8912130064        6.3044572634
  O         6.4227454044        9.4516578837        0.8840141350
  O         7.8450941938        6.6473507786        8.5262937283
  O        -2.8183286355        7.7804681753       15.6240795629
  O        -4.1792269331       10.5404549886        8.0212900214
  O        -1.2335814647       10.6225154283        0.8837455202
  O         5.5987573922        7.6871018232        8.5267122789
  O         4.8841869302        6.5227014251       15.6241338408
  O        -1.9400879670        9.5055412891        7.9797087605
  O        -3.1120689665        8.5634604083        3.6713128549
  O        -4.5652912584       11.2518543947       11.0418788870
  O         6.7365487028        8.6425088187       12.8662525848
  O         8.2035953761        5.9536542128        5.5054194611
  O         5.1962746701        5.7752670474        3.6733503452
  O        -1.6056505819        8.8190549786       11.0415437015
  O        -1.5721372271       11.4223352060       12.8574795139
  O         5.2393364015        8.3853672690        5.5060679825
  H        -2.2108400186        8.7971212495        3.3092746373
  H         4.5362028439        5.8260665615       10.6738252573
  H         5.8387289784        8.3935791764       13.2273124107
  H        -0.9043531648       11.3783918048        5.8701882292
  H        -3.9578770395       11.2769870915        3.3093664798
  H        -2.4558067080        8.5035628088       10.6731555538
  H         7.5980660417        5.9391849226       13.2254066719
  H         6.0926911216        8.6969972147        5.8697933698
  H        -3.1211883228        8.8025325076        4.6163308774
  H        -4.6527444174       11.6324888197       11.9550037085
  H         6.7449807786        8.4098882638       11.9196612013
  H         8.2862805179        5.5693440871        4.5954041557
  H         5.2063798009        5.5365304724        4.6185742906
  H        -1.5279179789        8.4438954232       11.9571348050
  H        -1.5690176826       11.6595932002       11.9120314659
  H         5.1578699155        8.7690263048        4.5955850141
     192
 i =       45, E =     -2330.2428669314
 Ca         9.2942098003        1.4338364629        2.7780308702
 Ca         2.3299954314        4.3027223925        9.5324530747
 Ca        -0.5122530372        4.2983707872       13.7127334250
 Ca         0.7766208576        1.4334320969        6.9898115474
  S         2.3180697213        4.3227451093        1.8738056564
  S         9.2975859614        1.4336261406        9.3513553277
  S         0.7545247258        1.4065620423       14.6485771711
  S        -0.5217760769        4.3074510505        7.1655377605
  O         7.5911360311        3.1543945358        2.9232343171
  O         8.8517096419        0.2808276056       10.1993738571
  O         1.1821985370        2.5400536274       13.6029924692
  O        -0.0703608621        5.4514514384        6.3086103904
  O         2.7454919501        5.4488340403        2.9232387688
  O         9.7397890230        2.5855187582       10.2017929219
  O         6.0262904188        0.2790228640       13.6203854219
  O        -0.9522674796        3.1536054041        6.3104601927
  O         9.0197819372        3.6492708191        0.8847549610
  O        10.4211514182        0.9102645170        8.5247203084
  O        -0.2432669437        2.0352881523       15.6242417696
  O        -1.6536552577        4.8322302113        7.9810166402
  O         1.3169930939        4.9536323923        0.8846725731
  O         8.1740345658        1.9555239652        8.5246330436
  O         7.4715299018        0.8330650820       15.6242962022
  O         0.5906560083        3.7950019093        8.0120000913
  O        -0.5409417395        2.8262101073        3.6761032390
  O        -1.9897496781        5.5158114032       11.0410583333
  O         9.3103049048        2.9092950992       12.8685887859
  O        10.7766585681        0.2166792191        5.5144172163
  O         7.7703088533        0.0405090481        3.6756447174
  O         0.9711612580        3.0909068013       11.0397557265
  O         1.0012625426        5.6833610992       12.8330538378
  O         7.8137064328        2.6496544818        5.5124789674
  H         0.3562122186        3.0691329352        3.3105349333
  H         7.1109507934        0.1005613593       10.6709670445
  H         8.4118263954        2.6615066050       13.2302852263
  H         1.6650300988        5.6503463308        5.8735055440
  H        -1.3766246036        5.5349044446        3.3106763273
  H         0.1234863713        2.7796390603       10.6623305979
  H        10.1313890882        0.2064782112       13.2160637799
  H         8.6703543271        2.9539481553        5.8744980136
  H        -0.5501705032        3.0672762733        4.6202849914
  H        -2.0674229811        5.9155871541       11.9458094608
  H         9.3193474106        2.6712397307       11.9237001675
  H        10.8506094270       -0.1542982416        4.5981004573
  H         7.7795264483       -0.1999411838        4.6198240871
  H         1.0516941869        2.6890175906       11.9424788503
  H         1.0011251123        5.9165009045       11.8861474293
  H         7.7389001057        3.0218616414        4.5969145782
 Ca         3.6156382303        1.4348134944        2.7866501660
 Ca         8.0066872140        4.3019807762        9.5489718305
 Ca         5.1698947129        4.2976432750       13.7204740779
 Ca         6.4594805727        1.4301443385        6.9882622019
  S         8.0185510323        4.2803831491        1.8733741531
  S         3.6177026462        1.4335667939        9.3508365814
  S         6.4473987995        1.4257626505       14.6543767352
  S         5.1743952053        4.2992948977        7.1568476603
  O         1.9077189396        3.1759969009        2.9147984969
  O         3.1720874495        0.2819369344       10.2002459240
  O         6.8589524565        2.5522183368       13.5974866783
  O         5.6118320536        5.4506667868        6.3028997310
  O         8.4293676234        5.4272024267        2.9139073300
  O         4.0605399821        2.5858753633       10.2004733171
  O         0.3246012757        0.2739593901       13.6060879453
  O         4.7274961203        3.1514102829        6.3028360898
  O         3.3154915829        3.7140318501        0.8841347974
  O         4.7413400561        0.9101918576        8.5243042120
  O         5.4332669750        2.0416589758       15.6241274284
  O         4.0535684812        4.8185913277        7.9900190619
  O         7.0208833016        4.8888696350        0.8837887486
  O         2.4941347599        1.9561850404        8.5231259930
  O         1.7505003654        0.7612606372       15.6240248767
  O         6.3012548570        3.7771197938        7.9805370984
  O         5.1409809488        2.8280298495        3.6725700115
  O         3.6860993297        5.5125066540       11.0410216633
  O         3.6353636560        2.9093730154       12.8638962452
  O         5.0984873121        0.2167841457        5.5093127163
  O         2.0911236082        0.0403892849        3.6726469708
  O         6.6478730357        3.0879189894       11.0411082969
  O         6.7013074325        5.6915426768       12.8655052983
  O         2.1325483943        2.6511379859        5.5090708965
  H         6.0417056103        3.0627457134        3.3104809585
  H         1.4326329867        0.0974323602       10.6747502159
  H         2.7388074661        2.6595677579       13.2245213233
  H         7.3502184201        5.6419160716        5.8690351431
  H         4.2958099418        5.5403035776        3.3111536173
  H         5.7989676133        2.7780212562       10.6654909508
  H         4.4756423052        0.1820112727       13.2265155891
  H         2.9888342691        2.9601601816        5.8682085286
  H         5.1319291424        3.0663552049        4.6179021697
  H         3.6017548441        5.8897877743       11.9550666231
  H         3.6440955454        2.6820467797       11.9158916764
  H         5.1811909460       -0.1666696978        4.5987705492
  H         2.1003591960       -0.2002313303        4.6171290014
  H         6.7245107583        2.6938695672       11.9491612597
  H         6.6940907764        5.9183236612       11.9171921227
  H         2.0489316004        3.0343044949        4.5982542008
 Ca         1.0428477109        7.1698012759        2.7782349760
 Ca         5.4402683926       10.0335751993        9.5485062442
 Ca         2.5951853049       10.0285484126       13.7158090158
 Ca         3.8841336769        7.1682037752        6.9866911492
  S         5.4244538522       10.0590524612        1.8732767097
  S         1.0429680920        7.1697385263        9.3506624194
  S         3.8724371252        7.1461254364       14.6516620610
  S         2.6052347164       10.0342969447        7.1676741455
  O        -0.6620256396        8.8892397861        2.9233114892
  O         0.5978580644        6.0172687485       10.1989897681
  O         4.2881869287        8.2785336514       13.5998665412
  O         3.0404980857       11.1941640742        6.3216038312
  O         5.8507533362       11.1851379512        2.9239104806
  O         1.4867361620        8.3206641239       10.2017626640
  O        -2.2024364606        6.0541572095       13.5989796172
  O         2.1564510638        8.8926464066        6.3055194298
  O         0.7669334127        9.3845215995        0.8846969592
  O         2.1667869105        6.6473643785        8.5237969118
  O         2.8677454108        7.7671487111       15.6243452097
  O         1.4920986415       10.5427487388        8.0151573529
  O         4.4227040311       10.6896800198        0.8847242054
  O        -0.0802892698        7.6909239678        8.5242400756
  O        -0.7773990764        6.5750761226       15.6242579116
  O         3.7360828105        9.5064845065        7.9831717931
  O         2.5668218064        8.5629817081        3.6739210985
  O         1.1154690802       11.2534304405       11.0430927876
  O         1.0609461395        8.6432385471       12.8663856490
  O         2.5228674000        5.9528943333        5.5127469320
  O        -0.4794173776        5.7771487645        3.6760946613
  O         4.0736448429        8.8230143762       11.0413892472
  O         4.0787547219       11.4589915530       12.8531825571
  O        -0.4383714822        8.3854414250        5.5121665537
  H         3.4645953031        8.8046292828        3.3088184330
  H        -1.1431736846        5.8294434554       10.6632942361
  H         0.1566277183        8.4174806014       13.2319453545
  H         4.7703612695       11.3853643866        5.8747376507
  H         1.7248937889       11.2691141726        3.3098172466
  H         3.2255726982        8.5136335235       10.6628042687
  H         1.8972966419        5.9202987702       13.2050739311
  H         0.4175289105        8.6906020413        5.8755197444
  H         2.5579838625        8.8025237781        4.6185164894
  H         1.0344988909       11.6364157659       11.9553570545
  H         1.0652977036        8.4026370812       11.9222054678
  H         2.5972598440        5.5807849042        4.5970394118
  H        -0.4711799531        5.5385032182        4.6210238963
  H         4.1534576328        8.4174352404       11.9428702111
  H         4.0898749435       11.6653724112       11.9000093485
  H        -0.5116294728        8.7571067400        4.5963119771
 Ca         6.7220850481        7.1685264929        2.7878483249
 Ca        -0.2419905544       10.0341884345        9.5528123820
 Ca        -3.0990317399       10.0404693344       13.7264317893
 Ca        -1.7989089553        7.1704142011        6.9858386400
  S        -0.2352400387       10.0151925585        1.8734034990
  S         6.7219641551        7.1674334312        9.3540030344
  S        -1.7937087693        7.1821080543       14.6550868225
  S        -3.0717721804       10.0328156632        7.1658641706
  O         5.0143364048        8.9123158535        2.9137843542
  O         6.2773368818        6.0149315867       10.2029747130
  O        -1.3741261853        8.3272585589       13.6193051370
  O        -2.6411809858       11.1889321539        6.3131560015
  O         0.1748172008       11.1622033350        2.9140968799
  O         7.1649660384        8.3201495616       10.2034903957
  O         3.4459018111        6.0085784918       13.6132474398
  O        -3.5229908335        8.8916139812        6.3043837806
  O         6.4226464324        9.4513943067        0.8839894181
  O         7.8451794454        6.6472897053        8.5264133136
  O        -2.8177632043        7.7805202063       15.6241332032
  O        -4.1832580708       10.5419100644        8.0156018630
  O        -1.2332306218       10.6229977236        0.8837670280
  O         5.5990068467        7.6872711497        8.5268203975
  O         4.8836391088        6.5221672081       15.6240538562
  O        -1.9407072706        9.5052740580        7.9808281859
  O        -3.1120240429        8.5633732643        3.6718148233
  O        -4.5653359584       11.2517787924       11.0422205205
  O         6.7361966276        8.6425714420       12.8665349852
  O         8.2035281029        5.9537251937        5.5051566381
  O         5.1962573419        5.7753820449        3.6731057823
  O        -1.6055629544        8.8194246717       11.0415335893
  O        -1.5720838507       11.4210275063       12.8566176955
  O         5.2393602012        8.3854620535        5.5062156103
  H        -2.2109918228        8.7971008024        3.3096088389
  H         4.5367572698        5.8275170974       10.6742095274
  H         5.8384342665        8.3937506618       13.2278373739
  H        -0.9047756959       11.3785561122        5.8706657504
  H        -3.9576509659       11.2769533833        3.3099224651
  H        -2.4556430981        8.5039762426       10.6729887596
  H         7.5993199011        5.9392691443       13.2258772441
  H         6.0927038127        8.6972053602        5.8698614957
  H        -3.1208657726        8.8025506697        4.6168347666
  H        -4.6527580009       11.6327130257       11.9550180082
  H         6.7451112563        8.4090729315       11.9201391437
  H         8.2859522528        5.5693110934        4.5952410627
  H         5.2062746582        5.5366875184        4.6183420355
  H        -1.5277939628        8.4445961908       11.9571527116
  H        -1.5698268506       11.6596683317       11.9116202367
  H         5.1579917483        8.7690497538        4.5957614037
     192
 i =       46, E =     -2330.2416239943
 Ca         9.2939950203        1.4356668373        2.7794061726
 Ca         2.3327379822        4.3015297013        9.5600029964
 Ca        -0.5098341979        4.3015000565       13.7098469647
 Ca         0.7767110913        1.4353349447        6.9916950923
  S         2.3181394891        4.3215249426        1.8752091466
  S         9.3017313899        1.4289498044        9.3504470262
  S         0.7491880754        1.4028218195       14.6519140837
  S        -0.5148657993        4.3054403806        7.1709904829
  O         7.5904911580        3.1539015339        2.9234553412
  O         8.8519312012        0.2796740226       10.2020604901
  O         1.1783006776        2.5384415729       13.6083919076
  O        -0.0718051260        5.4562506396        6.3176417149
  O         2.7453611797        5.4492677771        2.9240329942
  O         9.7438393137        2.5815037413       10.2016132325
  O         6.0238152135        0.2720561032       13.6212798563
  O        -0.9567381410        3.1499633260        6.3206873128
  O         9.0187718533        3.6487005195        0.8849983290
  O        10.4258118091        0.9019020609        8.5256623974
  O        -0.2491656277        2.0347691260       15.6244523599
  O        -1.6436407595        4.8251135033        7.9924143854
  O         1.3172167799        4.9531863583        0.8853395355
  O         8.1785695703        1.9525803771        8.5268467170
  O         7.4748746450        0.8332057291       15.6243495969
  O         0.6112712816        3.7810024790        7.9922950843
  O        -0.5409589954        2.8255410694        3.6779746043
  O        -1.9862434585        5.5206683474       11.0420797901
  O         9.3113705507        2.9086333105       12.8683307198
  O        10.7789379796        0.2146335850        5.5170238421
  O         7.7701406698        0.0410644217        3.6821848873
  O         0.9678907252        3.0779170481       11.0481767235
  O         1.0038187551        5.6873144117       12.8270631669
  O         7.8154940543        2.6491444469        5.5118614446
  H         0.3567392801        3.0686663072        3.3117470402
  H         7.1078800170        0.0973076172       10.6695621296
  H         8.4132958275        2.6614902114       13.2325316863
  H         1.6637002789        5.6500491672        5.8743870923
  H        -1.3776089595        5.5341820891        3.3114006748
  H         0.1193272023        2.7699637358       10.6697023801
  H        10.1345465880        0.2117385822       13.2135679839
  H         8.6705322188        2.9563881104        5.8745630143
  H        -0.5477373610        3.0688023377        4.6214501028
  H        -2.0627091089        5.9208368260       11.9479954217
  H         9.3215411860        2.6657560813       11.9248387269
  H        10.8561589974       -0.1539156535        4.6001358831
  H         7.7775557562       -0.1991138590        4.6261592226
  H         1.0418198443        2.6718934271       11.9526170622
  H         1.0010557713        5.9198849042       11.8795917952
  H         7.7398364809        3.0207300059        4.5962973784
 Ca         3.6152438753        1.4350792069        2.7827562523
 Ca         8.0045032744        4.3004197240        9.5720094362
 Ca         5.1654127390        4.2967597679       13.7083654085
 Ca         6.4616610023        1.4307559710        6.9883806755
  S         8.0178471474        4.2813491853        1.8740364806
  S         3.6165790565        1.4334420028        9.3486594171
  S         6.4452107352        1.4198451262       14.6561429262
  S         5.1937998929        4.2882693087        7.1665423231
  O         1.9092150791        3.1741502085        2.9160284571
  O         3.1709980920        0.2829393845       10.1992048168
  O         6.8523562645        2.5420942903       13.5931332642
  O         5.6103866578        5.4470966512        6.3100180142
  O         8.4290316508        5.4274275919        2.9140623852
  O         4.0611400997        2.5836251587       10.2021037107
  O         0.3203291705        0.2731531408       13.6059271656
  O         4.7315555752        3.1504042294        6.3055276194
  O         3.3148498296        3.7114865180        0.8842711321
  O         4.7402592581        0.9089925238        8.5225355753
  O         5.4335064102        2.0408971815       15.6246250536
  O         4.1024156025        4.7890995769        8.0474569845
  O         7.0208368873        4.8923108809        0.8840810507
  O         2.4920304193        1.9597556208        8.5237021706
  O         1.7446557762        0.7565590515       15.6242511885
  O         6.3310158141        3.7580845634        7.9730896639
  O         5.1396398291        2.8259103089        3.6711113739
  O         3.6918409868        5.5219006203       11.0457209048
  O         3.6230233208        2.9022991290       12.8684152134
  O         5.0963947391        0.2166313370        5.5138397641
  O         2.0931005382        0.0411765749        3.6787992219
  O         6.6407351904        3.0803598294       11.0443284946
  O         6.7113224755        5.6935813662       12.8679241892
  O         2.1336300229        2.6511784765        5.5178008335
  H         6.0407044511        3.0607163150        3.3102088281
  H         1.4311771987        0.0984854080       10.6747505842
  H         2.7242835944        2.6573465150       13.2299877809
  H         7.3512872653        5.6408202614        5.8697817738
  H         4.2949030157        5.5409278834        3.3112088843
  H         5.7926550179        2.7649129818       10.6697388144
  H         4.4704926585        0.1783512004       13.2237450315
  H         2.9936923983        2.9582941588        5.8708758448
  H         5.1325269100        3.0621604156        4.6170550366
  H         3.6063078821        5.9039213377       11.9596366696
  H         3.6293003469        2.6706912736       11.9215633586
  H         5.1812466251       -0.1651263329        4.6035498918
  H         2.0996425265       -0.2005920609        4.6224005394
  H         6.7172542419        2.6755349915       11.9488513365
  H         6.7061967331        5.9293215421       11.9210509663
  H         2.0467279013        3.0315907411        4.6059341777
 Ca         1.0424332418        7.1695113827        2.7800380434
 Ca         5.4421905371       10.0282341344        9.5691785348
 Ca         2.5937590798       10.0294818656       13.7132862706
 Ca         3.8867194506        7.1654496972        6.9881368641
  S         5.4251232262       10.0598242677        1.8743879693
  S         1.0505164719        7.1691173005        9.3491660446
  S         3.8714150312        7.1455558600       14.6530253616
  S         2.6132868039       10.0400698037        7.1771079970
  O        -0.6625367865        8.8882722502        2.9235433356
  O         0.5997199384        6.0185759718       10.1978337009
  O         4.2893494192        8.2793504996       13.6004067319
  O         3.0558815590       11.2284102176        6.3709723051
  O         5.8516337384       11.1870392460        2.9253023316
  O         1.4899224213        8.3194748157       10.2036645415
  O        -2.2003201670        6.0510967812       13.5976523117
  O         2.1685708538        8.9102877502        6.2948140235
  O         0.7671801461        9.3830705570        0.8851933628
  O         2.1758553369        6.6424763261        8.5273844689
  O         2.8670632313        7.7671698067       15.6246469901
  O         1.4948390813       10.5317336600        8.0267141828
  O         4.4237403351       10.6912403085        0.8850935817
  O        -0.0702190280        7.6886773282        8.5212119841
  O        -0.7805260223        6.5596384065       15.6247213259
  O         3.7411175694        9.5030143558        7.9888476801
  O         2.5670578322        8.5614783451        3.6755835443
  O         1.1148534171       11.2494710388       11.0453598087
  O         1.0587956900        8.6439470457       12.8673375975
  O         2.5219686530        5.9530503255        5.5146558598
  O        -0.4798068425        5.7766310401        3.6760157307
  O         4.0704192470        8.8181353089       11.0436686680
  O         4.0854859110       11.4460260334       12.8521524769
  O        -0.4375984350        8.3848484746        5.5110304687
  H         3.4635379780        8.8051842669        3.3088293596
  H        -1.1403560066        5.8351158084       10.6631970771
  H         0.1551908616        8.4172073417       13.2331352301
  H         4.7697723202       11.3876334023        5.8762125188
  H         1.7261531346       11.2683845091        3.3124863154
  H         3.2222026652        8.5093878016       10.6641336821
  H         1.8991637104        5.9250283122       13.2006862514
  H         0.4166604124        8.6938493966        5.8751641644
  H         2.5615730841        8.8018710126        4.6198980498
  H         1.0333977137       11.6288784833       11.9587369196
  H         1.0657748782        8.3932297579       11.9251889722
  H         2.5970719046        5.5823794862        4.5983381964
  H        -0.4746656776        5.5414268620        4.6218623812
  H         4.1491913992        8.4150188343       11.9468708289
  H         4.0809144151       11.6707878799       11.9018627685
  H        -0.5121901684        8.7565865900        4.5957239934
 Ca         6.7226563530        7.1681383187        2.7852524328
 Ca        -0.2376477051       10.0312781279        9.5604221543
 Ca        -3.1004753637       10.0408782162       13.7233419563
 Ca        -1.7971646588        7.1679732026        6.9841720622
  S        -0.2336670637       10.0146827774        1.8739487915
  S         6.7236606058        7.1669808357        9.3535549346
  S        -1.7922012917        7.1799017638       14.6548651325
  S        -3.0729486959       10.0351225049        7.1740871048
  O         5.0150000961        8.9129348263        2.9140586075
  O         6.2779653080        6.0147778211       10.2049394325
  O        -1.3745518444        8.3278244527       13.6190935511
  O        -2.6292169945       11.2045604606        6.3429816873
  O         0.1765447512       11.1613918877        2.9151280181
  O         7.1657670476        8.3183382740       10.2056036924
  O         3.4448437707        6.0094868509       13.6124060840
  O        -3.5177306800        8.8979334219        6.3038174681
  O         6.4221515541        9.4499583224        0.8839544663
  O         7.8461006173        6.6465860974        8.5281804622
  O        -2.8141482905        7.7788431437       15.6245739465
  O        -4.2020545362       10.5475659547        7.9949692744
  O        -1.2304003186       10.6266496288        0.8840667250
  O         5.6012885207        7.6873038327        8.5286903196
  O         4.8787423264        6.5165514196       15.6238168099
  O        -1.9442547098        9.5028430338        7.9890333112
  O        -3.1130965274        8.5623443102        3.6744109758
  O        -4.5648111019       11.2504152460       11.0443553326
  O         6.7336463287        8.6420798980       12.8696032073
  O         8.2032874400        5.9542198625        5.5034799940
  O         5.1965010946        5.7765573052        3.6702976662
  O        -1.6050535598        8.8225820579       11.0413483059
  O        -1.5724449169       11.4093995629       12.8484744732
  O         5.2402492368        8.3855871739        5.5073131534
  H        -2.2131564842        8.7954887624        3.3109760807
  H         4.5412887775        5.8404656847       10.6780429947
  H         5.8352759876        8.3958301340       13.2325045963
  H        -0.9078055452       11.3802659774        5.8744329343
  H        -3.9549081574       11.2782090946        3.3136564382
  H        -2.4544420084        8.5066739006       10.6716934702
  H         7.6098610076        5.9395658083       13.2304225045
  H         6.0930496075        8.6993017354        5.8708144882
  H        -3.1194861196        8.8011414064        4.6196815281
  H        -4.6532630348       11.6352088396       11.9545323167
  H         6.7448105234        8.4006871464       11.9250539738
  H         8.2833729270        5.5695595826        4.5939914269
  H         5.2066867955        5.5389792328        4.6158046535
  H        -1.5269322573        8.4507613794       11.9575605665
  H        -1.5763977383       11.6616402572       11.9074713470
  H         5.1587279454        8.7687937869        4.5969983714
     192
 i =       47, E =     -2330.2431533038
 Ca         9.2939718561        1.4340565507        2.7788038885
 Ca         2.3317182414        4.3005540697        9.5407215025
 Ca        -0.5116826796        4.2993403783       13.7142184151
 Ca         0.7766791810        1.4335725031        6.9895355321
  S         2.3175728839        4.3219892984        1.8743547120
  S         9.2992980008        1.4318906232        9.3519791908
  S         0.7535700607        1.4055188398       14.6500902229
  S        -0.5182295245        4.3053554971        7.1665396961
  O         7.5910439280        3.1543231835        2.9232125122
  O         8.8522682021        0.2799292228       10.2008781289
  O         1.1811470657        2.5390765557       13.6042523757
  O        -0.0700099956        5.4537484523        6.3131162009
  O         2.7453813923        5.4486195752        2.9236427539
  O         9.7408702796        2.5845502124       10.2024678293
  O         6.0257102210        0.2782587360       13.6199866455
  O        -0.9545661993        3.1504940446        6.3146920676
  O         9.0200042264        3.6496802956        0.8848937400
  O        10.4236527500        0.9080886218        8.5264321591
  O        -0.2445625709        2.0355151020       15.6244858878
  O        -1.6475340930        4.8283444331        7.9859379074
  O         1.3165826462        4.9532971194        0.8850011825
  O         8.1760154988        1.9535967460        8.5263045285
  O         7.4719384290        0.8330994211       15.6244373130
  O         0.5990752775        3.7888068396        8.0044037022
  O        -0.5411160133        2.8259584002        3.6765462373
  O        -1.9887596523        5.5171296858       11.0410139680
  O         9.3107237553        2.9093239682       12.8684793474
  O        10.7773812588        0.2163676327        5.5143298003
  O         7.7707766416        0.0408695656        3.6785671837
  O         0.9699769172        3.0873214497       11.0410762699
  O         1.0021221769        5.6848433657       12.8314651913
  O         7.8139069200        2.6495713506        5.5119106998
  H         0.3561822780        3.0682127578        3.3103487641
  H         7.1095791332        0.0983101201       10.6711056765
  H         8.4124474174        2.6619430601       13.2305241104
  H         1.6644277942        5.6502253302        5.8733882478
  H        -1.3768155436        5.5352513602        3.3101270156
  H         0.1216140583        2.7762499133       10.6650465675
  H        10.1337641785        0.2069113794       13.2151666196
  H         8.6702247663        2.9548768335        5.8740704427
  H        -0.5496504625        3.0664427665        4.6208212830
  H        -2.0659889609        5.9156491517       11.9467384020
  H         9.3201732585        2.6695886025       11.9239257352
  H        10.8527037943       -0.1539539541        4.5980291916
  H         7.7787873093       -0.1976160259        4.6229323784
  H         1.0484312319        2.6846618474       11.9447530338
  H         1.0015441128        5.9178169557       11.8844733618
  H         7.7393070810        3.0212280365        4.5962736155
 Ca         3.6154988379        1.4341368157        2.7856751289
 Ca         8.0070602231        4.3003121056        9.5510673380
 Ca         5.1689163843        4.2973535761       13.7181508120
 Ca         6.4605581997        1.4302030093        6.9891598852
  S         8.0188878724        4.2810043378        1.8738615662
  S         3.6173524331        1.4334651380        9.3507621414
  S         6.4471955164        1.4252687310       14.6544990076
  S         5.1806772412        4.2955200746        7.1613706626
  O         1.9073567167        3.1749796798        2.9149799332
  O         3.1717287306        0.2819869045       10.2002848816
  O         6.8590009584        2.5506270976       13.5967722425
  O         5.6107438963        5.4494916399        6.3063461974
  O         8.4297897846        5.4274268113        2.9143535597
  O         4.0604863286        2.5850666649       10.2018509787
  O         0.3244933604        0.2736434282       13.6066191036
  O         4.7291528825        3.1512252638        6.3045819390
  O         3.3148495573        3.7131603689        0.8841074347
  O         4.7412984836        0.9102942769        8.5244881254
  O         5.4339046202        2.0418493137       15.6243528204
  O         4.0718558259        4.8075025792        8.0133829099
  O         7.0213105271        4.8899339955        0.8841651289
  O         2.4932783842        1.9569751120        8.5243087733
  O         1.7502504249        0.7612354263       15.6242339140
  O         6.3125868415        3.7712656066        7.9770133360
  O         5.1399612379        2.8272476304        3.6715939074
  O         3.6879204110        5.5147714622       11.0418690338
  O         3.6321682729        2.9070930795       12.8659297937
  O         5.0981486269        0.2168828767        5.5101875514
  O         2.0922294206        0.0406787146        3.6754570515
  O         6.6450791831        3.0859132188       11.0410747035
  O         6.7030601938        5.6930967324       12.8670908101
  O         2.1336122980        2.6512450519        5.5104937467
  H         6.0407941766        3.0613397748        3.3093039545
  H         1.4322253885        0.0970403743       10.6747234369
  H         2.7345404770        2.6593923757       13.2270397590
  H         7.3505032945        5.6417439021        5.8687115759
  H         4.2959628985        5.5412942897        3.3100557444
  H         5.7962278678        2.7737114664       10.6666358542
  H         4.4735751627        0.1808526839       13.2248533192
  H         2.9908538076        2.9590038651        5.8692569072
  H         5.1319406372        3.0633588255        4.6174724465
  H         3.6033304793        5.8941619898       11.9557005793
  H         3.6386790607        2.6775881842       11.9184453817
  H         5.1809275253       -0.1657873568        4.5997514828
  H         2.1003635761       -0.1987305387        4.6199886890
  H         6.7228575364        2.6888424040       11.9481352988
  H         6.6983097259        5.9221744381       11.9192803942
  H         2.0483423549        3.0327329689        4.5995010939
 Ca         1.0428158707        7.1698509370        2.7784306129
 Ca         5.4399843241       10.0327877260        9.5498015272
 Ca         2.5941878266       10.0283275573       13.7171963928
 Ca         3.8860213302        7.1668677918        6.9873837421
  S         5.4243472562       10.0589279595        1.8737550659
  S         1.0457245737        7.1688879554        9.3502399260
  S         3.8718555758        7.1455994358       14.6523822050
  S         2.6083214020       10.0374160946        7.1726643314
  O        -0.6619588800        8.8893886488        2.9234405421
  O         0.5988385697        6.0167994462       10.1985000832
  O         4.2883270528        8.2789063187       13.6007125030
  O         3.0461010947       11.2056796289        6.3390327488
  O         5.8512692503       11.1855289201        2.9240362986
  O         1.4876134862        8.3199557948       10.2022381614
  O        -2.2026492862        6.0516609762       13.5997546672
  O         2.1617858255        8.8989475868        6.3047266671
  O         0.7667959158        9.3849734103        0.8849355760
  O         2.1703076248        6.6455206702        8.5250909684
  O         2.8671670967        7.7666023213       15.6245229435
  O         1.4917450111       10.5400700010        8.0186924348
  O         4.4225598487       10.6894540564        0.8849021829
  O        -0.0767911702        7.6897497673        8.5236596561
  O        -0.7774165769        6.5718308261       15.6244947391
  O         3.7377024656        9.5049262435        7.9860341658
  O         2.5667036433        8.5623639132        3.6739120099
  O         1.1142239609       11.2517866837       11.0434514680
  O         1.0610552594        8.6435283282       12.8663791024
  O         2.5228024958        5.9527022277        5.5136190671
  O        -0.4794531733        5.7771174909        3.6758127117
  O         4.0729887707        8.8222706173       11.0415010442
  O         4.0813888581       11.4545265725       12.8537453561
  O        -0.4380084218        8.3852100800        5.5120174524
  H         3.4640547899        8.8042351677        3.3081722718
  H        -1.1420430004        5.8307632785       10.6634341612
  H         0.1570092410        8.4172953315       13.2319271525
  H         4.7703339315       11.3867848902        5.8753115895
  H         1.7257208208       11.2691153350        3.3115009363
  H         3.2244243944        8.5126018712       10.6640756813
  H         1.8980942312        5.9220196963       13.2038819990
  H         0.4174259767        8.6922534067        5.8746566010
  H         2.5593545725        8.8014564673        4.6187576315
  H         1.0337450166       11.6325462185       11.9563272511
  H         1.0659036908        8.4003293658       11.9228269432
  H         2.5976356001        5.5816423138        4.5974862641
  H        -0.4725203289        5.5407442385        4.6212859843
  H         4.1519026792        8.4178395794       11.9440730541
  H         4.0874590415       11.6663702970       11.9014100988
  H        -0.5122445580        8.7568125014        4.5962059605
 Ca         6.7222269256        7.1687719025        2.7867043265
 Ca        -0.2416357640       10.0339012779        9.5527086724
 Ca        -3.0992233371       10.0404152333       13.7266115562
 Ca        -1.7979329185        7.1694190355        6.9863098786
  S        -0.2344369735       10.0158664875        1.8740206085
  S         6.7227325889        7.1672080031        9.3539384273
  S        -1.7936225020        7.1805443465       14.6554447827
  S        -3.0741897387       10.0347293470        7.1675498332
  O         5.0141829740        8.9122585874        2.9139180407
  O         6.2780980296        6.0147565068       10.2038786284
  O        -1.3746383391        8.3264167108       13.6194782148
  O        -2.6364676150       11.1963086640        6.3252229591
  O         0.1761162752       11.1626349606        2.9146702373
  O         7.1653652444        8.3202526970       10.2033607773
  O         3.4452511938        6.0090210408       13.6128205829
  O        -3.5204863436        8.8938358479        6.3030595965
  O         6.4222395601        9.4508244287        0.8840439413
  O         7.8455040616        6.6470027401        8.5269015615
  O        -2.8171005466        7.7790893377       15.6244307000
  O        -4.1922993016       10.5440361285        8.0070000679
  O        -1.2320884155       10.6246176865        0.8841980975
  O         5.5998606109        7.6871211768        8.5276390214
  O         4.8814729053        6.5194978634       15.6240750362
  O        -1.9455783468        9.5063644140        7.9847419245
  O        -3.1126980649        8.5629797538        3.6725852321
  O        -4.5652542502       11.2507182482       11.0425632682
  O         6.7362356428        8.6424674195       12.8675369405
  O         8.2036581895        5.9538303706        5.5047070166
  O         5.1967924093        5.7760414810        3.6717629712
  O        -1.6047568664        8.8212705577       11.0414661298
  O        -1.5727984653       11.4175706028       12.8536547438
  O         5.2397981456        8.3850898116        5.5067007437
  H        -2.2120379268        8.7962400707        3.3096815538
  H         4.5383042263        5.8315323199       10.6753122521
  H         5.8379828183        8.3952112334       13.2293454901
  H        -0.9056837752       11.3798152103        5.8719154306
  H        -3.9562564044       11.2777370158        3.3114472083
  H        -2.4548808332        8.5062731905       10.6726712925
  H         7.6021499003        5.9379855757       13.2281022791
  H         6.0929649563        8.6979988741        5.8699500500
  H        -3.1204202311        8.8009900161        4.6179597636
  H        -4.6531858141       11.6328228169       11.9545553520
  H         6.7456039731        8.4065829532       11.9218217616
  H         8.2852368203        5.5696813164        4.5946560364
  H         5.2066779775        5.5385106784        4.6171805039
  H        -1.5267833753        8.4474644567       11.9572278525
  H        -1.5720887992       11.6596508553       11.9096754142
  H         5.1578276201        8.7685193273        4.5961921800
     192
 i =       48, E =     -2330.2430011002
 Ca         9.2944274963        1.4340471078        2.7786603855
 Ca         2.3312274812        4.3006385355        9.5401304871
 Ca        -0.5114056273        4.2992384713       13.7128469394
 Ca         0.7770161823        1.4341779556        6.9902384692
  S         2.3176634634        4.3223931450        1.8740953506
  S         9.2989504703        1.4326322072        9.3521726823
  S         0.7540230306        1.4061535025       14.6493755459
  S        -0.5229442455        4.3073906450        7.1672033059
  O         7.5910764185        3.1542467866        2.9232006392
  O         8.8524491836        0.2798373947       10.2000982238
  O         1.1818150070        2.5397616405       13.6035557493
  O        -0.0688900725        5.4526993342        6.3122218100
  O         2.7453455082        5.4487588132        2.9233316631
  O         9.7403134100        2.5854367680       10.2023219396
  O         6.0254006071        0.2790363484       13.6199052947
  O        -0.9536139296        3.1504675201        6.3155596926
  O         9.0199245155        3.6494716593        0.8848709249
  O        10.4228714474        0.9094360612        8.5259607239
  O        -0.2433259964        2.0360353426       15.6244137500
  O        -1.6561691628        4.8327149689        7.9802284492
  O         1.3167542107        4.9535630390        0.8847667032
  O         8.1757658910        1.9538135932        8.5258201827
  O         7.4710804417        0.8323917441       15.6244579787
  O         0.5859357299        3.7967917858        8.0191862843
  O        -0.5408654468        2.8261378539        3.6769405859
  O        -1.9889179435        5.5164989139       11.0407922601
  O         9.3100574054        2.9091194710       12.8688005696
  O        10.7767959625        0.2172071687        5.5140789066
  O         7.7708716364        0.0404939155        3.6785629265
  O         0.9695455427        3.0879779260       11.0403290861
  O         1.0012563990        5.6852585583       12.8306851955
  O         7.8136789987        2.6491853368        5.5121990420
  H         0.3562345222        3.0688718024        3.3111949908
  H         7.1104418060        0.1000591157       10.6712208517
  H         8.4116873679        2.6613676326       13.2302401582
  H         1.6648138959        5.6503388812        5.8739990374
  H        -1.3766780871        5.5348468497        3.3109991139
  H         0.1217266876        2.7769952907       10.6628822667
  H        10.1316597590        0.2062596319       13.2149276083
  H         8.6698346831        2.9545741302        5.8748816741
  H        -0.5500585940        3.0668886511        4.6212243027
  H        -2.0657503398        5.9164646476       11.9457595884
  H         9.3198271236        2.6697085702       11.9241718271
  H        10.8507082457       -0.1545829586        4.5980725461
  H         7.7793404275       -0.1978621924        4.6230107865
  H         1.0496853498        2.6871894800       11.9435647498
  H         1.0016097033        5.9182168152       11.8838008882
  H         7.7393053313        3.0219128617        4.5967802390
 Ca         3.6162873771        1.4346560704        2.7870134861
 Ca         8.0081047765        4.3005329405        9.5512874215
 Ca         5.1698955233        4.2972346656       13.7179402789
 Ca         6.4602386677        1.4302383609        6.9894012863
  S         8.0187528401        4.2804738998        1.8736275347
  S         3.6174787740        1.4334248979        9.3511280597
  S         6.4472961512        1.4257346623       14.6541479518
  S         5.1749465271        4.2982094917        7.1606192310
  O         1.9070275959        3.1756520977        2.9148505637
  O         3.1718374195        0.2815306709       10.2002738369
  O         6.8596534695        2.5512017406       13.5967026695
  O         5.6114419575        5.4495757411        6.3052602487
  O         8.4295140876        5.4271318466        2.9139968439
  O         4.0603850230        2.5858279247       10.2008789484
  O         0.3245286728        0.2739814950       13.6064620652
  O         4.7279106959        3.1517635945        6.3046737612
  O         3.3151623552        3.7140144395        0.8841840393
  O         4.7413643582        0.9105473145        8.5248441256
  O         5.4337896011        2.0413741953       15.6242530407
  O         4.0536309092        4.8155630389        7.9935746911
  O         7.0211080289        4.8888274207        0.8839869574
  O         2.4938437416        1.9563038775        8.5239861688
  O         1.7499286955        0.7607117367       15.6241841751
  O         6.3026061541        3.7748861398        7.9825911049
  O         5.1403826142        2.8276013275        3.6726963624
  O         3.6869762013        5.5149781502       11.0417304145
  O         3.6330284793        2.9082986716       12.8653634500
  O         5.0984183086        0.2170473699        5.5098220930
  O         2.0920518174        0.0402652705        3.6752503631
  O         6.6464290401        3.0859030781       11.0403904357
  O         6.7026787959        5.6924828819       12.8664426240
  O         2.1332224502        2.6500086817        5.5097725554
  H         6.0410797661        3.0620649221        3.3103125784
  H         1.4327315572        0.0980799070       10.6747914447
  H         2.7360230510        2.6596716646       13.2268950308
  H         7.3504059225        5.6416874657        5.8694635339
  H         4.2960227816        5.5406100129        3.3111592610
  H         5.7973598871        2.7754349399       10.6654212868
  H         4.4741751991        0.1805020373       13.2247192534
  H         2.9894328118        2.9597347409        5.8687013466
  H         5.1319176361        3.0650617227        4.6182754909
  H         3.6028287236        5.8923582802       11.9555828875
  H         3.6411414385        2.6787249928       11.9179162310
  H         5.1805064889       -0.1667407871        4.5995221231
  H         2.1009114447       -0.1988859640        4.6199855174
  H         6.7233300646        2.6904205592       11.9478543227
  H         6.6958879168        5.9206650360       11.9186214522
  H         2.0500160620        3.0340579098        4.5993712941
 Ca         1.0426454153        7.1696326866        2.7784256531
 Ca         5.4404207109       10.0331625816        9.5507430088
 Ca         2.5945250240       10.0279368442       13.7168350493
 Ca         3.8857626821        7.1671971890        6.9877700598
  S         5.4244780607       10.0589444865        1.8734552598
  S         1.0450619127        7.1684037271        9.3502120393
  S         3.8712781111        7.1454583295       14.6522954387
  S         2.6063850927       10.0340684775        7.1727730490
  O        -0.6619100447        8.8896896471        2.9233901959
  O         0.5987244629        6.0161790168       10.1985566574
  O         4.2878383986        8.2784697611       13.6009205482
  O         3.0449729384       11.1991105231        6.3366930063
  O         5.8512785984       11.1851562421        2.9238555461
  O         1.4874171121        8.3197136702       10.2016316989
  O        -2.2027458717        6.0534328056       13.5996750690
  O         2.1589189134        8.8962523505        6.3044332542
  O         0.7669190593        9.3848702520        0.8848269803
  O         2.1693464326        6.6454856139        8.5239689335
  O         2.8668537714        7.7673783327       15.6244578887
  O         1.4909460957       10.5446095537        8.0154129733
  O         4.4226041950       10.6894880765        0.8848738894
  O        -0.0781930072        7.6891357127        8.5242315468
  O        -0.7770089079        6.5750783469       15.6244177277
  O         3.7371568680        9.5048935139        7.9863936119
  O         2.5667033909        8.5631527376        3.6739499175
  O         1.1147952181       11.2534996213       11.0431912511
  O         1.0611710620        8.6430087145       12.8665928907
  O         2.5229733392        5.9526405361        5.5135538229
  O        -0.4796200123        5.7772508513        3.6767392073
  O         4.0731113546        8.8224204960       11.0414425832
  O         4.0778462568       11.4592264256       12.8540263042
  O        -0.4377839203        8.3857775899        5.5124581730
  H         3.4643960391        8.8042600805        3.3084892954
  H        -1.1426387484        5.8309138583       10.6629228478
  H         0.1565593696        8.4175790092       13.2317669937
  H         4.7705762044       11.3863965484        5.8754100013
  H         1.7255164635       11.2688939756        3.3121214634
  H         3.2248255369        8.5125645733       10.6635180645
  H         1.8974705572        5.9215870857       13.2029627481
  H         0.4176117094        8.6921657676        5.8755616061
  H         2.5586919767        8.8024682466        4.6187068648
  H         1.0344341694       11.6347786393       11.9560985251
  H         1.0654257387        8.4003320115       11.9230722090
  H         2.5975217860        5.5808021754        4.5977020955
  H        -0.4719832719        5.5394981292        4.6218562730
  H         4.1520915069        8.4169247832       11.9434515171
  H         4.0882589884       11.6663666323       11.9008697647
  H        -0.5116966597        8.7571320084        4.5965342144
 Ca         6.7215531503        7.1684619614        2.7879062898
 Ca        -0.2420748754       10.0339564165        9.5531733089
 Ca        -3.0995261289       10.0403392917       13.7263438560
 Ca        -1.7978416933        7.1699498226        6.9873351917
  S        -0.2347037236       10.0158286869        1.8737800861
  S         6.7230052802        7.1669814337        9.3542688684
  S        -1.7939869993        7.1815431300       14.6557172658
  S        -3.0710138480       10.0345424889        7.1688400467
  O         5.0142562336        8.9124667030        2.9138794798
  O         6.2782779742        6.0143562731       10.2033513719
  O        -1.3743465573        8.3267186818       13.6196571260
  O        -2.6375905226       11.1958571643        6.3246936617
  O         0.1757008910       11.1626610327        2.9144220466
  O         7.1654535421        8.3200051481       10.2038676088
  O         3.4449413769        6.0087453559       13.6127500672
  O        -3.5214092255        8.8956611310        6.3032558880
  O         6.4227002583        9.4513777455        0.8841240355
  O         7.8457911854        6.6468855359        8.5264468802
  O        -2.8181599796        7.7795039385       15.6242551119
  O        -4.1825871914       10.5432827808        8.0180008701
  O        -1.2326690241       10.6234091991        0.8839252448
  O         5.6000514192        7.6862878745        8.5273037385
  O         4.8810572006        6.5193890974       15.6242222011
  O        -1.9402700850        9.5044361548        7.9822937705
  O        -3.1125303698        8.5634081577        3.6721373487
  O        -4.5650274397       11.2518156883       11.0420276848
  O         6.7357116244        8.6418350356       12.8671734999
  O         8.2033883209        5.9537320517        5.5051900562
  O         5.1964585125        5.7758342798        3.6733421746
  O        -1.6053406628        8.8197724885       11.0417133706
  O        -1.5729105451       11.4186580204       12.8540436136
  O         5.2398782302        8.3855010066        5.5067580794
  H        -2.2115310970        8.7966007094        3.3096584705
  H         4.5374919090        5.8298848076       10.6741793592
  H         5.8373867053        8.3942132692       13.2284956730
  H        -0.9049670423       11.3795910433        5.8722045266
  H        -3.9566496982       11.2772886380        3.3116777452
  H        -2.4554677713        8.5045665557       10.6730445807
  H         7.6011208520        5.9384181472       13.2279100448
  H         6.0929261493        8.6980317353        5.8703761250
  H        -3.1209074056        8.8019412073        4.6173982644
  H        -4.6526919181       11.6335958058       11.9545287602
  H         6.7449639421        8.4066773744       11.9213281534
  H         8.2856000593        5.5692322080        4.5952161201
  H         5.2064703577        5.5366107477        4.6183791386
  H        -1.5276675307        8.4452461084       11.9575536413
  H        -1.5711670199       11.6599781686       11.9096628909
  H         5.1580906058        8.7687763404        4.5963010047
     192
 i =       49, E =     -2330.2433135032
 Ca         9.2941703536        1.4340129921        2.7791033775
 Ca         2.3317001340        4.2995861392        9.5453043862
 Ca        -0.5112390382        4.2995524828       13.7127187164
 Ca         0.7768443701        1.4340151068        6.9905693579
  S         2.3174883971        4.3219978002        1.8743936859
  S         9.2999305776        1.4315674776        9.3523097692
  S         0.7534105797        1.4055582066       14.6501595268
  S        -0.5210207339        4.3062882836        7.1685518821
  O         7.5909904437        3.1542682265        2.9232206174
  O         8.8527671649        0.2793725461       10.2008830932
  O         1.1811370217        2.5393880306       13.6044034783
  O        -0.0690114818        5.4536937610        6.3149596792
  O         2.7453482636        5.4486616349        2.9235841545
  O         9.7410305304        2.5846419514       10.2026575588
  O         6.0251462828        0.2783730452       13.6198766488
  O        -0.9551910459        3.1484673507        6.3192896263
  O         9.0199881650        3.6495335196        0.8849062331
  O        10.4242119125        0.9078712122        8.5267372889
  O        -0.2443591405        2.0356996813       15.6244690032
  O        -1.6528240345        4.8310768831        7.9835260421
  O         1.3166318397        4.9533983006        0.8848866245
  O         8.1768914430        1.9529366790        8.5266978210
  O         7.4714382050        0.8324510027       15.6244521424
  O         0.5927145574        3.7933752819        8.0126535402
  O        -0.5409842651        2.8261783629        3.6775029728
  O        -1.9881913948        5.5173708458       11.0409457204
  O         9.3104318313        2.9093504350       12.8686466137
  O        10.7773193154        0.2169222652        5.5141971805
  O         7.7711636378        0.0409535168        3.6807089218
  O         0.9688488896        3.0862477601       11.0413000477
  O         1.0018441201        5.6863584875       12.8295591190
  O         7.8138742917        2.6494318248        5.5119862779
  H         0.3562291582        3.0685372389        3.3113400702
  H         7.1097821962        0.0989223606       10.6712971533
  H         8.4121613467        2.6616532232       13.2303803682
  H         1.6645699554        5.6502514321        5.8741390241
  H        -1.3768089569        5.5348944143        3.3108918850
  H         0.1207905852        2.7751599305       10.6642149749
  H        10.1328680870        0.2063865561       13.2148341381
  H         8.6698469205        2.9550300306        5.8748872842
  H        -0.5496820234        3.0665004311        4.6218520229
  H        -2.0650264424        5.9164280840       11.9464408926
  H         9.3203818960        2.6687747364       11.9242955337
  H        10.8516943490       -0.1544711208        4.5982040881
  H         7.7788690782       -0.1965871125        4.6252474929
  H         1.0477993987        2.6845465613       11.9449628740
  H         1.0016914497        5.9190452423       11.8825624022
  H         7.7394129704        3.0215913814        4.5964885830
 Ca         3.6159405642        1.4342228807        2.7864190956
 Ca         8.0081714496        4.2996509657        9.5528057552
 Ca         5.1693540773        4.2972324512       13.7168327357
 Ca         6.4608968674        1.4300095781        6.9898415212
  S         8.0188512779        4.2808221281        1.8737864620
  S         3.6172245550        1.4334048267        9.3508846885
  S         6.4471541292        1.4253817898       14.6542626259
  S         5.1784622736        4.2957627377        7.1627168036
  O         1.9070286158        3.1751247943        2.9150860783
  O         3.1716567456        0.2816864848       10.2002490175
  O         6.8591205840        2.5507412250       13.5967518780
  O         5.6107045058        5.4490606556        6.3072567687
  O         8.4296545740        5.4272605980        2.9141891451
  O         4.0603742942        2.5852016013       10.2017228543
  O         0.3243947532        0.2738616693       13.6066052182
  O         4.7287892611        3.1512168775        6.3052786184
  O         3.3148837597        3.7133803307        0.8841985166
  O         4.7411933589        0.9104388928        8.5247454953
  O         5.4339535536        2.0413113018       15.6243004720
  O         4.0648277209        4.8085141989        8.0078737783
  O         7.0212904711        4.8895492412        0.8840502412
  O         2.4933484119        1.9570543140        8.5245465373
  O         1.7497422748        0.7606594964       15.6242237202
  O         6.3090187443        3.7716738670        7.9803330821
  O         5.1399327313        2.8274110388        3.6724453444
  O         3.6882046219        5.5157784553       11.0422551489
  O         3.6311834646        2.9071256749       12.8665236910
  O         5.0982518819        0.2170971345        5.5103550209
  O         2.0926111651        0.0405951835        3.6771465379
  O         6.6447040206        3.0848886798       11.0407745372
  O         6.7037112349        5.6930378807       12.8673747614
  O         2.1338144438        2.6506964685        5.5106648693
  H         6.0406855908        3.0614504037        3.3099494356
  H         1.4324948453        0.0978397427       10.6745714912
  H         2.7336128870        2.6595784308       13.2283044419
  H         7.3506533957        5.6415013426        5.8694552762
  H         4.2960121236        5.5410012459        3.3107910692
  H         5.7959023325        2.7730728031       10.6657412637
  H         4.4730044775        0.1798820415       13.2236882910
  H         2.9906753670        2.9590584652        5.8696033162
  H         5.1321269814        3.0636244515        4.6183346340
  H         3.6037579222        5.8949842099       11.9559045270
  H         3.6381716665        2.6760573932       11.9194510168
  H         5.1802813744       -0.1664111797        4.6001623951
  H         2.1007567363       -0.1980127092        4.6219037188
  H         6.7225588631        2.6875556074       11.9475424790
  H         6.6983930081        5.9228911550       11.9198513081
  H         2.0495790009        3.0332574278        4.6000578215
 Ca         1.0427792133        7.1697516353        2.7786187587
 Ca         5.4403392290       10.0325503963        9.5518094660
 Ca         2.5941591677       10.0281078805       13.7168580386
 Ca         3.8867233416        7.1662599523        6.9878787278
  S         5.4244591929       10.0589656670        1.8737214315
  S         1.0467238071        7.1679994763        9.3499814051
  S         3.8707412339        7.1451441674       14.6525492429
  S         2.6076385447       10.0359145666        7.1760670326
  O        -0.6618597856        8.8895974572        2.9234053395
  O         0.5993177165        6.0162937864       10.1986381347
  O         4.2879760609        8.2785055733       13.6011210418
  O         3.0486996853       11.2058595393        6.3480757960
  O         5.8515151443       11.1854683824        2.9240111190
  O         1.4880484939        8.3194583743       10.2017982426
  O        -2.2024766894        6.0526102157       13.5994218630
  O         2.1617585023        8.8999098366        6.3043305111
  O         0.7670293793        9.3848692036        0.8848850742
  O         2.1714539883        6.6444070743        8.5247806405
  O         2.8665342457        7.7674594290       15.6245099703
  O         1.4899141403       10.5417182644        8.0182461453
  O         4.4226281756       10.6895602554        0.8848919018
  O        -0.0759955702        7.6885594453        8.5237191643
  O        -0.7771147388        6.5727237946       15.6244495684
  O         3.7371113040        9.5035481990        7.9886503630
  O         2.5667140246        8.5627235104        3.6741416279
  O         1.1143808619       11.2522138689       11.0434388066
  O         1.0608794743        8.6431761228       12.8664923460
  O         2.5228675282        5.9526588462        5.5138953239
  O        -0.4796897953        5.7770842959        3.6768877309
  O         4.0726269031        8.8217186386       11.0417281568
  O         4.0794121982       11.4566926933       12.8541539713
  O        -0.4375562869        8.3855927824        5.5123886280
  H         3.4641015848        8.8041704930        3.3083001834
  H        -1.1419207579        5.8316326309       10.6628187197
  H         0.1566196159        8.4173034173       13.2319613949
  H         4.7706548556       11.3871817405        5.8759010830
  H         1.7261331302       11.2687547438        3.3135595094
  H         3.2241425797        8.5120790529       10.6638978350
  H         1.8979770053        5.9226050151       13.2022203733
  H         0.4175199601        8.6932085443        5.8751947813
  H         2.5596238854        8.8021818607        4.6189355546
  H         1.0340690887       11.6329401849       11.9566280060
  H         1.0659046654        8.3989910450       11.9232890636
  H         2.5976987660        5.5812189916        4.5979050896
  H        -0.4727884361        5.5406170323        4.6223092975
  H         4.1513702053        8.4173328916       11.9443152329
  H         4.0865352945       11.6668016630       11.9014759536
  H        -0.5119809448        8.7570727104        4.5965445291
 Ca         6.7218794588        7.1687339861        2.7872805896
 Ca        -0.2417915209       10.0336597899        9.5532094560
 Ca        -3.0996399053       10.0402116251       13.7262023932
 Ca        -1.7974149678        7.1695834605        6.9871352739
  S        -0.2341536630       10.0159783559        1.8740057305
  S         6.7235427502        7.1667895962        9.3541932411
  S        -1.7936631549        7.1809181721       14.6557423771
  S        -3.0719275690       10.0357537608        7.1706636580
  O         5.0142591771        8.9124524351        2.9139288949
  O         6.2785921559        6.0143410387       10.2038735785
  O        -1.3744698121        8.3266286607       13.6197003124
  O        -2.6347092594       11.2009689400        6.3334576494
  O         0.1764028027       11.1627972947        2.9146152945
  O         7.1657267380        8.3199632707       10.2038136642
  O         3.4443918368        6.0088494063       13.6125472571
  O        -3.5197419494        8.8975769400        6.3028026898
  O         6.4224501629        9.4510469700        0.8841091201
  O         7.8461613671        6.6466976808        8.5266992280
  O        -2.8173509049        7.7790953633       15.6243636921
  O        -4.1879607540       10.5428464691        8.0139910788
  O        -1.2319073467       10.6242534146        0.8840623222
  O         5.6006042123        7.6861726841        8.5277642736
  O         4.8793438559        6.5174449371       15.6241908315
  O        -1.9424672655        9.5044292322        7.9847656007
  O        -3.1127322808        8.5630559303        3.6726872139
  O        -4.5649523600       11.2515487883       11.0425231219
  O         6.7354868921        8.6420895346       12.8677074125
  O         8.2034796867        5.9538569897        5.5049642618
  O         5.1966631057        5.7759061943        3.6728718766
  O        -1.6048448177        8.8205786447       11.0416423730
  O        -1.5732048644       11.4164451744       12.8522045207
  O         5.2401597396        8.3852897217        5.5070770934
  H        -2.2120422908        8.7963159876        3.3099104323
  H         4.5383544568        5.8321826750       10.6747334430
  H         5.8370945744        8.3948757029       13.2293493685
  H        -0.9054014628       11.3803848661        5.8730741936
  H        -3.9558440746       11.2774482990        3.3130453843
  H        -2.4550708456        8.5057979693       10.6729438187
  H         7.6026976004        5.9377499295       13.2289843233
  H         6.0930699473        8.6986213108        5.8704541362
  H        -3.1204921364        8.8013529392        4.6180673149
  H        -4.6529164908       11.6335909757       11.9545410117
  H         6.7453068736        8.4052296061       11.9222771838
  H         8.2851444274        5.5694142623        4.5949730120
  H         5.2065475349        5.5373017289        4.6180123515
  H        -1.5272756995        8.4467772597       11.9575623598
  H        -1.5725280670       11.6598355978       11.9084343310
  H         5.1580657118        8.7686197388        4.5966328202
     192
 i =       50, E =     -2330.2433760703
 Ca         9.2942673295        1.4341221756        2.7794694304
 Ca         2.3320596621        4.2989617323        9.5500407757
 Ca        -0.5107950428        4.3000458878       13.7125829329
 Ca         0.7767735364        1.4344938329        6.9912229449
  S         2.3172656047        4.3217081854        1.8746318340
  S         9.3008513232        1.4306971213        9.3525540710
  S         0.7532549115        1.4053618279       14.6505532291
  S        -0.5195566622        4.3053104439        7.1716659091
  O         7.5909973300        3.1541994941        2.9232334009
  O         8.8531875323        0.2788703973       10.2014360384
  O         1.1808342269        2.5393391927       13.6047134424
  O        -0.0688769856        5.4536866268        6.3180839402
  O         2.7453555675        5.4486132327        2.9236570202
  O         9.7417051184        2.5841871264       10.2027925821
  O         6.0249673391        0.2782438381       13.6198272389
  O        -0.9564299769        3.1451376954        6.3265685155
  O         9.0201841225        3.6496675472        0.8849867110
  O        10.4253764871        0.9067878276        8.5274088714
  O        -0.2445529962        2.0356919118       15.6245502455
  O        -1.6514656797        4.8309320054        7.9856588877
  O         1.3164091755        4.9531591681        0.8850203002
  O         8.1778876958        1.9521280374        8.5276656719
  O         7.4717895178        0.8327322497       15.6245161063
  O         0.5953997552        3.7919705047        8.0137643283
  O        -0.5412516579        2.8260146863        3.6783697996
  O        -1.9877381076        5.5175643875       11.0407560070
  O         9.3107005176        2.9094071359       12.8685049565
  O        10.7773855044        0.2168793408        5.5141844214
  O         7.7717616452        0.0418266144        3.6833754863
  O         0.9680775332        3.0856283017       11.0415872586
  O         1.0021111877        5.6876566903       12.8283044585
  O         7.8138932481        2.6494427337        5.5119723045
  H         0.3559941635        3.0683840614        3.3120563240
  H         7.1095187956        0.0981550234       10.6715052430
  H         8.4124017410        2.6619612958       13.2303522003
  H         1.6645580645        5.6501352640        5.8745411783
  H        -1.3766884738        5.5349290993        3.3112459260
  H         0.1200137798        2.7739820318       10.6646732411
  H        10.1335358695        0.2058727501       13.2148523731
  H         8.6696895385        2.9552547473        5.8751709919
  H        -0.5494785392        3.0656713179        4.6228680449
  H        -2.0644340064        5.9161196656       11.9465761776
  H         9.3209016337        2.6681058320       11.9243274778
  H        10.8518701957       -0.1545126888        4.5982940176
  H         7.7786847432       -0.1945650414        4.6280164312
  H         1.0465778445        2.6835063552       11.9454675300
  H         1.0018194496        5.9201336124       11.8812474889
  H         7.7394574950        3.0215614186        4.5964871962
 Ca         3.6160160769        1.4341218638        2.7864089456
 Ca         8.0085540863        4.2989507689        9.5535524544
 Ca         5.1689446068        4.2972694013       13.7166906761
 Ca         6.4613627290        1.4299387306        6.9905937130
  S         8.0190222965        4.2809692983        1.8739458258
  S         3.6169997231        1.4335088884        9.3508176353
  S         6.4471802297        1.4252968141       14.6544423975
  S         5.1797239455        4.2947154951        7.1648774832
  O         1.9068272121        3.1747190071        2.9152238823
  O         3.1714885769        0.2816970834       10.2000995625
  O         6.8589044256        2.5505192410       13.5967984645
  O         5.6102912296        5.4485301819        6.3086133972
  O         8.4298468932        5.4273516955        2.9142484165
  O         4.0604001065        2.5849097964       10.2022916760
  O         0.3244188080        0.2738391953       13.6068794383
  O         4.7285198778        3.1510627894        6.3065879230
  O         3.3146456590        3.7131150318        0.8842452290
  O         4.7410068279        0.9105959243        8.5248153209
  O         5.4341380184        2.0413449098       15.6244256393
  O         4.0722166344        4.8076437522        8.0178913982
  O         7.0214494206        4.8897080098        0.8841789224
  O         2.4929731423        1.9576396880        8.5251919314
  O         1.7498655914        0.7609317238       15.6243124343
  O         6.3115131395        3.7701708707        7.9805351719
  O         5.1395570869        2.8271377452        3.6725416855
  O         3.6888493816        5.5161257618       11.0424448064
  O         3.6302332343        2.9063848834       12.8676182278
  O         5.0982976809        0.2171533260        5.5106001397
  O         2.0932443352        0.0408980795        3.6794837902
  O         6.6439075845        3.0844562661       11.0404783588
  O         6.7043434181        5.6932119394       12.8680730718
  O         2.1341847125        2.6507471135        5.5112541354
  H         6.0402368071        3.0611271951        3.3099795204
  H         1.4323616066        0.0977130947       10.6744716465
  H         2.7322574683        2.6598555706       13.2297678127
  H         7.3508002428        5.6413072013        5.8697610489
  H         4.2962458749        5.5411848267        3.3108546546
  H         5.7951952744        2.7718700364       10.6656466861
  H         4.4722311761        0.1793416713       13.2225184005
  H         2.9912765129        2.9585606086        5.8702851314
  H         5.1324455468        3.0625534008        4.6186819703
  H         3.6043513142        5.8963836136       11.9558435751
  H         3.6366786958        2.6738584528       11.9209749155
  H         5.1797694372       -0.1664388583        4.6005600634
  H         2.1007904097       -0.1963089315        4.6245144887
  H         6.7222388285        2.6862480167       11.9467649413
  H         6.6997095093        5.9242044163       11.9208411343
  H         2.0498670094        3.0330538276        4.6006990055
 Ca         1.0427983937        7.1696264839        2.7789453385
 Ca         5.4403829077       10.0318685839        9.5528158532
 Ca         2.5937382524       10.0283062246       13.7173675288
 Ca         3.8872887159        7.1655091318        6.9881358747
  S         5.4244491064       10.0589199288        1.8739091807
  S         1.0480081455        7.1674544065        9.3499778955
  S         3.8696506712        7.1446353046       14.6525077367
  S         2.6073738474       10.0365581069        7.1776121751
  O        -0.6617618202        8.8897275907        2.9233876209
  O         0.5998090716        6.0159936301       10.1986654708
  O         4.2879862411        8.2783756112       13.6015302305
  O         3.0450104831       11.2060045611        6.3482735561
  O         5.8517459996       11.1856017035        2.9240343463
  O         1.4885143484        8.3191326475       10.2019874141
  O        -2.2024008372        6.0520070938       13.5996837054
  O         2.1624701489        8.9011865077        6.3047276784
  O         0.7672768655        9.3850147307        0.8849928098
  O         2.1730413088        6.6434130890        8.5253653211
  O         2.8660471639        7.7677496369       15.6246035779
  O         1.4888810794       10.5409840271        8.0193251798
  O         4.4225173549       10.6894780471        0.8850042880
  O        -0.0746735974        7.6874937098        8.5237243420
  O        -0.7772338590        6.5719660544       15.6245668963
  O         3.7357963184        9.5030284410        7.9902699142
  O         2.5666868247        8.5625828456        3.6742970627
  O         1.1140580067       11.2517869875       11.0435967514
  O         1.0608479756        8.6434518649       12.8663677780
  O         2.5227761499        5.9527916761        5.5140329529
  O        -0.4796334636        5.7772738899        3.6773622893
  O         4.0724370413        8.8217266472       11.0417333660
  O         4.0803744263       11.4544348930       12.8544026344
  O        -0.4371386911        8.3857816452        5.5124267974
  H         3.4639086235        8.8039641918        3.3081670752
  H        -1.1415296211        5.8320531150       10.6626787697
  H         0.1568257338        8.4169838393       13.2318856586
  H         4.7706329656       11.3879132185        5.8769159304
  H         1.7270066392       11.2686176011        3.3159495496
  H         3.2238263253        8.5119314764       10.6641914209
  H         1.8982880388        5.9234574428       13.2012082924
  H         0.4176209995        8.6943318896        5.8751734651
  H         2.5603217122        8.8021866481        4.6191058356
  H         1.0337402477       11.6317625272       11.9570980290
  H         1.0662847461        8.3981821715       11.9234287442
  H         2.5978507421        5.5813008409        4.5981002407
  H        -0.4734227121        5.5416049329        4.6229876457
  H         4.1509015575        8.4178463142       11.9446815508
  H         4.0856010997       11.6667202082       11.9021282456
  H        -0.5121228399        8.7570796362        4.5966003766
 Ca         6.7219476834        7.1687774693        2.7872231537
 Ca        -0.2416848515       10.0332897693        9.5535572323
 Ca        -3.0996234942       10.0400563504       13.7263232225
 Ca        -1.7970603112        7.1695730154        6.9872683598
  S        -0.2336165510       10.0162659973        1.8742227605
  S         6.7242082035        7.1664376551        9.3543684863
  S        -1.7936249694        7.1806687339       14.6558243431
  S        -3.0724845793       10.0366239273        7.1743927725
  O         5.0142522841        8.9124671117        2.9140046720
  O         6.2790663568        6.0141193128       10.2042487096
  O        -1.3745829705        8.3265250577       13.6197146999
  O        -2.6302387876       11.2055989121        6.3456319989
  O         0.1772232464       11.1630036082        2.9148573488
  O         7.1660859816        8.3198715408       10.2038662499
  O         3.4434134688        6.0088152558       13.6120359970
  O        -3.5187304484        8.9002008118        6.3031362989
  O         6.4223360056        9.4509027620        0.8841653841
  O         7.8467786001        6.6464845781        8.5268768059
  O        -2.8170537686        7.7788399318       15.6244577645
  O        -4.1910348217       10.5438899979        8.0138039801
  O        -1.2312494380       10.6249221173        0.8841964107
  O         5.6011274968        7.6855554699        8.5282385748
  O         4.8765631556        6.5145560339       15.6242106316
  O        -1.9435511841        9.5036652039        7.9876070530
  O        -3.1128528778        8.5628567283        3.6729403750
  O        -4.5649075938       11.2511001039       11.0425796607
  O         6.7353502668        8.6422172375       12.8680333666
  O         8.2034238880        5.9539664806        5.5050126932
  O         5.1968646642        5.7761672279        3.6730250856
  O        -1.6046205234        8.8210566287       11.0416443591
  O        -1.5733874912       11.4148828685       12.8505109444
  O         5.2405065240        8.3853428057        5.5076482292
  H        -2.2123251586        8.7961824396        3.3100668748
  H         4.5387106328        5.8332688084       10.6746919863
  H         5.8368619635        8.3951729593       13.2296772830
  H        -0.9054145946       11.3814538057        5.8742197588
  H        -3.9550253814       11.2772965173        3.3150589602
  H        -2.4549770736        8.5066336146       10.6730053812
  H         7.6036321365        5.9369900185       13.2299868880
  H         6.0933164184        8.6993465901        5.8706253715
  H        -3.1201900950        8.8010546409        4.6184298488
  H        -4.6528519731       11.6336745503       11.9543017411
  H         6.7455932296        8.4041790989       11.9229143837
  H         8.2849038891        5.5696251046        4.5949921698
  H         5.2064641292        5.5373298925        4.6181025403
  H        -1.5269385861        8.4475053360       11.9575956794
  H        -1.5735002418       11.6592857095       11.9070047909
  H         5.1580586981        8.7684505781        4.5971766264
     192
 i =       51, E =     -2330.2434420591
 Ca         9.2940606703        1.4337453182        2.7794118653
 Ca         2.3323098657        4.2988862760        9.5510459978
 Ca        -0.5106627606        4.3000151055       13.7127263065
 Ca         0.7769099403        1.4343315962        6.9919185791
  S         2.3170594399        4.3215856649        1.8746740516
  S         9.3011956612        1.4304384872        9.3529096237
  S         0.7534954488        1.4056546936       14.6506133246
  S        -0.5197957383        4.3055158761        7.1746052941
  O         7.5910519624        3.1542656622        2.9232958098
  O         8.8535146409        0.2786296552       10.2017425741
  O         1.1809408877        2.5395671441       13.6045405572
  O        -0.0687118817        5.4532049930        6.3200249818
  O         2.7453516331        5.4484501427        2.9236643165
  O         9.7418282069        2.5841576977       10.2030374618
  O         6.0250225121        0.2787217255       13.6196924662
  O        -0.9566550109        3.1431517251        6.3327331098
  O         9.0204272181        3.6498071269        0.8850702037
  O        10.4256703562        0.9065503768        8.5277884376
  O        -0.2441943614        2.0359488190       15.6246471156
  O        -1.6524344089        4.8322133588        7.9867378989
  O         1.3161771963        4.9530331544        0.8851027427
  O         8.1782577100        1.9514454959        8.5280863169
  O         7.4716569092        0.8327712305       15.6245939005
  O         0.5947305794        3.7933665739        8.0175856423
  O        -0.5414821816        2.8259946499        3.6792305129
  O        -1.9877096117        5.5175632662       11.0407504365
  O         9.3108124975        2.9095307279       12.8685966335
  O        10.7772963885        0.2172240975        5.5142792214
  O         7.7724018337        0.0430212060        3.6844534096
  O         0.9679449031        3.0854844647       11.0413516516
  O         1.0021099303        5.6884410431       12.8277165216
  O         7.8138465866        2.6495409404        5.5120560935
  H         0.3557702413        3.0683119290        3.3127285466
  H         7.1096477330        0.0980220573       10.6717634820
  H         8.4124332678        2.6621194302       13.2302009750
  H         1.6647354653        5.6500843449        5.8747804997
  H        -1.3765183122        5.5350979359        3.3115208732
  H         0.1198067088        2.7740253414       10.6643217703
  H        10.1333679474        0.2050868265       13.2150334033
  H         8.6695750697        2.9551999479        5.8756302089
  H        -0.5496080701        3.0646821865        4.6239315979
  H        -2.0644007882        5.9156662449       11.9466255270
  H         9.3211672920        2.6680636823       11.9244385043
  H        10.8511041447       -0.1546770701        4.5985270317
  H         7.7789558108       -0.1930108650        4.6293121532
  H         1.0464152355        2.6841334212       11.9453249684
  H         1.0018331766        5.9207908805       11.8806345217
  H         7.7393919414        3.0216026104        4.5965612431
 Ca         3.6161878472        1.4338481525        2.7865912161
 Ca         8.0089259394        4.2986526569        9.5532790720
 Ca         5.1690576174        4.2973383306       13.7172562417
 Ca         6.4612010709        1.4298044512        6.9908584297
  S         8.0191963099        4.2809660110        1.8739963116
  S         3.6169465597        1.4336574456        9.3509585010
  S         6.4473347682        1.4257018421       14.6544031341
  S         5.1794529921        4.2944997115        7.1646427454
  O         1.9064992112        3.1746410441        2.9152896067
  O         3.1714436701        0.2817433030       10.2001863010
  O         6.8594179606        2.5510737481       13.5971645231
  O         5.6104096735        5.4485424612        6.3085992077
  O         8.4300242166        5.4272971545        2.9143289386
  O         4.0603635578        2.5849375694       10.2025892845
  O         0.3247378227        0.2740768041       13.6070497287
  O         4.7282091222        3.1502915308        6.3070643078
  O         3.3144947772        3.7130973433        0.8843140071
  O         4.7409651611        0.9108777667        8.5250654782
  O         5.4342577109        2.0414308009       15.6244824697
  O         4.0694482433        4.8071583412        8.0142541963
  O         7.0215427968        4.8894651129        0.8842773464
  O         2.4929491035        1.9579752621        8.5256536291
  O         1.7502290220        0.7613504384       15.6243955386
  O         6.3109832337        3.7704514986        7.9810040354
  O         5.1394465402        2.8272764646        3.6729421933
  O         3.6887966618        5.5161397506       11.0424140059
  O         3.6303113494        2.9065099381       12.8680496071
  O         5.0983231545        0.2174431166        5.5105527292
  O         2.0937105003        0.0413228902        3.6810150664
  O         6.6440409595        3.0844874311       11.0402176528
  O         6.7040649951        5.6933124163       12.8683798336
  O         2.1342534474        2.6508888333        5.5111014513
  H         6.0400571853        3.0610308632        3.3100209203
  H         1.4324176481        0.0975928926       10.6742791511
  H         2.7323198109        2.6601675284       13.2304136974
  H         7.3508469572        5.6412225587        5.8700210084
  H         4.2964892982        5.5412666064        3.3109256584
  H         5.7953282833        2.7721961401       10.6650953650
  H         4.4720714968        0.1791553446       13.2218019100
  H         2.9912327114        2.9583080581        5.8707436249
  H         5.1325017329        3.0621252887        4.6192244677
  H         3.6044302847        5.8963088646       11.9557039646
  H         3.6369523515        2.6730258603       11.9216819277
  H         5.1794665658       -0.1666426167        4.6006348530
  H         2.1010583070       -0.1946002989        4.6262800795
  H         6.7225488331        2.6866299498       11.9464302119
  H         6.6996305402        5.9241740194       11.9211929071
  H         2.0502451974        3.0331562185        4.6006146775
 Ca         1.0429536547        7.1698057192        2.7790010005
 Ca         5.4401608506       10.0316622841        9.5527117869
 Ca         2.5934620549       10.0282357769       13.7180921760
 Ca         3.8874186515        7.1653957593        6.9882841522
  S         5.4244795028       10.0588762893        1.8739835821
  S         1.0482093950        7.1670866923        9.3502121048
  S         3.8686779951        7.1441939673       14.6523115404
  S         2.6065577318       10.0359378091        7.1775839023
  O        -0.6616956172        8.8898932443        2.9233373059
  O         0.6000360452        6.0156605888       10.1989921840
  O         4.2877665419        8.2780759145       13.6017809026
  O         3.0446532945       11.2042712537        6.3478086833
  O         5.8519855972       11.1855070128        2.9240615456
  O         1.4885589305        8.3189796012       10.2020428219
  O        -2.2025199320        6.0518480573       13.6000590417
  O         2.1617979315        8.9004359510        6.3049153717
  O         0.7673679086        9.3852840540        0.8850662775
  O         2.1733499924        6.6431948777        8.5255983863
  O         2.8656415031        7.7679942375       15.6246731755
  O         1.4884880477       10.5415757747        8.0190688103
  O         4.4224472723       10.6892730843        0.8850688470
  O        -0.0747024606        7.6868827203        8.5242346999
  O        -0.7770051762        6.5726145450       15.6246322327
  O         3.7348049631        9.5027057560        7.9904422861
  O         2.5666475976        8.5625988571        3.6742726849
  O         1.1139872355       11.2517962643       11.0435358571
  O         1.0610499619        8.6434834128       12.8662629348
  O         2.5228733025        5.9527283537        5.5140222399
  O        -0.4795340211        5.7774163430        3.6778923878
  O         4.0726045115        8.8219066209       11.0416505080
  O         4.0800967772       11.4539200578       12.8547029741
  O        -0.4370638769        8.3857918955        5.5125993474
  H         3.4638376961        8.8037528444        3.3079948652
  H        -1.1415389370        5.8319237588       10.6624436715
  H         0.1570696949        8.4168910039       13.2318463165
  H         4.7708045304       11.3881546886        5.8771730750
  H         1.7278119981       11.2687975786        3.3173875168
  H         3.2238826040        8.5122022567       10.6642585616
  H         1.8983952761        5.9238409408       13.2006309098
  H         0.4176323781        8.6948733863        5.8751234352
  H         2.5603098014        8.8022466112        4.6190789094
  H         1.0336878433       11.6315875454       11.9571674375
  H         1.0665916669        8.3982670536       11.9233668411
  H         2.5978583303        5.5811758461        4.5981817794
  H        -0.4734658166        5.5421579659        4.6236097014
  H         4.1508993710        8.4183416823       11.9447193997
  H         4.0856375866       11.6662265139       11.9024564160
  H        -0.5120257618        8.7572017002        4.5967797147
 Ca         6.7218857191        7.1688036784        2.7873870629
 Ca        -0.2417187361       10.0332303512        9.5533608761
 Ca        -3.0995497879       10.0399870555       13.7266871777
 Ca        -1.7968996798        7.1696288639        6.9874868656
  S        -0.2334026866       10.0165458352        1.8743978970
  S         6.7245508418        7.1661153187        9.3546294242
  S        -1.7936763167        7.1806162404       14.6559876143
  S        -3.0726214717       10.0373702064        7.1759959774
  O         5.0142465968        8.9124729934        2.9139995289
  O         6.2794374595        6.0139243605       10.2045214126
  O        -1.3746489924        8.3263308781       13.6198139921
  O        -2.6318553648       11.2066097675        6.3476884300
  O         0.1776303398       11.1632718736        2.9149622764
  O         7.1662201152        8.3199051550       10.2037887805
  O         3.4426187546        6.0086591411       13.6116084342
  O        -3.5185151559        8.9014087166        6.3038899930
  O         6.4223709757        9.4509916529        0.8842436781
  O         7.8471847839        6.6463463029        8.5269541912
  O        -2.8171470659        7.7786763746       15.6245485910
  O        -4.1908289758       10.5428763961        8.0168407594
  O        -1.2310685237       10.6251005017        0.8843299343
  O         5.6012816704        7.6850246101        8.5286424959
  O         4.8743912963        6.5125312353       15.6242987811
  O        -1.9440742521        9.5033803903        7.9887612822
  O        -3.1128897794        8.5628436665        3.6728828228
  O        -4.5648790629       11.2511334750       11.0425545745
  O         6.7353747540        8.6422100043       12.8680445766
  O         8.2034136878        5.9540633075        5.5053347701
  O         5.1969686511        5.7762095764        3.6734659479
  O        -1.6045800940        8.8209933879       11.0416831540
  O        -1.5735809235       11.4146869901       12.8499993049
  O         5.2408624773        8.3853988633        5.5081053805
  H        -2.2123442546        8.7961358799        3.3099586939
  H         4.5386142413        5.8329060230       10.6742386694
  H         5.8368489745        8.3951465501       13.2296152185
  H        -0.9052507874       11.3821184915        5.8751073126
  H        -3.9544542358       11.2770881885        3.3165841340
  H        -2.4550875046        8.5068381681       10.6731337411
  H         7.6035257274        5.9364835230       13.2303429217
  H         6.0935901338        8.6998332957        5.8708742009
  H        -3.1201492690        8.8010576595        4.6183793051
  H        -4.6527797810       11.6335693223       11.9543214809
  H         6.7457648116        8.4039952266       11.9229907574
  H         8.2848740540        5.5698350185        4.5952591509
  H         5.2065253331        5.5370901813        4.6184919483
  H        -1.5268569279        8.4474546235       11.9576419191
  H        -1.5736330802       11.6586928716       11.9063147261
  H         5.1579386081        8.7683476178        4.5975829283
     192
 i =       52, E =     -2330.2435158888
 Ca         9.2945848773        1.4338816201        2.7793287616
 Ca         2.3335860563        4.2983766659        9.5540057723
 Ca        -0.5095612715        4.3010548250       13.7116516057
 Ca         0.7768487252        1.4346147893        6.9941033215
  S         2.3165038210        4.3212891052        1.8748888312
  S         9.3022175429        1.4292931976        9.3540145820
  S         0.7537856657        1.4061258201       14.6508092544
  S        -0.5200575390        4.3069894737        7.1861647463
  O         7.5911018642        3.1541885125        2.9233605674
  O         8.8543841842        0.2774171292       10.2024958563
  O         1.1811210904        2.5400121982       13.6041968703
  O        -0.0684826688        5.4528245780        6.3287715063
  O         2.7452313091        5.4481691413        2.9236834222
  O         9.7420715965        2.5842357084       10.2031777306
  O         6.0247756999        0.2791840589       13.6197119516
  O        -0.9596594543        3.1379619814        6.3566640645
  O         9.0208489996        3.6500161190        0.8852308437
  O        10.4264404818        0.9054709486        8.5288179742
  O        -0.2435957605        2.0363416798       15.6248272195
  O        -1.6549446032        4.8358298951        7.9927230326
  O         1.3157287701        4.9528740967        0.8852117309
  O         8.1792511346        1.9488694762        8.5295254290
  O         7.4711551380        0.8321399084       15.6247843297
  O         0.5961508293        3.7966561468        8.0262944262
  O        -0.5423307283        2.8256874792        3.6836711800
  O        -1.9874897733        5.5174221687       11.0406288101
  O         9.3107473051        2.9095111133       12.8685223579
  O        10.7767915012        0.2178589083        5.5144511589
  O         7.7741610522        0.0461055109        3.6890571910
  O         0.9670340520        3.0848376252       11.0409971712
  O         1.0017444317        5.6902600395       12.8247711334
  O         7.8140849148        2.6494569063        5.5125734792
  H         0.3546661862        3.0685676325        3.3163076665
  H         7.1101940994        0.0979570082       10.6725588164
  H         8.4121406824        2.6625959997       13.2298167780
  H         1.6653290729        5.6495870715        5.8761151255
  H        -1.3758273769        5.5351663495        3.3133174069
  H         0.1189829831        2.7737104258       10.6631573470
  H        10.1323583295        0.2023836957       13.2154195847
  H         8.6692063884        2.9553170015        5.8777603751
  H        -0.5496530405        3.0618573071        4.6288253291
  H        -2.0634915646        5.9152557011       11.9465320280
  H         9.3220061480        2.6674006039       11.9244843578
  H        10.8487243713       -0.1554169783        4.5991747596
  H         7.7804993022       -0.1883170210        4.6347281582
  H         1.0453860550        2.6850302357       11.9451180868
  H         1.0018107450        5.9234813878       11.8778909305
  H         7.7397337400        3.0220556760        4.5972251759
 Ca         3.6171553065        1.4335870855        2.7875601038
 Ca         8.0098510381        4.2976630257        9.5532400408
 Ca         5.1689842641        4.2977718359       13.7179576224
 Ca         6.4613353702        1.4297566094        6.9921010537
  S         8.0195511570        4.2808932338        1.8742450606
  S         3.6166729855        1.4342193634        9.3513359173
  S         6.4476116661        1.4261502482       14.6543352277
  S         5.1779590467        4.2939734556        7.1657126192
  O         1.9053305628        3.1743019433        2.9154136560
  O         3.1712040262        0.2816617977       10.1999924262
  O         6.8602122401        2.5514377463       13.5972965447
  O         5.6105036443        5.4473779516        6.3086767436
  O         8.4304340010        5.4272448920        2.9145243369
  O         4.0605911988        2.5854410486       10.2028324321
  O         0.3252840824        0.2744782483       13.6075439574
  O         4.7269446309        3.1478234575        6.3101469259
  O         3.3140557462        3.7130867948        0.8844954853
  O         4.7404771435        0.9117404388        8.5254204663
  O         5.4343633448        2.0407913303       15.6246366808
  O         4.0662936305        4.8081331810        8.0116468639
  O         7.0218384574        4.8888567081        0.8844661123
  O         2.4929034352        1.9588396147        8.5266155530
  O         1.7507137957        0.7616853790       15.6245742669
  O         6.3099011510        3.7709382138        7.9820200854
  O         5.1392489332        2.8275444368        3.6745486540
  O         3.6891504185        5.5167577333       11.0424284878
  O         3.6301359648        2.9068485340       12.8693355755
  O         5.0981711501        0.2179198831        5.5108505958
  O         2.0952976282        0.0431446880        3.6865487407
  O         6.6442159528        3.0842674155       11.0395506730
  O         6.7037735409        5.6936741856       12.8692207579
  O         2.1343046700        2.6504076877        5.5111872506
  H         6.0396004052        3.0611781902        3.3111237488
  H         1.4324967184        0.0975747992       10.6738770774
  H         2.7321321835        2.6611558418       13.2324948333
  H         7.3509683327        5.6408205158        5.8714593449
  H         4.2971216479        5.5409856720        3.3119249073
  H         5.7956146808        2.7726663760       10.6636985464
  H         4.4716445395        0.1784404593       13.2192805537
  H         2.9908104192        2.9577805182        5.8722228258
  H         5.1330653958        3.0612056789        4.6212020252
  H         3.6051025230        5.8966907348       11.9554036306
  H         3.6376861582        2.6697056747       11.9240379966
  H         5.1777395346       -0.1677677875        4.6013975916
  H         2.1017037655       -0.1892759453        4.6325631669
  H         6.7227730667        2.6869144266       11.9453345442
  H         6.6994693098        5.9243916316       11.9222155089
  H         2.0519627092        3.0341444717        4.6011861021
 Ca         1.0430615159        7.1696175768        2.7794667745
 Ca         5.4393778009       10.0311198953        9.5532643503
 Ca         2.5922242673       10.0278211033       13.7193962600
 Ca         3.8881728592        7.1648284612        6.9889946357
  S         5.4247463685       10.0588790580        1.8743042149
  S         1.0492140564        7.1661141004        9.3506486728
  S         3.8649985950        7.1427873737       14.6518185670
  S         2.6052890777       10.0338602735        7.1778616909
  O        -0.6613408411        8.8904984608        2.9233325031
  O         0.6008019875        6.0146036274       10.1992786380
  O         4.2869158417        8.2769722474       13.6026148517
  O         3.0447543585       11.2003175545        6.3483690398
  O         5.8526369594       11.1854713355        2.9242669880
  O         1.4890440717        8.3187396601       10.2018730281
  O        -2.2025902896        6.0523077269       13.6001831786
  O         2.1600585943        8.8987267663        6.3051086972
  O         0.7678847021        9.3857875003        0.8852121630
  O         2.1744356185        6.6424624342        8.5258064244
  O         2.8637536011        7.7693374163       15.6248158925
  O         1.4875064433       10.5428930635        8.0175327675
  O         4.4225104378       10.6891118730        0.8852524800
  O        -0.0742409074        7.6855279561        8.5256353976
  O        -0.7764531758        6.5740811740       15.6247921225
  O         3.7332709214        9.5008962190        7.9908852750
  O         2.5669170682        8.5633125556        3.6747762291
  O         1.1139034317       11.2526385933       11.0435885230
  O         1.0612909809        8.6434498267       12.8659587814
  O         2.5228601032        5.9528190729        5.5142080464
  O        -0.4792745750        5.7779071199        3.6806187326
  O         4.0726940812        8.8217323738       11.0418606536
  O         4.0781648707       11.4534018502       12.8558241727
  O        -0.4367734971        8.3864884391        5.5130595114
  H         3.4640402398        8.8035349244        3.3079387745
  H        -1.1416452956        5.8320796298       10.6618579126
  H         0.1574412583        8.4162820484       13.2314676650
  H         4.7713242500       11.3888440536        5.8788166895
  H         1.7303466483       11.2693649804        3.3219073605
  H         3.2237736883        8.5127062957       10.6643242669
  H         1.8981817200        5.9251217845       13.1976940678
  H         0.4177256279        8.6964390459        5.8756073057
  H         2.5604580955        8.8032152154        4.6195771945
  H         1.0338648532       11.6316191879       11.9576719727
  H         1.0672882297        8.3978068129       11.9232756354
  H         2.5975867427        5.5803349514        4.5988051248
  H        -0.4738897184        5.5431526180        4.6264428993
  H         4.1504842369        8.4190547578       11.9452174016
  H         4.0854381918       11.6647237202       11.9033887209
  H        -0.5117671549        8.7576837430        4.5972367075
 Ca         6.7215794178        7.1686490125        2.7883970671
 Ca        -0.2414711390       10.0330725525        9.5543625120
 Ca        -3.0996997625       10.0396598967       13.7267895358
 Ca        -1.7965688214        7.1699930833        6.9888733904
  S        -0.2325475883       10.0173075886        1.8748495457
  S         6.7257931320        7.1651616735        9.3553540610
  S        -1.7936092396        7.1807208384       14.6563745230
  S        -3.0728028044       10.0380895924        7.1796516544
  O         5.0143591165        8.9126435610        2.9141675106
  O         6.2807061677        6.0128973742       10.2046136121
  O        -1.3744845815        8.3260552075       13.6201062279
  O        -2.6367106382       11.2064107221        6.3502353942
  O         0.1788932637       11.1639768087        2.9154923684
  O         7.1666720098        8.3197078500       10.2040536737
  O         3.4397421161        6.0082262301       13.6102110373
  O        -3.5182187242        8.9034997715        6.3052915858
  O         6.4225157493        9.4512369910        0.8844461230
  O         7.8483793328        6.6456292510        8.5269935326
  O        -2.8171398263        7.7785912489       15.6247166702
  O        -4.1900195061       10.5416194096        8.0227340439
  O        -1.2302958578       10.6254433974        0.8844876935
  O         5.6019046772        7.6829648478        8.5296735601
  O         4.8669296666        6.5061558199       15.6245434987
  O        -1.9447182449        9.5027151701        7.9913264474
  O        -3.1126797384        8.5632018105        3.6734481339
  O        -4.5648237342       11.2515207007       11.0424857538
  O         6.7351161031        8.6418807485       12.8681631914
  O         8.2032771401        5.9540663454        5.5066159252
  O         5.1970757384        5.7761991630        3.6753645596
  O        -1.6045938556        8.8204610401       11.0419833105
  O        -1.5741395211       11.4142990893       12.8480330732
  O         5.2420662925        8.3858109307        5.5096782710
  H        -2.2121612021        8.7963344253        3.3101364594
  H         4.5387136541        5.8323780960       10.6729201957
  H         5.8365477502        8.3945872454       13.2293916228
  H        -0.9049156558       11.3841081552        5.8780777760
  H        -3.9523965798       11.2761729931        3.3224362742
  H        -2.4554981702        8.5070787094       10.6735659606
  H         7.6035979784        5.9351515406       13.2315169289
  H         6.0943959326        8.7017248595        5.8721761358
  H        -3.1198032533        8.8020734827        4.6188027608
  H        -4.6520743653       11.6339101111       11.9542933198
  H         6.7463406428        8.4028954091       11.9233657316
  H         8.2846805099        5.5701560540        4.5964182942
  H         5.2065429299        5.5355365506        4.6200861876
  H        -1.5269995220        8.4467412907       11.9579430518
  H        -1.5743222015       11.6567740580       11.9037527903
  H         5.1579378235        8.7682834673        4.5991295149
     192
 i =       53, E =     -2330.2435664881
 Ca         9.2947178916        1.4338412005        2.7790325353
 Ca         2.3338278230        4.2986724465        9.5520864059
 Ca        -0.5099884517        4.3004421474       13.7121521564
 Ca         0.7764319959        1.4349056802        6.9935795055
  S         2.3164563251        4.3212997858        1.8749389204
  S         9.3018830650        1.4294396488        9.3539805429
  S         0.7538152888        1.4061687238       14.6506839198
  S        -0.5198490196        4.3065963027        7.1840278003
  O         7.5911115990        3.1542745691        2.9233309429
  O         8.8542665324        0.2775234192       10.2024761341
  O         1.1812195741        2.5400730380       13.6042668124
  O        -0.0684523052        5.4543511346        6.3299584770
  O         2.7452048457        5.4482072873        2.9236206095
  O         9.7419360855        2.5842050244       10.2031292706
  O         6.0248336457        0.2790402188       13.6198280195
  O        -0.9567088269        3.1433085080        6.3455229783
  O         9.0208833161        3.6500175151        0.8853000257
  O        10.4261192969        0.9057279760        8.5287349564
  O        -0.2435484121        2.0363379256       15.6248764962
  O        -1.6535157257        4.8340072734        7.9931632579
  O         1.3157043632        4.9528896563        0.8852977999
  O         8.1786501001        1.9489725400        8.5295482709
  O         7.4712703490        0.8323141325       15.6248293168
  O         0.5966821981        3.7960764149        8.0237418077
  O        -0.5426456451        2.8250840412        3.6835697073
  O        -1.9877950937        5.5172558846       11.0406865249
  O         9.3109600140        2.9096149317       12.8686532081
  O        10.7768231822        0.2177590384        5.5143956847
  O         7.7743307357        0.0460695190        3.6878370174
  O         0.9674788704        3.0853976335       11.0408476197
  O         1.0016658760        5.6895806908       12.8254088363
  O         7.8141819420        2.6494789677        5.5125181094
  H         0.3543829156        3.0684339210        3.3166617216
  H         7.1102670934        0.0979677171       10.6725160724
  H         8.4123204317        2.6626189677       13.2298247180
  H         1.6651898883        5.6495330465        5.8760551839
  H        -1.3757108791        5.5353508993        3.3133607668
  H         0.1193783557        2.7742676617       10.6633324540
  H        10.1322090771        0.2025136146       13.2157228490
  H         8.6693042518        2.9552807497        5.8777841014
  H        -0.5495458100        3.0615356975        4.6285195110
  H        -2.0638725658        5.9151769246       11.9465517321
  H         9.3218764948        2.6678116417       11.9245509606
  H        10.8490543933       -0.1552403055        4.5990184793
  H         7.7808646805       -0.1885932082        4.6334598223
  H         1.0458281991        2.6851769175       11.9449198734
  H         1.0015587638        5.9228744507       11.8785445361
  H         7.7398747046        3.0219377333        4.5971372776
 Ca         3.6170000196        1.4335927439        2.7871255481
 Ca         8.0093711519        4.2980570490        9.5531689057
 Ca         5.1688286991        4.2978047340       13.7182224015
 Ca         6.4615327854        1.4297423457        6.9918229387
  S         8.0195762754        4.2809671586        1.8742661618
  S         3.6168358544        1.4341209625        9.3513694280
  S         6.4475856216        1.4260000033       14.6543854212
  S         5.1777628789        4.2939890402        7.1654628710
  O         1.9051667207        3.1743426668        2.9154478514
  O         3.1713531654        0.2816764748       10.2001150087
  O         6.8599110510        2.5514084960       13.5973284272
  O         5.6099811328        5.4468045012        6.3077725339
  O         8.4305601091        5.4273630571        2.9144903002
  O         4.0605918246        2.5854105842       10.2027581916
  O         0.3251756337        0.2744268984       13.6075186664
  O         4.7263281672        3.1472933930        6.3108931545
  O         3.3139685050        3.7130889358        0.8845510877
  O         4.7405537846        0.9115976431        8.5252766620
  O         5.4344257812        2.0409654308       15.6247295099
  O         4.0666607583        4.8089283679        8.0118287924
  O         7.0218656287        4.8890348168        0.8845446935
  O         2.4931273193        1.9583550316        8.5262029954
  O         1.7506707598        0.7617374304       15.6246350908
  O         6.3097048358        3.7710184876        7.9817597226
  O         5.1392930203        2.8273937007        3.6742406442
  O         3.6890458733        5.5163451026       11.0422083830
  O         3.6305695451        2.9068868187       12.8689329798
  O         5.0981808480        0.2177961812        5.5109666750
  O         2.0953521820        0.0437507619        3.6851587186
  O         6.6444993386        3.0846945758       11.0397247738
  O         6.7036710340        5.6933425891       12.8689551405
  O         2.1340553664        2.6504921863        5.5110984380
  H         6.0397054006        3.0612034539        3.3110454487
  H         1.4323866836        0.0974023302       10.6739845792
  H         2.7326055492        2.6610375702       13.2318336053
  H         7.3508326587        5.6409683978        5.8712990208
  H         4.2971028237        5.5410074678        3.3118007631
  H         5.7958454033        2.7731021843       10.6641082107
  H         4.4719754167        0.1788559843       13.2198387942
  H         2.9905994583        2.9578362235        5.8719501862
  H         5.1329326714        3.0611153582        4.6208732563
  H         3.6048606200        5.8962732405       11.9552750301
  H         3.6381921351        2.6704517579       11.9234676636
  H         5.1777588037       -0.1676153808        4.6014038352
  H         2.1018373063       -0.1894113944        4.6312126188
  H         6.7228716617        2.6873535431       11.9456903743
  H         6.6991466881        5.9238277328       11.9218527831
  H         2.0516890544        3.0339470054        4.6009693953
 Ca         1.0431546757        7.1697857671        2.7792278126
 Ca         5.4394795606       10.0313923309        9.5527058076
 Ca         2.5924556137       10.0279700499       13.7197370255
 Ca         3.8879665436        7.1651080183        6.9888887865
  S         5.4247251966       10.0589097302        1.8743498670
  S         1.0486722543        7.1665322589        9.3507466728
  S         3.8652852677        7.1429938152       14.6517545937
  S         2.6056699871       10.0341012457        7.1770842133
  O        -0.6613579273        8.8903839918        2.9232993278
  O         0.6006104294        6.0148807965       10.1992610612
  O         4.2870245691        8.2771414393       13.6025930085
  O         3.0450755089       11.2009248724        6.3472824423
  O         5.8524607449       11.1855220966        2.9242994002
  O         1.4888430754        8.3189275747       10.2020861632
  O        -2.2025833806        6.0521219455       13.6004403090
  O         2.1601794517        8.8987475572        6.3046947942
  O         0.7678080284        9.3857315512        0.8852909942
  O         2.1736890953        6.6430728388        8.5256465429
  O         2.8639735476        7.7692631305       15.6248693468
  O         1.4881120799       10.5424454343        8.0176344305
  O         4.4224874035       10.6891229388        0.8853352658
  O        -0.0747742674        7.6860703993        8.5256943491
  O        -0.7764674237        6.5740399125       15.6248708805
  O         3.7337371254        9.5012149474        7.9904227197
  O         2.5668268854        8.5631288994        3.6744421112
  O         1.1140054772       11.2523951468       11.0434932559
  O         1.0612680904        8.6435016511       12.8659538167
  O         2.5226780741        5.9526608087        5.5141207461
  O        -0.4790516397        5.7781201420        3.6804196541
  O         4.0727755902        8.8220236198       11.0417759421
  O         4.0783426909       11.4530193971       12.8557892547
  O        -0.4369356172        8.3863060480        5.5129319947
  H         3.4640748655        8.8036008351        3.3080526531
  H        -1.1418430050        5.8317200869       10.6620574935
  H         0.1574315669        8.4163192531       13.2314661387
  H         4.7712873554       11.3885594587        5.8785716914
  H         1.7303737680       11.2697726328        3.3209396184
  H         3.2238690680        8.5128291514       10.6644212526
  H         1.8980720237        5.9247730276       13.1982927833
  H         0.4177093333        8.6958065260        5.8755129011
  H         2.5602598837        8.8029141169        4.6192582065
  H         1.0338701937       11.6317648770       11.9574347434
  H         1.0672379780        8.3983150212       11.9231336260
  H         2.5975849096        5.5803926586        4.5986346225
  H        -0.4737458005        5.5431122198        4.6261941865
  H         4.1507030915        8.4190425985       11.9450676209
  H         4.0857142463       11.6643821968       11.9033735748
  H        -0.5119785089        8.7575952217        4.5971084792
 Ca         6.7217159961        7.1688346334        2.7882253865
 Ca        -0.2414333420       10.0331231223        9.5540099732
 Ca        -3.0995230692       10.0399145001       13.7270152874
 Ca        -1.7968164065        7.1700549805        6.9886949429
  S        -0.2326583921       10.0172514496        1.8748723873
  S         6.7254333289        7.1652530353        9.3553850308
  S        -1.7935530698        7.1807217830       14.6563388050
  S        -3.0726238308       10.0369792871        7.1771180316
  O         5.0143180752        8.9125822739        2.9141363441
  O         6.2805038592        6.0130225139       10.2047683969
  O        -1.3745147545        8.3260678666       13.6200837479
  O        -2.6353364494       11.2038039532        6.3457000430
  O         0.1788272719       11.1639351750        2.9154596878
  O         7.1665060649        8.3196802828       10.2040798699
  O         3.4400799209        6.0082444085       13.6103742368
  O        -3.5187214239        8.9012736525        6.3047288428
  O         6.4224995393        9.4512601567        0.8845104279
  O         7.8480075405        6.6457978739        8.5270120723
  O        -2.8171474638        7.7785134713       15.6247818924
  O        -4.1896777948       10.5419565065        8.0197305452
  O        -1.2304048146       10.6254729327        0.8845606965
  O         5.6015390650        7.6830564276        8.5296951216
  O         4.8675797063        6.5072481748       15.6246264061
  O        -1.9443157420        9.5031734275        7.9897752383
  O        -3.1126848480        8.5630750673        3.6732908675
  O        -4.5649487232       11.2512360346       11.0424171071
  O         6.7352257264        8.6421030456       12.8680712349
  O         8.2032461439        5.9540093719        5.5064557903
  O         5.1971172992        5.7763840920        3.6748780463
  O        -1.6046007076        8.8207150728       11.0418457773
  O        -1.5738781793       11.4148657667       12.8485992614
  O         5.2417485803        8.3858058710        5.5093932627
  H        -2.2121701803        8.7963455561        3.3100720333
  H         4.5387452537        5.8320221371       10.6731547882
  H         5.8368003284        8.3945114794       13.2293318494
  H        -0.9049613621       11.3837048183        5.8771903096
  H        -3.9523367435       11.2765443646        3.3215103944
  H        -2.4554568563        8.5070131422       10.6735642484
  H         7.6033075695        5.9354113099       13.2311548242
  H         6.0942130110        8.7013702997        5.8719601341
  H        -3.1199081772        8.8020586908        4.6185990546
  H        -4.6521581326       11.6337374208       11.9542592824
  H         6.7462979938        8.4034483207       11.9231687191
  H         8.2848056397        5.5701782979        4.5962544695
  H         5.2066412965        5.5359118850        4.6196679418
  H        -1.5269836220        8.4467397026       11.9577404982
  H        -1.5740184441       11.6567838150       11.9042266742
  H         5.1580065832        8.7682876839        4.5988676325
     192
 i =       54, E =     -2330.2436929389
 Ca         9.2950512117        1.4335946391        2.7785698338
 Ca         2.3346814150        4.2983370489        9.5534670027
 Ca        -0.5097938830        4.3002475815       13.7121639542
 Ca         0.7761595624        1.4351495932        6.9936542524
  S         2.3159558842        4.3209631324        1.8752708951
  S         9.3024019492        1.4285598263        9.3546733565
  S         0.7536744667        1.4061893104       14.6509029838
  S        -0.5192359099        4.3068618424        7.1885556528
  O         7.5911490567        3.1545023037        2.9234548513
  O         8.8548759261        0.2767648075       10.2032806470
  O         1.1810868840        2.5402100063       13.6044920106
  O        -0.0675586280        5.4584651976        6.3405995239
  O         2.7451254222        5.4479753717        2.9236675262
  O         9.7422489654        2.5836866410       10.2034914740
  O         6.0247832663        0.2789789446       13.6196694765
  O        -0.9555661104        3.1459856085        6.3474657646
  O         9.0211513987        3.6501450527        0.8855236571
  O        10.4266345932        0.9051142653        8.5293404448
  O        -0.2435600352        2.0364130396       15.6250971206
  O        -1.6525648371        4.8321590507        7.9986635655
  O         1.3153542139        4.9527561098        0.8855415227
  O         8.1788528510        1.9472843605        8.5307672433
  O         7.4713452166        0.8322052140       15.6250110662
  O         0.5990311059        3.7952533524        8.0244728431
  O        -0.5435896605        2.8236151484        3.6862765107
  O        -1.9877779601        5.5174024207       11.0408910334
  O         9.3112947135        2.9097465128       12.8688051206
  O        10.7768740279        0.2179443232        5.5145924937
  O         7.7760763088        0.0481409764        3.6894578110
  O         0.9673950916        3.0849577122       11.0409263952
  O         1.0014698681        5.6904474641       12.8241663444
  O         7.8144039283        2.6495259897        5.5128406834
  H         0.3532056028        3.0681003847        3.3192335144
  H         7.1105058319        0.0976115136       10.6728732840
  H         8.4125127201        2.6629107616       13.2297309886
  H         1.6652560201        5.6491837907        5.8769085936
  H        -1.3750682539        5.5356924144        3.3146369943
  H         0.1191814583        2.7742236108       10.6633691106
  H        10.1315301378        0.2012917834       13.2164772555
  H         8.6690743452        2.9556885587        5.8788195003
  H        -0.5495710597        3.0593030954        4.6312773728
  H        -2.0636654930        5.9150373929       11.9468531393
  H         9.3223775032        2.6676380138       11.9247896891
  H        10.8486039779       -0.1552892433        4.5992954407
  H         7.7822589358       -0.1857383049        4.6353830302
  H         1.0452624289        2.6848162639       11.9451640698
  H         1.0009784942        5.9237329278       11.8772722944
  H         7.7406725976        3.0219326100        4.5974595917
 Ca         3.6172587623        1.4334359922        2.7865389629
 Ca         8.0091673579        4.2978395186        9.5542596597
 Ca         5.1682730686        4.2980354294       13.7183535669
 Ca         6.4619337594        1.4292534283        6.9921558313
  S         8.0198344083        4.2812141192        1.8745136896
  S         3.6169288985        1.4340755544        9.3514132835
  S         6.4476729117        1.4258512127       14.6544212164
  S         5.1775726929        4.2922448528        7.1666205699
  O         1.9042789440        3.1740242478        2.9157685569
  O         3.1713825588        0.2816986117       10.2002600076
  O         6.8598073613        2.5514390275       13.5976030116
  O         5.6081567481        5.4439518310        6.3063383875
  O         8.4310842156        5.4275650013        2.9146665715
  O         4.0605613489        2.5851228966       10.2031915008
  O         0.3250970635        0.2746030305       13.6076202638
  O         4.7239501955        3.1433499313        6.3158501440
  O         3.3134011999        3.7127791891        0.8847566645
  O         4.7405379345        0.9115982313        8.5252978710
  O         5.4346981799        2.0407873896       15.6249429048
  O         4.0673115312        4.8080682731        8.0132480228
  O         7.0221836052        4.8893161272        0.8847666337
  O         2.4932820251        1.9582096666        8.5262789082
  O         1.7506387935        0.7618206676       15.6248348999
  O         6.3108482664        3.7706430505        7.9818780239
  O         5.1391715688        2.8273959651        3.6748840890
  O         3.6895681544        5.5165637899       11.0421761056
  O         3.6302934394        2.9066201292       12.8694990984
  O         5.0980301360        0.2178942894        5.5113696005
  O         2.0965765276        0.0455818065        3.6869433108
  O         6.6443295192        3.0846557155       11.0399091586
  O         6.7038205443        5.6933362972       12.8694158505
  O         2.1339906027        2.6507563442        5.5112687954
  H         6.0395370233        3.0611271977        3.3114395491
  H         1.4322424422        0.0971597280       10.6737386781
  H         2.7321377104        2.6612944042       13.2324575314
  H         7.3507736265        5.6408139042        5.8718099691
  H         4.2974026117        5.5410101583        3.3120303542
  H         5.7957605745        2.7730751039       10.6640509277
  H         4.4716589784        0.1787526761       13.2187792330
  H         2.9904737180        2.9572872579        5.8729404552
  H         5.1329614088        3.0598439406        4.6218181234
  H         3.6052155963        5.8970103604       11.9551250823
  H         3.6381961315        2.6685811846       11.9245310316
  H         5.1769491450       -0.1678728549        4.6019681896
  H         2.1029360716       -0.1861377195        4.6336387233
  H         6.7227313528        2.6867702751       11.9456432729
  H         6.6995920741        5.9239275435       11.9223385088
  H         2.0519342319        3.0337859143        4.6011123675
 Ca         1.0435217337        7.1700958589        2.7792888332
 Ca         5.4397040429       10.0310255278        9.5527234444
 Ca         2.5917481739       10.0277454197       13.7209498112
 Ca         3.8883755801        7.1647854899        6.9890359994
  S         5.4248867667       10.0590049775        1.8746946611
  S         1.0490704107        7.1664608255        9.3509628070
  S         3.8632196301        7.1424210235       14.6514543741
  S         2.6056583315       10.0341314662        7.1775528486
  O        -0.6612127149        8.8905376935        2.9232765548
  O         0.6009491213        6.0148546561       10.1994570297
  O         4.2867668169        8.2767535870       13.6031048631
  O         3.0457237229       11.2017238871        6.3491868548
  O         5.8527011776       11.1855902570        2.9246726192
  O         1.4890917872        8.3188554836       10.2024743674
  O        -2.2024478869        6.0517901426       13.6008896858
  O         2.1604725407        8.8990707828        6.3046277247
  O         0.7680198994        9.3859085232        0.8855152588
  O         2.1740796708        6.6431198299        8.5258819159
  O         2.8630098992        7.7701846742       15.6250462275
  O         1.4880302197       10.5417588713        8.0184760130
  O         4.4225601908       10.6891266416        0.8855409704
  O        -0.0744617567        7.6859299016        8.5263450257
  O        -0.7761316852        6.5739101024       15.6250649199
  O         3.7333640083        9.5007070784        7.9910723770
  O         2.5668561814        8.5630568226        3.6741813409
  O         1.1140271149       11.2521663385       11.0434878246
  O         1.0612668587        8.6435637841       12.8658188601
  O         2.5224423739        5.9523180007        5.5143536265
  O        -0.4785236206        5.7786197861        3.6822118471
  O         4.0728149923        8.8220901287       11.0417894011
  O         4.0778821336       11.4510636389       12.8564554179
  O        -0.4369352312        8.3861596599        5.5130444068
  H         3.4641697304        8.8035582534        3.3080918634
  H        -1.1419295188        5.8315874380       10.6618143449
  H         0.1575739972        8.4160019497       13.2313469530
  H         4.7715913906       11.3887167391        5.8793587750
  H         1.7323757164       11.2708092072        3.3228687240
  H         3.2236938248        8.5130115377       10.6648116397
  H         1.8979970233        5.9253651049       13.1971406723
  H         0.4176511926        8.6960897095        5.8754637798
  H         2.5603310140        8.8029158620        4.6190024444
  H         1.0339001163       11.6312928596       11.9576289560
  H         1.0677185153        8.3981533072       11.9230666431
  H         2.5973688910        5.5801242796        4.5989198078
  H        -0.4738930975        5.5441587812        4.6280944828
  H         4.1503825273        8.4194604499       11.9453548207
  H         4.0850923853       11.6630923141       11.9041502503
  H        -0.5121728859        8.7577528626        4.5972893947
 Ca         6.7218498657        7.1691324219        2.7882907658
 Ca        -0.2412416967       10.0328209586        9.5538421157
 Ca        -3.0993200491       10.0401902813       13.7273023370
 Ca        -1.7965664996        7.1700120706        6.9890415448
  S        -0.2321037893       10.0176504380        1.8752848910
  S         6.7258558693        7.1646398507        9.3558625761
  S        -1.7932358153        7.1805803048       14.6565032981
  S        -3.0725371538       10.0360385101        7.1771281720
  O         5.0144028087        8.9126073736        2.9141875412
  O         6.2810997847        6.0126650431       10.2055735323
  O        -1.3746257294        8.3259644408       13.6201699316
  O        -2.6326555630       11.2043007522        6.3494530335
  O         0.1798229467       11.1643521760        2.9157412211
  O         7.1666643131        8.3195321146       10.2040859766
  O         3.4385896503        6.0081688977       13.6096360335
  O        -3.5185759854        8.9004901089        6.3043788754
  O         6.4225005885        9.4513412503        0.8847093157
  O         7.8483686377        6.6455442103        8.5272363720
  O        -2.8167907545        7.7781893886       15.6250004859
  O        -4.1900249100       10.5411563645        8.0188575165
  O        -1.2297833999       10.6260808910        0.8848207007
  O         5.6015878234        7.6817597647        8.5306051637
  O         4.8631783462        6.5041580468       15.6248785556
  O        -1.9441505148        9.5025246870        7.9897135429
  O        -3.1126502148        8.5630717243        3.6734415271
  O        -4.5649750484       11.2510787975       11.0425404878
  O         6.7350477148        8.6422337322       12.8682634583
  O         8.2030903048        5.9540544525        5.5068420256
  O         5.1972932092        5.7766430008        3.6750459212
  O        -1.6045577815        8.8209043139       11.0418378983
  O        -1.5740905713       11.4145134678       12.8476638542
  O         5.2419687310        8.3859133940        5.5100098342
  H        -2.2122329967        8.7963820565        3.3101327517
  H         4.5392257874        5.8321823317       10.6730082747
  H         5.8367810003        8.3942280253       13.2295167475
  H        -0.9049524045       11.3844312191        5.8780276084
  H        -3.9506866701       11.2769970232        3.3234214004
  H        -2.4555568870        8.5073795459       10.6736711101
  H         7.6036156674        5.9349294290       13.2316322738
  H         6.0943760010        8.7020213910        5.8723894452
  H        -3.1198124108        8.8023905384        4.6186834985
  H        -4.6520781301       11.6337480705       11.9542915213
  H         6.7465640879        8.4029702463       11.9235050564
  H         8.2846246857        5.5703424302        4.5966208599
  H         5.2069296531        5.5357331046        4.6197701338
  H        -1.5268774309        8.4469184014       11.9577065806
  H        -1.5744017079       11.6557313107       11.9030722937
  H         5.1581626744        8.7682595270        4.5995278914
     192
 i =       55, E =     -2330.2366524595
 Ca         9.3023564221        1.4304522367        2.7697749449
 Ca         2.3497398415        4.2928181482        9.5760966297
 Ca        -0.5050582071        4.2984332697       13.7110288897
 Ca         0.7721244261        1.4398661821        6.9967608673
  S         2.3068520014        4.3150201038        1.8812360232
  S         9.3116951468        1.4127074159        9.3673125789
  S         0.7512877890        1.4065756733       14.6543584550
  S        -0.5097727665        4.3110342288        7.2777587645
  O         7.5918926223        3.1582153008        2.9255367597
  O         8.8663169644        0.2625060706       10.2171721082
  O         1.1790022608        2.5425804700       13.6078749581
  O        -0.0504890514        5.5305957068        6.5405995239
  O         2.7435205425        5.4437541511        2.9245401997
  O         9.7474680567        2.5751514093       10.2090463587
  O         6.0238809609        0.2776901400       13.6174040294
  O        -0.9355722601        3.1960451311        6.3865475318
  O         9.0258730902        3.6524233709        0.8895042151
  O        10.4353690777        0.8943695782        8.5394943508
  O        -0.2433778807        2.0375689588       15.6290113554
  O        -1.6373289382        4.7978598249        8.1056830658
  O         1.3090833200        4.9504712054        0.8898117202
  O         8.1821495957        1.9160072058        8.5527459487
  O         7.4724899804        0.8295355658       15.6283480803
  O         0.6399841164        3.7789945795        8.0439037678
  O        -0.5611966132        2.7964838815        3.7368502302
  O        -1.9878179575        5.5192496967       11.0443937815
  O         9.3164438046        2.9115431889       12.8710042581
  O        10.7772355243        0.2209183913        5.5180285978
  O         7.8081403062        0.0857762087        3.7207061605
  O         0.9657360484        3.0784806770       11.0418576265
  O         0.9968329015        5.7049225147       12.8009327070
  O         7.8187027270        2.6505105218        5.5190189187
  H         0.3310171123        3.0621885423        3.3671594757
  H         7.1154534671        0.0917242281       10.6794475537
  H         8.4151013416        2.6681752620       13.2279932104
  H         1.6669023774        5.6427035222        5.8936871836
  H        -1.3626282204        5.5414742280        3.3397709593
  H         0.1160086292        2.7742265460       10.6628125225
  H        10.1176530912        0.1777340663       13.2303845283
  H         8.6648174803        2.9633063942        5.8986926421
  H        -0.5507584769        3.0185110440        4.6830256194
  H        -2.0595604289        5.9128270997       11.9517811180
  H         9.3313438718        2.6644385423       11.9284332765
  H        10.8392757825       -0.1564269942        4.6041536168
  H         7.8089826322       -0.1334845022        4.6722863374
  H         1.0355782222        2.6795590853       11.9486173147
  H         0.9902364471        5.9397986241       11.8539040898
  H         7.7554482066        3.0223780145        4.6037056107
 Ca         3.6231268173        1.4316309711        2.7770598442
 Ca         8.0048599090        4.2933994974        9.5738920130
 Ca         5.1583132780        4.3027360802       13.7216782937
 Ca         6.4686341138        1.4207237622        6.9992694824
  S         8.0246449964        4.2854909426        1.8793109336
  S         3.6187303765        1.4331475439        9.3521096500
  S         6.4494363601        1.4230422879       14.6551441740
  S         5.1708136277        4.2598118881        7.1873108473
  O         1.8877105643        3.1680019838        2.9209805817
  O         3.1717608748        0.2815655313       10.2021833492
  O         6.8580305652        2.5514520727       13.6017687379
  O         5.5743663263        5.3884184337        6.2772793050
  O         8.4409572471        5.4312588397        2.9181607851
  O         4.0604202945        2.5807244228       10.2094302978
  O         0.3236543197        0.2775348939       13.6094137495
  O         4.6793212742        3.0651080253        6.4125450640
  O         3.3031614638        3.7073445051        0.8885228376
  O         4.7405462751        0.9112876525        8.5260449334
  O         5.4392925973        2.0366205421       15.6287940018
  O         4.0760760584        4.7977668820        8.0355558844
  O         7.0282400929        4.8938716295        0.8887595569
  O         2.4963269815        1.9555361946        8.5276155507
  O         1.7500092255        0.7629397531       15.6284613513
  O         6.3283134143        3.7666929175        7.9854070228
  O         5.1371706175        2.8278761376        3.6880856157
  O         3.6986079059        5.5201993042       11.0412689207
  O         3.6260597257        2.9028324667       12.8791532439
  O         5.0952617058        0.2193507336        5.5178993251
  O         2.1193735056        0.0785987765        3.7209376537
  O         6.6420855773        3.0845034890       11.0430371070
  O         6.7059727864        5.6933221749       12.8774516526
  O         2.1324443420        2.6542909617        5.5141414377
  H         6.0366663970        3.0607123777        3.3205349010
  H         1.4298125371        0.0930872361       10.6694083750
  H         2.7249446777        2.6661984529       13.2434285840
  H         7.3495895023        5.6375703533        5.8816212111
  H         4.3029975394        5.5404806588        3.3169328867
  H         5.7951148677        2.7738169778       10.6625258311
  H         4.4667864494        0.1772364282       13.1993942186
  H         2.9872000925        2.9475767017        5.8912334448
  H         5.1338752774        3.0372305444        4.6404917983
  H         3.6114139765        5.9091989106       11.9520534323
  H         3.6402906508        2.6348207301       11.9434295631
  H         5.1620861624       -0.1733319053        4.6115652954
  H         2.1232530708       -0.1255680700        4.6792299125
  H         6.7204504663        2.6779293344       11.9447824992
  H         6.7062685724        5.9246245860       11.9306284931
  H         2.0573357135        3.0320718691        4.6038805175
 Ca         1.0497222622        7.1746446874        2.7809469118
 Ca         5.4433873004       10.0241681364        9.5535391418
 Ca         2.5780148939       10.0229820147       13.7425093629
 Ca         3.8947651737        7.1585506241        6.9919148763
  S         5.4280251851       10.0608429735        1.8807576256
  S         1.0559456896        7.1652782264        9.3549126623
  S         3.8245496440        7.1314684463       14.6457794664
  S         2.6048400706       10.0330639060        7.1840724503
  O        -0.6583191481        8.8938776311        2.9229730533
  O         0.6068600427        6.0138826229       10.2022029328
  O         4.2817254771        8.2688953333       13.6125316167
  O         3.0541544352       11.2104550625        6.3750606803
  O         5.8573855558       11.1869562426        2.9309862119
  O         1.4936154461        8.3181087009       10.2087491803
  O        -2.2002225643        6.0472244648       13.6079609818
  O         2.1640141738        8.9028990109        6.3028321715
  O         0.7723151144        9.3891018635        0.8894947374
  O         2.1805245945        6.6443415520        8.5295981546
  O         2.8448533412        7.7877146469       15.6282774953
  O         1.4863578186       10.5312907594        8.0301929688
  O         4.4239145714       10.6894746267        0.8893082624
  O        -0.0694353083        7.6838418239        8.5386375406
  O        -0.7707197855        6.5724236361       15.6286041719
  O         3.7263535567        9.4911247688        8.0016547663
  O         2.5680280720        8.5631659255        3.6702291071
  O         1.1146049689       11.2497719855       11.0434399590
  O         1.0611510077        8.6446303790       12.8632605969
  O         2.5177375066        5.9469868580        5.5182078740
  O        -0.4684974931        5.7878455274        3.7172210620
  O         4.0737192268        8.8227437045       11.0423478998
  O         4.0666587085       11.4182169842       12.8694696583
  O        -0.4369696540        8.3843895124        5.5149411075
  H         3.4666701883        8.8031282335        3.3089996008
  H        -1.1440322816        5.8289677601       10.6574113603
  H         0.1599981050        8.4098318365       13.2286131198
  H         4.7771304079       11.3912030979        5.8945825457
  H         1.7694395386       11.2899195958        3.3585356965
  H         3.2207667646        8.5168808635       10.6711771851
  H         1.8954414552        5.9356941339       13.1749057967
  H         0.4166128107        8.7009329888        5.8754602536
  H         2.5611729155        8.8040869502        4.6151571991
  H         1.0349150164       11.6241056250       11.9611930529
  H         1.0761349959        8.3956586936       11.9215716345
  H         2.5928663814        5.5742722839        4.6042738370
  H        -0.4761673778        5.5629914822        4.6648946540
  H         4.1450017473        8.4269747399       11.9506229892
  H         4.0745207513       11.6384114019       11.9183483628
  H        -0.5153451425        8.7607774331        4.6004628847
 Ca         6.7238352666        7.1737737892        2.7904816901
 Ca        -0.2377169509       10.0275592504        9.5524314198
 Ca        -3.0961970394       10.0445826954       13.7316411668
 Ca        -1.7913983935        7.1687678958        6.9968463927
  S        -0.2218912010       10.0250795986        1.8825011105
  S         6.7337861217        7.1534611308        9.3645016358
  S        -1.7878519378        7.1786394513       14.6592754277
  S        -3.0716628218       10.0211187795        7.1764135385
  O         5.0161708076        8.9133748626        2.9153844352
  O         6.2921269437        6.0052292526       10.2184306927
  O        -1.3760713230        8.3242433102       13.6216819264
  O        -2.5961482597       11.2063570867        6.3987957828
  O         0.1982385917       11.1719618338        2.9209120307
  O         7.1695161693        8.3167520167       10.2043653409
  O         3.4104385093        6.0066848189       13.5956242255
  O        -3.5167718641        8.8871263197        6.2993773486
  O         6.4227756049        9.4528667846        0.8883256112
  O         7.8550752612        6.6405521897        8.5308566093
  O        -2.8105642409        7.7734312201       15.6288950409
  O        -4.1951116735       10.5288731429        8.0053246432
  O        -1.2185939094       10.6369559325        0.8893669799
  O         5.6023850763        7.6571934085        8.5467381251
  O         4.7809199220        6.4450541625       15.6294825298
  O        -1.9427055296        9.4923281457        7.9887364543
  O        -3.1114489419        8.5639998455        3.6762839626
  O        -4.5654117915       11.2485701163       11.0444500662
  O         6.7319816381        8.6441123312       12.8715910303
  O         8.2002622372        5.9544934070        5.5149169886
  O         5.2003170843        5.7810725893        3.6791320960
  O        -1.6041206648        8.8233921316       11.0419960787
  O        -1.5773860298       11.4092255450       12.8307334307
  O         5.2466192495        8.3881356433        5.5210016426
  H        -2.2125606600        8.7977396484        3.3115106167
  H         4.5475862801        5.8339025484       10.6698123425
  H         5.8366200811        8.3882413405       13.2322517959
  H        -0.9045066352       11.3975821136        5.8946340716
  H        -3.9203366487       11.2847689540        3.3601268131
  H        -2.4576933318        8.5132409991       10.6757530940
  H         7.6084814259        5.9263745599       13.2398421431
  H         6.0976740056        8.7140235927        5.8809508366
  H        -3.1178728808        8.8096345817        4.6202596802
  H        -4.6501480422       11.6343309645       11.9547648599
  H         6.7514718776        8.3947681925       11.9292535895
  H         8.2812420532        5.5729615434        4.6043095883
  H         5.2119153666        5.5306889350        4.6223898687
  H        -1.5253788401        8.4487532213       11.9572843638
  H        -1.5808011175       11.6359975101       11.8816419368
  H         5.1609613748        8.7682034834        4.6114178785
     192
 i =       56, E =     -2330.2438095148
 Ca         9.2968804454        1.4339707096        2.7773022896
 Ca         2.3360866974        4.2975320413        9.5563040659
 Ca        -0.5085604534        4.3010520596       13.7106993698
 Ca         0.7763892319        1.4355685892        6.9942675410
  S         2.3148784873        4.3202673689        1.8758909089
  S         9.3029062935        1.4265249373        9.3557713946
  S         0.7529205104        1.4056643830       14.6511761337
  S        -0.5151435791        4.3085106978        7.2013360834
  O         7.5912168299        3.1549901064        2.9236614960
  O         8.8563400852        0.2746677244       10.2045329649
  O         1.1806769449        2.5399801104       13.6048186338
  O        -0.0636316783        5.4685669381        6.3668950275
  O         2.7448162146        5.4474457802        2.9237780053
  O         9.7425808346        2.5822129087       10.2039498627
  O         6.0246567059        0.2782453821       13.6193861674
  O        -0.9526948446        3.1545663151        6.3537949364
  O         9.0214618851        3.6504464600        0.8857612578
  O        10.4274094475        0.9038571957        8.5303098214
  O        -0.2440827726        2.0359547516       15.6253400246
  O        -1.6478380567        4.8250356489        8.0157097772
  O         1.3146060621        4.9523339278        0.8857740200
  O         8.1792152306        1.9432431196        8.5319333820
  O         7.4716070995        0.8310251973       15.6252096475
  O         0.6052849674        3.7885823852        8.0276227957
  O        -0.5456631754        2.8193277154        3.6950905039
  O        -1.9877095601        5.5175757671       11.0414370272
  O         9.3114828242        2.9096384680       12.8687103520
  O        10.7769867975        0.2179540368        5.5151657791
  O         7.7793474520        0.0536257005        3.6956967848
  O         0.9670293500        3.0839708335       11.0412400271
  O         0.9995817053        5.6918721639       12.8205053267
  O         7.8152621147        2.6499139554        5.5139674357
  H         0.3497665640        3.0672308443        3.3266357632
  H         7.1114241929        0.0969593949       10.6737396247
  H         8.4124016432        2.6635631484       13.2294934817
  H         1.6654253306        5.6481949332        5.8803472996
  H        -1.3726994610        5.5360698805        3.3199293186
  H         0.1188396527        2.7741110731       10.6629922140
  H        10.1293088947        0.1976695923       13.2187176619
  H         8.6683588223        2.9575226791        5.8820351668
  H        -0.5502491133        3.0539908962        4.6402380441
  H        -2.0625904223        5.9154200043       11.9474840895
  H         9.3235109916        2.6667544204       11.9249308075
  H        10.8472657035       -0.1554450935        4.5999574347
  H         7.7868678894       -0.1785709223        4.6421562787
  H         1.0438319002        2.6835626057       11.9456508576
  H         0.9989384909        5.9260559382       11.8736599260
  H         7.7435516487        3.0222735663        4.5985999522
 Ca         3.6186056429        1.4339185988        2.7857077643
 Ca         8.0080621880        4.2968182046        9.5579976393
 Ca         5.1664784493        4.2990848949       13.7184310336
 Ca         6.4622712642        1.4277938679        6.9936491398
  S         8.0203716524        4.2819210995        1.8752045102
  S         3.6173787470        1.4334335178        9.3511768353
  S         6.4479705093        1.4249327310       14.6544294108
  S         5.1755336327        4.2864378972        7.1707394568
  O         1.9025536487        3.1732819146        2.9165530653
  O         3.1713114272        0.2812522727       10.2001389461
  O         6.8593708602        2.5507147668       13.5975939579
  O         5.6022136560        5.4339757926        6.3025920873
  O         8.4327853563        5.4281493875        2.9152931480
  O         4.0606983790        2.5843883638       10.2032302932
  O         0.3244860522        0.2745688696       13.6075178704
  O         4.7175274590        3.1310317324        6.3306125071
  O         3.3121913066        3.7119809885        0.8850260255
  O         4.7410121642        0.9106533647        8.5256136459
  O         5.4350508713        2.0392072513       15.6251606811
  O         4.0684876689        4.8066558638        8.0181432782
  O         7.0231404121        4.8902027230        0.8849449700
  O         2.4938276223        1.9574580689        8.5262508991
  O         1.7501357712        0.7612010863       15.6250595689
  O         6.3133962932        3.7705108999        7.9827681112
  O         5.1390115720        2.8274885019        3.6776725363
  O         3.6913549988        5.5174420774       11.0420452266
  O         3.6296375377        2.9064407193       12.8703765768
  O         5.0977396495        0.2176819936        5.5117758325
  O         2.0991150213        0.0501109313        3.6931264342
  O         6.6436554157        3.0843072457       11.0407768051
  O         6.7042220185        5.6937358254       12.8704474503
  O         2.1336477636        2.6509723499        5.5117558448
  H         6.0392821401        3.0616890865        3.3141675916
  H         1.4319839974        0.0969026863       10.6731413133
  H         2.7312198361        2.6618940866       13.2335966959
  H         7.3505982353        5.6399064886        5.8733307504
  H         4.2981193268        5.5405526140        3.3130381732
  H         5.7954839675        2.7729027996       10.6638704599
  H         4.4711784406        0.1786692135       13.2158579652
  H         2.9897225484        2.9558351787        5.8760917958
  H         5.1333355736        3.0565765577        4.6252587890
  H         3.6061865211        5.8990079157       11.9546779983
  H         3.6386559896        2.6633151672       11.9269486704
  H         5.1749276739       -0.1690177067        4.6029606566
  H         2.1065114412       -0.1775783479        4.6413255590
  H         6.7220401548        2.6851704662       11.9459287989
  H         6.7005654067        5.9240236301       11.9232758772
  H         2.0528638411        3.0339256104        4.6016790528
 Ca         1.0441647752        7.1700711886        2.7802039324
 Ca         5.4405534251       10.0296888754        9.5532717008
 Ca         2.5888669235       10.0260598012       13.7238179013
 Ca         3.8887786668        7.1633616347        6.9892728069
  S         5.4255858184       10.0594520620        1.8754797225
  S         1.0502861521        7.1666137124        9.3510454104
  S         3.8573807662        7.1406702437       14.6506502613
  S         2.6058376038       10.0340466375        7.1792877432
  O        -0.6606251110        8.8910235554        2.9232733329
  O         0.6018142738        6.0148568138       10.1989904373
  O         4.2856565138        8.2750906642       13.6040590464
  O         3.0469225167       11.2037923650        6.3540729181
  O         5.8534728191       11.1857905129        2.9258061448
  O         1.4900992935        8.3189532366       10.2030411221
  O        -2.2021893938        6.0519946422       13.6006334528
  O         2.1615064715        8.9000673925        6.3045771862
  O         0.7689071112        9.3863926405        0.8857191553
  O         2.1753365322        6.6434645699        8.5261957944
  O         2.8599945663        7.7732053311       15.6252024042
  O         1.4869877383       10.5393733873        8.0199770140
  O         4.4231597733       10.6896354551        0.8857549527
  O        -0.0731599421        7.6866464708        8.5275689828
  O        -0.7761156816        6.5731244208       15.6252569275
  O         3.7326508575        9.4991876769        7.9933399132
  O         2.5675893908        8.5637875039        3.6742032797
  O         1.1142270574       11.2526983379       11.0436319450
  O         1.0609225875        8.6434121179       12.8654206688
  O         2.5213300339        5.9515697414        5.5151673233
  O        -0.4768063871        5.7799930208        3.6893285904
  O         4.0728302980        8.8214392521       11.0421487034
  O         4.0753110744       11.4487418925       12.8585913403
  O        -0.4370245840        8.3861306684        5.5132443970
  H         3.4650925637        8.8039491632        3.3084759829
  H        -1.1423519127        5.8313952804       10.6610709589
  H         0.1575312668        8.4148120488       13.2306549753
  H         4.7724960264       11.3887749512        5.8821048062
  H         1.7371764939       11.2734600189        3.3280600591
  H         3.2231735328        8.5134808379       10.6653792331
  H         1.8965572022        5.9264918110       13.1929593326
  H         0.4173658492        8.6964987479        5.8758814299
  H         2.5604503553        8.8038831778        4.6190054488
  H         1.0344358672       11.6308045250       11.9583351067
  H         1.0686628704        8.3974296153       11.9227597478
  H         2.5961103290        5.5787248837        4.6001114099
  H        -0.4742891738        5.5466349673        4.6350991182
  H         4.1494573937        8.4201443389       11.9463174164
  H         4.0832537216       11.6590843279       11.9058477446
  H        -0.5123896357        8.7583156858        4.5977889362
 Ca         6.7220368229        7.1694722841        2.7890814608
 Ca        -0.2408880035       10.0320873383        9.5544387381
 Ca        -3.0992041136       10.0406207133       13.7268829192
 Ca        -1.7953539485        7.1695387814        6.9911076070
  S        -0.2306934402       10.0184622499        1.8758994850
  S         6.7265323793        7.1633882441        9.3562495283
  S        -1.7926506930        7.1806403185       14.6563659424
  S        -3.0719687721       10.0348774677        7.1776170419
  O         5.0149175829        8.9129151513        2.9144557224
  O         6.2824988166        6.0117499075       10.2065019598
  O        -1.3745625067        8.3260875901       13.6201008709
  O        -2.6262238792       11.2056342741        6.3571189066
  O         0.1816275054       11.1649798194        2.9168088138
  O         7.1667751241        8.3190738617       10.2037929769
  O         3.4345111389        6.0083225626       13.6067696173
  O        -3.5177693169        8.9000947523        6.3034846135
  O         6.4225732048        9.4515101024        0.8849237608
  O         7.8491344743        6.6445701660        8.5276283950
  O        -2.8157559768        7.7783610954       15.6252130416
  O        -4.1915219165       10.5394122546        8.0165104583
  O        -1.2283962623       10.6273321525        0.8850802319
  O         5.6021030187        7.6786843405        8.5307335431
  O         4.8517172252        6.4963534875       15.6251114106
  O        -1.9443756391        9.5004008607        7.9905194183
  O        -3.1120083230        8.5638943866        3.6741459176
  O        -4.5649049319       11.2510964229       11.0428571159
  O         6.7345494640        8.6420374201       12.8688215523
  O         8.2026393800        5.9537507931        5.5081425166
  O         5.1975162819        5.7771613074        3.6759120117
  O        -1.6046690706        8.8206732523       11.0420717979
  O        -1.5744135286       11.4139096345       12.8452554619
  O         5.2427780540        8.3865020500        5.5110434423
  H        -2.2117886541        8.7971232927        3.3107232161
  H         4.5408751985        5.8328357241       10.6725728265
  H         5.8367360566        8.3928810709       13.2299033727
  H        -0.9046354082       11.3859635373        5.8810525178
  H        -3.9465730588       11.2782240259        3.3288916159
  H        -2.4559255378        8.5078264537       10.6738481646
  H         7.6044484946        5.9340365880       13.2325483059
  H         6.0947975025        8.7036104705        5.8739877569
  H        -3.1193643052        8.8041917654        4.6192116613
  H        -4.6517059437       11.6342459856       11.9543797265
  H         6.7472818665        8.4016197894       11.9243618585
  H         8.2838120968        5.5700979446        4.5979747035
  H         5.2075544929        5.5338507671        4.6202193769
  H        -1.5269054293        8.4467398891       11.9578425391
  H        -1.5752081318       11.6527852566       11.8999277130
  H         5.1587416877        8.7687706446        4.6008428766
     192
 i =       57, E =     -2330.2435089089
 Ca         9.2943193827        1.4326981795        2.7777477864
 Ca         2.3344490252        4.2985014654        9.5520199168
 Ca        -0.5111526274        4.2981897925       13.7151541075
 Ca         0.7756107507        1.4355281360        6.9931378237
  S         2.3155089833        4.3207741728        1.8753453639
  S         9.3027986792        1.4289666143        9.3548669006
  S         0.7542097168        1.4067935404       14.6507614571
  S        -0.5210750631        4.3060246770        7.1848281061
  O         7.5913021430        3.1547468521        2.9233774234
  O         8.8547832347        0.2772631060       10.2033318830
  O         1.1814939088        2.5406677922       13.6044754160
  O        -0.0755924363        5.4451656527        6.3157110624
  O         2.7450500221        5.4478974992        2.9234361370
  O         9.7419018101        2.5844988961       10.2032262032
  O         6.0251198446        0.2795153685       13.6197799031
  O        -0.9602398799        3.1398114960        6.3520486130
  O         9.0217331007        3.6502912525        0.8856349050
  O        10.4265710910        0.9057708242        8.5286349483
  O        -0.2429588988        2.0371887787       15.6251707311
  O        -1.6481024558        4.8352784896        8.0026342452
  O         1.3149958670        4.9528182099        0.8857261787
  O         8.1781213911        1.9482232887        8.5325051846
  O         7.4717528803        0.8333456661       15.6250873032
  O         0.5987715546        3.7987817767        8.0222243051
  O        -0.5451641251        2.8215512627        3.6829864293
  O        -1.9885590853        5.5170251557       11.0407483924
  O         9.3118219430        2.9103669196       12.8691494118
  O        10.7769103433        0.2180621519        5.5145182366
  O         7.7780729296        0.0505111474        3.6871128780
  O         0.9681035125        3.0863472404       11.0406125065
  O         1.0013438886        5.6904746431       12.8258718347
  O         7.8144520580        2.6495037232        5.5125416963
  H         0.3521658550        3.0666834494        3.3182383427
  H         7.1102722110        0.0968475131       10.6728664590
  H         8.4131544036        2.6629236333       13.2298432790
  H         1.6655161067        5.6495780675        5.8760342272
  H        -1.3742726389        5.5365542199        3.3145143089
  H         0.1197429770        2.7752542118       10.6636431326
  H        10.1310693069        0.2015531797       13.2165864732
  H         8.6692015153        2.9558461689        5.8779146306
  H        -0.5501704905        3.0583841797        4.6283142367
  H        -2.0646505738        5.9138106771       11.9468607454
  H         9.3223576337        2.6684863595       11.9250244682
  H        10.8494211094       -0.1546175373        4.5989115118
  H         7.7817899620       -0.1855211195        4.6326383820
  H         1.0464096610        2.6860471467       11.9448148835
  H         1.0003620261        5.9222075774       11.8786875437
  H         7.7403251998        3.0214404723        4.5969475668
 Ca         3.6165796933        1.4329139767        2.7852532664
 Ca         8.0086079644        4.2984569154        9.5529141539
 Ca         5.1685171463        4.2980709320       13.7196925603
 Ca         6.4626405313        1.4295622630        6.9914847149
  S         8.0204219945        4.2813971130        1.8745996167
  S         3.6174941289        1.4337781498        9.3517764797
  S         6.4478730387        1.4264049702       14.6544226680
  S         5.1781926906        4.2949254126        7.1663645874
  O         1.9035467192        3.1736606749        2.9152565398
  O         3.1717453673        0.2816992869       10.2008194073
  O         6.8599218928        2.5526080633       13.5983478956
  O         5.6120574510        5.4486250538        6.3106753516
  O         8.4317664310        5.4279796109        2.9144832877
  O         4.0608464358        2.5849532183       10.2034607632
  O         0.3254819225        0.2748316582       13.6077963584
  O         4.7243697174        3.1454657040        6.3171270825
  O         3.3129544652        3.7127578267        0.8847916606
  O         4.7411593405        0.9111422521        8.5256377448
  O         5.4351896253        2.0418415838       15.6251648500
  O         4.0666855549        4.8105536497        8.0115405567
  O         7.0225743267        4.8893109505        0.8850474663
  O         2.4939124433        1.9572740554        8.5262194227
  O         1.7513336233        0.7629599644       15.6249149662
  O         6.3093161761        3.7708151830        7.9829408675
  O         5.1389514681        2.8272906518        3.6742712243
  O         3.6885891246        5.5156220883       11.0415806945
  O         3.6309515759        2.9063540696       12.8691496407
  O         5.0983384274        0.2184955741        5.5112903661
  O         2.0983152637        0.0470599750        3.6841840822
  O         6.6450752166        3.0855841859       11.0394916789
  O         6.7033620084        5.6925078430       12.8691513415
  O         2.1337351937        2.6505886255        5.5111391694
  H         6.0395380735        3.0607508682        3.3108359388
  H         1.4320777986        0.0966028159       10.6740090771
  H         2.7328325482        2.6609731857       13.2317574930
  H         7.3504860149        5.6408940349        5.8711055227
  H         4.2975417670        5.5418024812        3.3107530483
  H         5.7960712084        2.7739032473       10.6648176448
  H         4.4717462092        0.1793877239       13.2196455962
  H         2.9905379834        2.9570374838        5.8719627451
  H         5.1324832873        3.0583345271        4.6215138287
  H         3.6045643348        5.8959985560       11.9545662482
  H         3.6389706909        2.6700952149       11.9236722045
  H         5.1778421212       -0.1673654266        4.6015937867
  H         2.1026800409       -0.1858025480        4.6306365390
  H         6.7233439990        2.6883187701       11.9457202777
  H         6.6991406396        5.9229736738       11.9220416063
  H         2.0515177761        3.0330582594        4.6006194795
 Ca         1.0438722218        7.1707121808        2.7782926827
 Ca         5.4398070155       10.0318427122        9.5512497440
 Ca         2.5931445618       10.0288002478       13.7222499253
 Ca         3.8882019731        7.1653878962        6.9885189920
  S         5.4246310332       10.0588894251        1.8746688502
  S         1.0481775814        7.1667699203        9.3515427352
  S         3.8663626136        7.1425548452       14.6524988747
  S         2.6051853610       10.0340740366        7.1759662136
  O        -0.6613668050        8.8905398928        2.9232067129
  O         0.6002270185        6.0151682930       10.2000562786
  O         4.2874406145        8.2773456531       13.6038288876
  O         3.0432966719       11.1995620447        6.3434055505
  O         5.8526427981       11.1859809978        2.9236667903
  O         1.4883919158        8.3191588419       10.2028445167
  O        -2.2028067521        6.0503954406       13.6021701470
  O         2.1598667787        8.8981704072        6.3043916947
  O         0.7676073903        9.3858635876        0.8856820630
  O         2.1728532306        6.6435189830        8.5260862881
  O         2.8649089441        7.7690868424       15.6251883855
  O         1.4889572362       10.5431712485        8.0181011851
  O         4.4220885339       10.6885599328        0.8857045916
  O        -0.0753957751        7.6860225768        8.5265640617
  O        -0.7764396127        6.5738495600       15.6252460648
  O         3.7329522479        9.5014855693        7.9901563649
  O         2.5663079920        8.5623488520        3.6730581991
  O         1.1137981717       11.2507132062       11.0431194172
  O         1.0616215385        8.6439449319       12.8657769947
  O         2.5228774523        5.9527850478        5.5136120613
  O        -0.4772288755        5.7800827589        3.6802037520
  O         4.0733824788        8.8234264511       11.0412839340
  O         4.0787700512       11.4470784746       12.8566297829
  O        -0.4371904705        8.3856444224        5.5129015149
  H         3.4639189278        8.8031037269        3.3077566736
  H        -1.1422030153        5.8305036092       10.6623425720
  H         0.1579595613        8.4162361153       13.2313319874
  H         4.7714197305       11.3884500728        5.8785137594
  H         1.7338203112       11.2718399067        3.3228186499
  H         3.2241088425        8.5136471028       10.6652171917
  H         1.8980667256        5.9248133222       13.1990335138
  H         0.4176580195        8.6953592378        5.8747337272
  H         2.5600959805        8.8017655262        4.6179852337
  H         1.0334923828       11.6304559793       11.9570244627
  H         1.0678426915        8.3996211993       11.9227473488
  H         2.5973201736        5.5802485807        4.5981775739
  H        -0.4732220244        5.5458118988        4.6260369852
  H         4.1511050732        8.4204237109       11.9449106234
  H         4.0859020432       11.6622502087       11.9050271301
  H        -0.5125996164        8.7573903407        4.5970942220
 Ca         6.7223529828        7.1696286395        2.7870841184
 Ca        -0.2412563989       10.0330704028        9.5526643385
 Ca        -3.0988338362       10.0404690494       13.7288873123
 Ca        -1.7966051454        7.1694082199        6.9883968715
  S        -0.2321427101       10.0178900027        1.8755025061
  S         6.7258604048        7.1645848882        9.3561401675
  S        -1.7936261511        7.1801248331       14.6566008412
  S        -3.0737577444       10.0366914943        7.1757355613
  O         5.0140460994        8.9124548115        2.9140475496
  O         6.2804973209        6.0125920033       10.2055026310
  O        -1.3748940488        8.3254051133       13.6202573769
  O        -2.6402025996       11.2041171291        6.3431056622
  O         0.1809122531       11.1651018010        2.9144985738
  O         7.1665481736        8.3194170107       10.2043570047
  O         3.4399469779        6.0078421474       13.6119262457
  O        -3.5194815855        8.9000285509        6.3045062164
  O         6.4223700214        9.4513949242        0.8847936387
  O         7.8481285279        6.6457875505        8.5269931257
  O        -2.8174109048        7.7773553610       15.6251517364
  O        -4.1889416649       10.5440100244        8.0196644644
  O        -1.2298058275       10.6262981716        0.8849861559
  O         5.6005605505        7.6822940168        8.5325650475
  O         4.8695593282        6.5083084283       15.6249708857
  O        -1.9445268830        9.5044200900        7.9883444048
  O        -3.1130655749        8.5624270576        3.6722127849
  O        -4.5652708753       11.2500528714       11.0422094032
  O         6.7355238863        8.6430817502       12.8680277522
  O         8.2031068910        5.9542708450        5.5073657562
  O         5.1977439041        5.7768402363        3.6736499683
  O        -1.6043942328        8.8220627384       11.0413337381
  O        -1.5735944075       11.4147351528       12.8472744516
  O         5.2415370225        8.3849411532        5.5096486413
  H        -2.2124783469        8.7959713819        3.3094485525
  H         4.5387540064        5.8312861680       10.6735773337
  H         5.8374726855        8.3946087753       13.2294659094
  H        -0.9049775133       11.3839163104        5.8765506714
  H        -3.9496573038       11.2780871146        3.3228022814
  H        -2.4553617198        8.5078444250       10.6737298450
  H         7.6029417214        5.9348710968       13.2313710231
  H         6.0941409241        8.7011788207        5.8712495344
  H        -3.1200805855        8.8011954159        4.6176032694
  H        -4.6526791934       11.6328084645       11.9540120975
  H         6.7463852151        8.4041956960       11.9231601098
  H         8.2850608951        5.5708460615        4.5968671519
  H         5.2072604937        5.5368687207        4.6186867921
  H        -1.5264033687        8.4475780506       11.9570843227
  H        -1.5737044892       11.6558636418       11.9028148562
  H         5.1579768062        8.7680276039        4.5991496971
     192
 i =       58, E =     -2330.2437340781
 Ca         9.2959320740        1.4340488500        2.7772774944
 Ca         2.3352470199        4.2979824545        9.5545316344
 Ca        -0.5089481384        4.3011919476       13.7113728194
 Ca         0.7758837323        1.4355642212        6.9937389652
  S         2.3153488258        4.3205670336        1.8756668173
  S         9.3028949549        1.4279178314        9.3552958474
  S         0.7531814786        1.4057838990       14.6508662692
  S        -0.5200915369        4.3054610402        7.1901247554
  O         7.5911582061        3.1547590075        2.9235552488
  O         8.8557920606        0.2759485502       10.2037813804
  O         1.1808099318        2.5398937486       13.6045484688
  O        -0.0761219482        5.4470648802        6.3246263958
  O         2.7450389644        5.4475509278        2.9238704977
  O         9.7424786984        2.5833528306       10.2036370877
  O         6.0248274626        0.2784736767       13.6196233451
  O        -0.9589365598        3.1434434177        6.3523570721
  O         9.0211103670        3.6501309920        0.8855446804
  O        10.4267968935        0.9047404738        8.5292139560
  O        -0.2439949069        2.0360711668       15.6251268575
  O        -1.6447194214        4.8336555799        8.0114725504
  O         1.3152386227        4.9528581406        0.8855289749
  O         8.1787689815        1.9457284729        8.5318893918
  O         7.4715914865        0.8316496931       15.6250373348
  O         0.6015267394        3.7958053520        8.0229738815
  O        -0.5452548058        2.8214197666        3.6895548560
  O        -1.9879806492        5.5174135671       11.0412579064
  O         9.3108953852        2.9090769988       12.8685139194
  O        10.7769989303        0.2175894305        5.5148645617
  O         7.7783092984        0.0509769382        3.6925383504
  O         0.9674237465        3.0848158969       11.0413131295
  O         1.0002081879        5.6903591299       12.8229322803
  O         7.8147614470        2.6499656837        5.5133105046
  H         0.3508786070        3.0670035107        3.3215021891
  H         7.1109554556        0.0973789860       10.6729190771
  H         8.4120233687        2.6629400078       13.2297864531
  H         1.6654248519        5.6487275074        5.8779318344
  H        -1.3733399884        5.5361088604        3.3168462049
  H         0.1193618404        2.7744853585       10.6631775711
  H        10.1294076365        0.1996985580       13.2175229000
  H         8.6687655776        2.9567482669        5.8801261745
  H        -0.5511803259        3.0573869218        4.6346413265
  H        -2.0632581806        5.9155147552       11.9471463640
  H         9.3226035178        2.6672624080       11.9244628535
  H        10.8483459281       -0.1550713675        4.5993737011
  H         7.7849593904       -0.1835415401        4.6382490856
  H         1.0451046894        2.6843356029       11.9453996192
  H         0.9995095352        5.9239449128       11.8760736084
  H         7.7420635325        3.0219916115        4.5978085689
 Ca         3.6184464819        1.4344376017        2.7856035861
 Ca         8.0082459703        4.2975203391        9.5561392586
 Ca         5.1674460409        4.2983565662       13.7178487543
 Ca         6.4623898277        1.4290036504        6.9926866315
  S         8.0201831373        4.2816476985        1.8750108759
  S         3.6175525676        1.4333794381        9.3511437993
  S         6.4478188779        1.4252534319       14.6543689137
  S         5.1773266262        4.2914605046        7.1698318706
  O         1.9029526772        3.1735664610        2.9160178725
  O         3.1714899159        0.2813133810       10.2001467230
  O         6.8595585735        2.5507394775       13.5971474566
  O         5.6089035187        5.4428681706        6.3095101457
  O         8.4319425942        5.4280634193        2.9152671706
  O         4.0607687264        2.5846947602       10.2027673339
  O         0.3244889929        0.2744602509       13.6073336623
  O         4.7214536235        3.1383346643        6.3262303718
  O         3.3126353567        3.7122409039        0.8848552389
  O         4.7413319731        0.9104158380        8.5254599128
  O         5.4347475333        2.0397410396       15.6249080864
  O         4.0670134687        4.8090384015        8.0149757755
  O         7.0229141400        4.8898914013        0.8847232787
  O         2.4939960376        1.9573054415        8.5258560775
  O         1.7501110151        0.7611416115       15.6248573087
  O         6.3119600192        3.7712399280        7.9837004631
  O         5.1393049325        2.8277365880        3.6768634831
  O         3.6900828516        5.5172136905       11.0424623405
  O         3.6300016771        2.9067477159       12.8694415944
  O         5.0978603140        0.2174758182        5.5113696057
  O         2.0985189254        0.0470747022        3.6888302442
  O         6.6440621211        3.0843274262       11.0406615193
  O         6.7039317005        5.6937266308       12.8695126841
  O         2.1337942181        2.6506840595        5.5113427801
  H         6.0397216117        3.0617389244        3.3134079733
  H         1.4322210517        0.0972151494       10.6735990127
  H         2.7319191792        2.6611076321       13.2321607269
  H         7.3503801403        5.6402387525        5.8726432248
  H         4.2975026199        5.5407543263        3.3122133118
  H         5.7956217084        2.7730493063       10.6642205228
  H         4.4711971301        0.1788815179       13.2175667162
  H         2.9900533529        2.9567422293        5.8741378053
  H         5.1330499014        3.0581467186        4.6241580699
  H         3.6052361104        5.8975809707       11.9553070260
  H         3.6387650810        2.6671385674       11.9248764080
  H         5.1767098972       -0.1682029111        4.6020516641
  H         2.1050186353       -0.1831830007        4.6360360275
  H         6.7223564663        2.6863994066       11.9464027388
  H         6.6997209069        5.9235808785       11.9222305365
  H         2.0521580112        3.0337656637        4.6011324006
 Ca         1.0435743394        7.1697378263        2.7793305813
 Ca         5.4401882778       10.0305695786        9.5530731441
 Ca         2.5901829987       10.0260721754       13.7213111552
 Ca         3.8886469489        7.1644670127        6.9891860709
  S         5.4252503366       10.0592378061        1.8748523021
  S         1.0493392883        7.1667237851        9.3508516445
  S         3.8632658395        7.1422492326       14.6520449522
  S         2.6058409168       10.0339865548        7.1777966562
  O        -0.6608962530        8.8910563467        2.9235347516
  O         0.6009423898        6.0151492709       10.1991110096
  O         4.2867573236        8.2763796892       13.6033209660
  O         3.0458927734       11.2020117296        6.3493808932
  O         5.8531981250       11.1855326723        2.9250216571
  O         1.4893624628        8.3191679058       10.2023430188
  O        -2.2024287595        6.0523567141       13.6001141633
  O         2.1607171236        8.8989825771        6.3048278802
  O         0.7683286095        9.3858628359        0.8855059382
  O         2.1739718685        6.6432427335        8.5254915556
  O         2.8627978752        7.7707114612       15.6250969466
  O         1.4878399549       10.5415386246        8.0183085865
  O         4.4228602543       10.6895403619        0.8855380935
  O        -0.0739546892        7.6863409648        8.5261265896
  O        -0.7766159531        6.5729927521       15.6250493262
  O         3.7337004948        9.5004372970        7.9912678830
  O         2.5674197787        8.5639473871        3.6742695775
  O         1.1141615183       11.2529750719       11.0436667565
  O         1.0610043330        8.6435268662       12.8657813778
  O         2.5221060692        5.9523923696        5.5146157723
  O        -0.4770261456        5.7799270540        3.6842714614
  O         4.0729260447        8.8214784140       11.0421656786
  O         4.0750498959       11.4510460185       12.8580368601
  O        -0.4371485185        8.3861421173        5.5131437813
  H         3.4649938651        8.8039078866        3.3082345126
  H        -1.1423307319        5.8312830086       10.6615303562
  H         0.1573503592        8.4155232614       13.2309036508
  H         4.7718970030       11.3883933620        5.8801754716
  H         1.7354473776       11.2726602613        3.3242560541
  H         3.2236123253        8.5132902318       10.6648658259
  H         1.8967390112        5.9254075585       13.1957475723
  H         0.4174742376        8.6956824684        5.8757179008
  H         2.5602518869        8.8035502621        4.6191371799
  H         1.0342605280       11.6312618271       11.9580044004
  H         1.0678222993        8.3980839536       11.9229821502
  H         2.5962872244        5.5792816225        4.5994199450
  H        -0.4732232580        5.5451915568        4.6299660558
  H         4.1501753923        8.4195366747       11.9458636397
  H         4.0840574894       11.6608578811       11.9051417492
  H        -0.5122406198        8.7577597844        4.5974897602
 Ca         6.7219951733        7.1689497772        2.7882966305
 Ca        -0.2411074878       10.0327996870        9.5545894363
 Ca        -3.0992814655       10.0404006039       13.7264972626
 Ca        -1.7958868205        7.1693837165        6.9893239227
  S        -0.2313350609       10.0181335808        1.8756050800
  S         6.7263557426        7.1640618649        9.3561241711
  S        -1.7931830293        7.1806626063       14.6563233423
  S        -3.0731354746       10.0361389391        7.1767313790
  O         5.0147464081        8.9128648004        2.9144282629
  O         6.2816808295        6.0120767924       10.2057786861
  O        -1.3745984471        8.3260938319       13.6201319888
  O        -2.6345186121       11.2054762513        6.3494051975
  O         0.1815116260       11.1644955318        2.9163485176
  O         7.1669194853        8.3193486131       10.2039196157
  O         3.4383045181        6.0085962007       13.6097880688
  O        -3.5187500204        8.9003263899        6.3040907474
  O         6.4225930193        9.4512254745        0.8847132245
  O         7.8486412079        6.6450755289        8.5271189573
  O        -2.8164855811        7.7786316904       15.6250198968
  O        -4.1906138331       10.5413663640        8.0184505337
  O        -1.2290106169       10.6266933681        0.8848530898
  O         5.6014677233        7.6801382766        8.5314579726
  O         4.8639123722        6.5047728013       15.6248941972
  O        -1.9439008584        9.5028388890        7.9886217978
  O        -3.1121494219        8.5639720319        3.6735809093
  O        -4.5649608127       11.2515995265       11.0427861109
  O         6.7348521661        8.6418894488       12.8684404692
  O         8.2027732141        5.9536516502        5.5082400686
  O         5.1973071223        5.7763115238        3.6753925273
  O        -1.6047011854        8.8202658081       11.0420369701
  O        -1.5742635762       11.4141475961       12.8459138540
  O         5.2420254653        8.3860875871        5.5100670371
  H        -2.2116553717        8.7968472189        3.3102065991
  H         4.5398009695        5.8324136425       10.6729589402
  H         5.8368054006        8.3934921857       13.2297448601
  H        -0.9049942087       11.3844289518        5.8787362007
  H        -3.9483797094       11.2783657419        3.3245758179
  H        -2.4557334252        8.5072374706       10.6735879984
  H         7.6038779171        5.9349980183       13.2315585021
  H         6.0943354627        8.7020459738        5.8728714360
  H        -3.1197686033        8.8033422182        4.6188151728
  H        -4.6521178641       11.6339666841       11.9545318447
  H         6.7466680992        8.4027516265       11.9236586516
  H         8.2846101442        5.5701861674        4.5979214365
  H         5.2073106069        5.5346157979        4.6199334823
  H        -1.5269551075        8.4466948664       11.9578982123
  H        -1.5741007013       11.6550372063       11.9012543460
  H         5.1584186996        8.7685957970        4.5997389619
     192
 i =       59, E =     -2330.2437409105
 Ca         9.2992903989        1.4350215238        2.7752102044
 Ca         2.3371450688        4.2963754185        9.5593569871
 Ca        -0.5075734099        4.3023664486       13.7080897479
 Ca         0.7767810284        1.4355205701        6.9956179208
  S         2.3135705313        4.3193566771        1.8766951405
  S         9.3036662166        1.4243562291        9.3572812998
  S         0.7517076417        1.4046869283       14.6512701732
  S        -0.5145913544        4.3077152068        7.2101792934
  O         7.5910359598        3.1553174483        2.9236226621
  O         8.8584858492        0.2720088311       10.2058419162
  O         1.1801681033        2.5392924195       13.6050503655
  O        -0.0730063428        5.4650766470        6.3682086343
  O         2.7446572248        5.4467033448        2.9239331180
  O         9.7434366670        2.5806618922       10.2044945107
  O         6.0241474789        0.2771725275       13.6193821426
  O        -0.9547816675        3.1581994988        6.3596031694
  O         9.0214539097        3.6507250589        0.8858276601
  O        10.4284049932        0.9023403369        8.5317195079
  O        -0.2450216984        2.0352211328       15.6254087546
  O        -1.6336240433        4.8253136063        8.0432482527
  O         1.3140923697        4.9519507083        0.8857543625
  O         8.1802254641        1.9382100364        8.5325466212
  O         7.4717307237        0.8293447743       15.6252935530
  O         0.6115830253        3.7861120611        8.0268211689
  O        -0.5486324949        2.8157292497        3.7058054285
  O        -1.9876419833        5.5175320613       11.0421746238
  O         9.3112244800        2.9093524442       12.8685896724
  O        10.7772905688        0.2174709434        5.5157568608
  O         7.7833902888        0.0597093463        3.7044748978
  O         0.9666708568        3.0829494678       11.0417738088
  O         0.9971541972        5.6928838755       12.8167472429
  O         7.8154963022        2.6508849269        5.5151171556
  H         0.3450943476        3.0657935522        3.3340007607
  H         7.1124821752        0.0966023104       10.6744999473
  H         8.4118565158        2.6638575582       13.2290426543
  H         1.6652854280        5.6463414837        5.8829572445
  H        -1.3694610487        5.5371652023        3.3240438869
  H         0.1186115183        2.7739500668       10.6627089394
  H        10.1251049011        0.1934656391       13.2218168993
  H         8.6672897819        2.9591125638        5.8857255645
  H        -0.5532046297        3.0488856073        4.6509699047
  H        -2.0611245166        5.9166685343       11.9480723618
  H         9.3242176035        2.6654611891       11.9250714686
  H        10.8458740772       -0.1555085961        4.6004334716
  H         7.7935241330       -0.1717562178        4.6510862388
  H         1.0423859269        2.6818540785       11.9461026693
  H         0.9963785273        5.9281216805       11.8699216853
  H         7.7468514173        3.0226040607        4.5995357935
 Ca         3.6210477842        1.4351946129        2.7848862686
 Ca         8.0076226612        4.2954389199        9.5630552982
 Ca         5.1652776140        4.3000087349       13.7173215768
 Ca         6.4625499194        1.4265573458        6.9958415404
  S         8.0209444536        4.2828142067        1.8762125722
  S         3.6183249676        1.4322429614        9.3505167270
  S         6.4480806339        1.4237261677       14.6544023943
  S         5.1735478134        4.2813491586        7.1786767745
  O         1.9001583332        3.1723213679        2.9175063997
  O         3.1712614489        0.2803316001       10.1994562232
  O         6.8589262006        2.5493323426       13.5969953821
  O         5.5964929136        5.4222979488        6.2992717979
  O         8.4342483167        5.4291480457        2.9164023014
  O         4.0610982789        2.5836131194       10.2023914099
  O         0.3231857515        0.2742156677       13.6071413859
  O         4.7120648224        3.1177463296        6.3518826352
  O         3.3105637664        3.7105567870        0.8851856217
  O         4.7423573913        0.9086056544        8.5261431197
  O         5.4350659473        2.0371343067       15.6251866105
  O         4.0678620651        4.8069592636        8.0238000866
  O         7.0244996554        4.8914694896        0.8848874956
  O         2.4948317395        1.9563523631        8.5260371339
  O         1.7490042464        0.7597909541       15.6251409682
  O         6.3172140130        3.7723659885        7.9863178000
  O         5.1389324378        2.8276307017        3.6822206005
  O         3.6932521364        5.5186751024       11.0424548849
  O         3.6285880539        2.9064599735       12.8708452067
  O         5.0973452766        0.2172122560        5.5120710406
  O         2.1028190222        0.0537135345        3.6999310684
  O         6.6426959542        3.0835876457       11.0419786963
  O         6.7046740286        5.6944404359       12.8712880676
  O         2.1333560508        2.6507317924        5.5121704804
  H         6.0393022750        3.0630258933        3.3193665668
  H         1.4318476587        0.0972066286       10.6728696449
  H         2.7300851292        2.6619652404       13.2341734670
  H         7.3495419362        5.6387270674        5.8759443545
  H         4.2986248310        5.5396646068        3.3146480257
  H         5.7950098773        2.7722436709       10.6639303593
  H         4.4703378677        0.1785362401       13.2121994293
  H         2.9886942866        2.9545105929        5.8797328730
  H         5.1341887540        3.0524586582        4.6305507820
  H         3.6072525650        5.9013655310       11.9546769555
  H         3.6393039948        2.6579683280       11.9289240193
  H         5.1733307866       -0.1701984325        4.6037975734
  H         2.1112947186       -0.1689837812        4.6496958830
  H         6.7208212867        2.6832052910       11.9466888442
  H         6.7015154998        5.9239560033       11.9238920119
  H         2.0539935939        3.0342424971        4.6022155812
 Ca         1.0444716436        7.1696653043        2.7809578825
 Ca         5.4412046838       10.0277785736        9.5550348430
 Ca         2.5853231512       10.0227845786       13.7264848138
 Ca         3.8894975346        7.1619467996        6.9903561420
  S         5.4265719234       10.0600914195        1.8762279316
  S         1.0514583891        7.1665861614        9.3507034479
  S         3.8528168226        7.1399308719       14.6500796405
  S         2.6063672884       10.0334349152        7.1811775779
  O        -0.6598132412        8.8919642836        2.9232740673
  O         0.6027370909        6.0148255629       10.1982211338
  O         4.2847495526        8.2738999056       13.6041288182
  O         3.0493688844       11.2061717142        6.3603880948
  O         5.8547585725       11.1860986993        2.9267153677
  O         1.4910245464        8.3190287607       10.2029018514
  O        -2.2018332717        6.0529672336       13.5994804812
  O         2.1624801161        8.9007928514        6.3044664482
  O         0.7700157386        9.3868550782        0.8857186575
  O         2.1763116486        6.6435587326        8.5258329863
  O         2.8571270189        7.7755877760       15.6252117793
  O         1.4860909649       10.5371230655        8.0208039850
  O         4.4240575996       10.6904134544        0.8858045861
  O        -0.0714867740        7.6868504625        8.5272728409
  O        -0.7762569356        6.5720887084       15.6252858400
  O         3.7331259379        9.4978271105        7.9949957228
  O         2.5688770558        8.5653516131        3.6745348576
  O         1.1145900234       11.2537179847       11.0438141486
  O         1.0600744126        8.6425174502       12.8650058970
  O         2.5198268758        5.9509172573        5.5164202175
  O        -0.4745292224        5.7822811909        3.6947412415
  O         4.0726372707        8.8204368724       11.0429201556
  O         4.0703750981       11.4471755604       12.8613270078
  O        -0.4371060864        8.3862880855        5.5134682984
  H         3.4667398738        8.8047388657        3.3090576743
  H        -1.1430900959        5.8311808100       10.6599602125
  H         0.1567469104        8.4134854605       13.2298066674
  H         4.7734505185       11.3886069530        5.8845255805
  H         1.7436545739       11.2770311990        3.3327755396
  H         3.2226869605        8.5138420313       10.6656617619
  H         1.8943315474        5.9277237699       13.1882067431
  H         0.4170579619        8.6966274066        5.8767034252
  H         2.5606649406        8.8055730404        4.6193149942
  H         1.0355479874       11.6307994114       11.9591117378
  H         1.0692015014        8.3963535349       11.9223488819
  H         2.5939764585        5.5769693581        4.6017466390
  H        -0.4732799589        5.5476180135        4.6405023846
  H         4.1485972111        8.4202837679       11.9475086363
  H         4.0799348417       11.6540896470       11.9077235883
  H        -0.5124975678        8.7585036151        4.5982246818
 Ca         6.7225023156        7.1693475164        2.7900515009
 Ca        -0.2407688538       10.0317417935        9.5556830313
 Ca        -3.0997191113       10.0408024051       13.7251459532
 Ca        -1.7941144665        7.1692525600        6.9925800834
  S        -0.2286897246       10.0196923430        1.8766141476
  S         6.7274920721        7.1619510057        9.3566710613
  S        -1.7921460085        7.1808390681       14.6561487363
  S        -3.0712119193       10.0343951088        7.1784064564
  O         5.0157396649        8.9133711243        2.9148360541
  O         6.2845717273        6.0103282221       10.2072764006
  O        -1.3741899904        8.3263466759       13.6200775674
  O        -2.6192290233       11.2065814148        6.3630899092
  O         0.1846100807       11.1657198550        2.9184361191
  O         7.1671448660        8.3184717433       10.2034964804
  O         3.4315524198        6.0091141690       13.6043567733
  O        -3.5169803243        8.9005742456        6.3027912065
  O         6.4227269274        9.4515336334        0.8850139009
  O         7.8501635974        6.6433780937        8.5280530041
  O        -2.8147526882        7.7791060513       15.6252311397
  O        -4.1933072890       10.5365887975        8.0149276350
  O        -1.2263497241       10.6290132349        0.8851052934
  O         5.6031052630        7.6743410686        8.5302970782
  O         4.8430787899        6.4909935232       15.6251575638
  O        -1.9436901154        9.4985525436        7.9906248278
  O        -3.1109772023        8.5652088017        3.6748302013
  O        -4.5646900225       11.2513196038       11.0431368562
  O         6.7341116856        8.6414125511       12.8694553580
  O         8.2015931483        5.9528131584        5.5108447434
  O         5.1976289702        5.7772165878        3.6773645396
  O        -1.6048172256        8.8198880809       11.0423403415
  O        -1.5747546069       11.4131098497       12.8413124861
  O         5.2435167435        8.3872736234        5.5117167900
  H        -2.2107945543        8.7982213136        3.3114629194
  H         4.5425723730        5.8339870313       10.6724275689
  H         5.8366339593        8.3912925789       13.2304017201
  H        -0.9043753728       11.3870979667        5.8838595678
  H        -3.9413433093       11.2803526536        3.3337225049
  H        -2.4562907702        8.5076375597       10.6740799788
  H         7.6053435456        5.9336112237       13.2331082568
  H         6.0951274540        8.7046939891        5.8758193580
  H        -3.1189047573        8.8067364044        4.6196409577
  H        -4.6512909884       11.6353021249       11.9544238586
  H         6.7477367014        8.4001217643       11.9252599568
  H         8.2837474572        5.5697541380        4.6005628743
  H         5.2080823009        5.5312195342        4.6209120688
  H        -1.5273403000        8.4460335847       11.9580579508
  H        -1.5754634613       11.6504214688       11.8954388022
  H         5.1592631187        8.7695188324        4.6018383460
     192
 i =       60, E =     -2330.2439134865
 Ca         9.2968833248        1.4340538542        2.7762406263
 Ca         2.3356743626        4.2975376914        9.5553746086
 Ca        -0.5091653427        4.3006507671       13.7115010012
 Ca         0.7763095728        1.4354279836        6.9944275597
  S         2.3144961051        4.3200051763        1.8760350612
  S         9.3032810913        1.4267389752        9.3560166729
  S         0.7529063777        1.4056179320       14.6509226981
  S        -0.5178640133        4.3057377665        7.1958218355
  O         7.5911435668        3.1550210029        2.9234702665
  O         8.8567194409        0.2746644323       10.2044863776
  O         1.1807852343        2.5398584882       13.6047067598
  O        -0.0755048975        5.4517626583        6.3364798179
  O         2.7448281231        5.4471967381        2.9237697615
  O         9.7425931700        2.5826918975       10.2037509239
  O         6.0246194444        0.2783373828       13.6195958196
  O        -0.9586423634        3.1470589449        6.3554725500
  O         9.0215318809        3.6504510156        0.8856749599
  O        10.4275529242        0.9040795719        8.5301123208
  O        -0.2440746198        2.0360545644       15.6252330866
  O        -1.6397347274        4.8318725158        8.0217690570
  O         1.3146235145        4.9524326330        0.8856685863
  O         8.1792290811        1.9433907205        8.5324266685
  O         7.4717172286        0.8312203012       15.6251470367
  O         0.6054400230        3.7928484347        8.0238013910
  O        -0.5473979714        2.8185381907        3.6947027837
  O        -1.9881556437        5.5172329643       11.0415330820
  O         9.3112506916        2.9095255999       12.8687122846
  O        10.7771487455        0.2176077635        5.5150969912
  O         7.7809170574        0.0548574987        3.6960719696
  O         0.9673955507        3.0847828241       11.0412352524
  O         0.9989204402        5.6912120022       12.8214576409
  O         7.8147391640        2.6502260183        5.5138002381
  H         0.3480425550        3.0659708396        3.3260807124
  H         7.1114097640        0.0966983767       10.6735616046
  H         8.4122566872        2.6632789777       13.2295380352
  H         1.6652530620        5.6477543112        5.8791569508
  H        -1.3715545621        5.5371210362        3.3187770598
  H         0.1192209670        2.7746911880       10.6631597213
  H        10.1276383290        0.1973896155       13.2193255473
  H         8.6680989340        2.9573706307        5.8817527426
  H        -0.5523611836        3.0539534641        4.6398821497
  H        -2.0628582404        5.9153613450       11.9474898852
  H         9.3232014172        2.6669275792       11.9248322517
  H        10.8477778946       -0.1549605082        4.5995358170
  H         7.7880049027       -0.1789783400        4.6420699531
  H         1.0445878155        2.6839995952       11.9454177700
  H         0.9981661944        5.9248862792       11.8744997367
  H         7.7436015546        3.0219989247        4.5981506389
 Ca         3.6191257484        1.4343362035        2.7850303299
 Ca         8.0085615616        4.2970461850        9.5577759361
 Ca         5.1669057855        4.2989705747       13.7183623945
 Ca         6.4626112322        1.4281958044        6.9937006434
  S         8.0207158698        4.2821513207        1.8754629905
  S         3.6180849438        1.4328223098        9.3510632600
  S         6.4479644997        1.4250300027       14.6543894378
  S         5.1758871991        4.2882931954        7.1728465078
  O         1.9015890885        3.1729148513        2.9163202705
  O         3.1715271767        0.2808903304       10.2000507596
  O         6.8594727437        2.5508787133       13.5975355017
  O         5.6045091464        5.4368206697        6.3072711719
  O         8.4329952580        5.4286658133        2.9155576103
  O         4.0610448774        2.5842701212       10.2026878112
  O         0.3241752713        0.2744267214       13.6073575611
  O         4.7199932022        3.1324719671        6.3331837433
  O         3.3117347152        3.7115376738        0.8849600549
  O         4.7420548993        0.9095065135        8.5259860353
  O         5.4350533929        2.0393986096       15.6251032681
  O         4.0667626452        4.8088323875        8.0173197971
  O         7.0236421153        4.8904837843        0.8848930139
  O         2.4945581474        1.9566348147        8.5260363897
  O         1.7501099394        0.7612530320       15.6249704882
  O         6.3130111978        3.7721291365        7.9854418011
  O         5.1389755598        2.8273459161        3.6786986100
  O         3.6908649116        5.5172377174       11.0420931036
  O         3.6297990273        2.9065395073       12.8698026205
  O         5.0978962376        0.2177669121        5.5115508692
  O         2.1008334983        0.0503824112        3.6920236842
  O         6.6438711431        3.0844583609       11.0408184743
  O         6.7040081439        5.6935903060       12.8700767231
  O         2.1335444080        2.6504842979        5.5116229959
  H         6.0394713727        3.0620978281        3.3157544593
  H         1.4320136489        0.0969867534       10.6735026393
  H         2.7315737007        2.6612879353       13.2326893927
  H         7.3496900635        5.6396792678        5.8735989782
  H         4.2980195239        5.5406825575        3.3126577746
  H         5.7954927538        2.7730321656       10.6644492323
  H         4.4710141944        0.1790417958       13.2158507009
  H         2.9895479734        2.9558125781        5.8758614921
  H         5.1334348518        3.0550842341        4.6264732063
  H         3.6057896433        5.8985607649       11.9547036452
  H         3.6392838732        2.6643003623       11.9260344074
  H         5.1759151794       -0.1687090026        4.6025130865
  H         2.1072045085       -0.1776675627        4.6399886994
  H         6.7220247641        2.6859252885       11.9464177691
  H         6.7002178500        5.9233220841       11.9227551945
  H         2.0527662734        3.0336565206        4.6013689312
 Ca         1.0441229945        7.1700914003        2.7794568677
 Ca         5.4405205035       10.0298425450        9.5531791152
 Ca         2.5888650951       10.0251733994       13.7243124213
 Ca         3.8887790677        7.1636912512        6.9893592385
  S         5.4256363273       10.0595475005        1.8753669799
  S         1.0497144554        7.1666847070        9.3510117021
  S         3.8604897953        7.1414946757       14.6514392669
  S         2.6058617446       10.0337444279        7.1784965860
  O        -0.6605128361        8.8914407720        2.9232838138
  O         0.6013899646        6.0150249037       10.1990201933
  O         4.2861606896        8.2758395876       13.6037892644
  O         3.0461572348       11.2027844350        6.3514552091
  O         5.8538076365       11.1859565410        2.9252118671
  O         1.4896212131        8.3191416762       10.2026566508
  O        -2.2024138783        6.0519011901       13.6005057937
  O         2.1611894472        8.8994221590        6.3044712789
  O         0.7688906011        9.3863101789        0.8856341443
  O         2.1743726100        6.6434921769        8.5257248768
  O         2.8614033947        7.7718930939       15.6251511607
  O         1.4874366051       10.5402605292        8.0190348815
  O         4.4230884285       10.6896132074        0.8856937358
  O        -0.0734895564        7.6864314905        8.5265725758
  O        -0.7766265274        6.5728247538       15.6252063024
  O         3.7332631331        9.4997641817        7.9924079289
  O         2.5677370914        8.5640540837        3.6738831327
  O         1.1141908936       11.2525370702       11.0435080371
  O         1.0607629111        8.6432004708       12.8654130844
  O         2.5211712827        5.9518810061        5.5150473939
  O        -0.4756073996        5.7813606617        3.6868483523
  O         4.0730378936        8.8217519265       11.0421664866
  O         4.0738772996       11.4475352294       12.8593594951
  O        -0.4371777032        8.3860321880        5.5131811215
  H         3.4655166402        8.8040010457        3.3084043896
  H        -1.1427476542        5.8307188762       10.6610574361
  H         0.1572154820        8.4148165815       13.2304454901
  H         4.7724188640       11.3884270559        5.8813733444
  H         1.7389669448       11.2746179585        3.3276584540
  H         3.2234366236        8.5137805288       10.6653312262
  H         1.8957525503        5.9261205563       13.1936784952
  H         0.4173561467        8.6958557270        5.8757661208
  H         2.5603855755        8.8038322072        4.6187336291
  H         1.0346126594       11.6306829858       11.9581195297
  H         1.0683393695        8.3980456159       11.9225306863
  H         2.5954459931        5.5785435502        4.5999941206
  H        -0.4727148920        5.5462622019        4.6326970202
  H         4.1499449279        8.4203145938       11.9462453095
  H         4.0826943280       11.6578083529       11.9065579810
  H        -0.5124978341        8.7578005055        4.5976198967
 Ca         6.7224490354        7.1692571399        2.7885124099
 Ca        -0.2410772031       10.0325023024        9.5543105191
 Ca        -3.0992584891       10.0406420812       13.7267247104
 Ca        -1.7953820169        7.1693656280        6.9903360821
  S        -0.2302788470       10.0188937026        1.8760006702
  S         6.7267625038        7.1632501799        9.3563218497
  S        -1.7930284306        7.1805438504       14.6562693840
  S        -3.0725370654       10.0359533679        7.1771375708
  O         5.0149485104        8.9130020983        2.9144886234
  O         6.2826276012        6.0113412209       10.2061808428
  O        -1.3745236224        8.3259339925       13.6201216527
  O        -2.6306115443       11.2055465834        6.3521700047
  O         0.1832382109       11.1653884644        2.9165008721
  O         7.1668277523        8.3189315097       10.2038756636
  O         3.4363803785        6.0086186153       13.6083974446
  O        -3.5182764057        8.9007216067        6.3037246045
  O         6.4225655161        9.4514236739        0.8848448638
  O         7.8492063499        6.6445360754        8.5274086927
  O        -2.8161308731        7.7784830084       15.6251328645
  O        -4.1911169573       10.5405933261        8.0175969720
  O        -1.2280081603       10.6277154900        0.8849788158
  O         5.6017975277        7.6780913974        8.5314075576
  O         4.8584180246        6.5015526533       15.6249943864
  O        -1.9441425542        9.5017360924        7.9895109039
  O        -3.1118831119        8.5639722893        3.6734560705
  O        -4.5649771511       11.2508999880       11.0426950713
  O         6.7348597541        8.6421075299       12.8686952665
  O         8.2021588925        5.9534003713        5.5094895432
  O         5.1976378354        5.7769292946        3.6755512075
  O        -1.6046421915        8.8207356183       11.0419058144
  O        -1.5741255253       11.4138983480       12.8440794162
  O         5.2424648510        8.3860766741        5.5104982052
  H        -2.2114517430        8.7971985514        3.3104033592
  H         4.5406396633        5.8326405873       10.6730570552
  H         5.8370715183        8.3929327004       13.2299612951
  H        -0.9046545785       11.3852694949        5.8800419185
  H        -3.9452329785       11.2794942908        3.3279996613
  H        -2.4558252966        8.5076041656       10.6738244856
  H         7.6041084579        5.9344069410       13.2321040210
  H         6.0945834117        8.7026810082        5.8734652747
  H        -3.1195125037        8.8041021204        4.6185542712
  H        -4.6520994718       11.6340555441       11.9542765736
  H         6.7470012145        8.4022764759       11.9241081486
  H         8.2845685669        5.5702215257        4.5990675945
  H         5.2076536769        5.5337982764        4.6197859627
  H        -1.5268879167        8.4467214800       11.9576515192
  H        -1.5743273090       11.6533279365       11.8989687861
  H         5.1585873458        8.7688261915        4.6003165062
     192
 i =       61, E =     -2330.2440793233
 Ca         9.2970875757        1.4338092420        2.7754870878
 Ca         2.3362239264        4.2974699967        9.5561697400
 Ca        -0.5088541997        4.3007940163       13.7114901359
 Ca         0.7762679112        1.4355473465        6.9945809495
  S         2.3139834000        4.3196237881        1.8763057478
  S         9.3035346634        1.4261803940        9.3563167162
  S         0.7527200723        1.4054981406       14.6509269876
  S        -0.5150510203        4.3066168019        7.1991505465
  O         7.5912476049        3.1553534154        2.9236280302
  O         8.8571182635        0.2742353584       10.2049496552
  O         1.1807273099        2.5398443374       13.6047982645
  O        -0.0710859080        5.4577944503        6.3480303724
  O         2.7446219285        5.4468766803        2.9238579865
  O         9.7425309664        2.5822618257       10.2039808162
  O         6.0245938396        0.2782210560       13.6194519814
  O        -0.9570811664        3.1504279467        6.3564372527
  O         9.0218056619        3.6504855248        0.8858289948
  O        10.4278585098        0.9036779962        8.5303175465
  O        -0.2440884175        2.0359493383       15.6253885922
  O        -1.6369061184        4.8302697815        8.0258282494
  O         1.3143039138        4.9523247540        0.8858360735
  O         8.1790637625        1.9426351947        8.5333913377
  O         7.4717969171        0.8310649170       15.6252669040
  O         0.6085456245        3.7915100817        8.0249449729
  O        -0.5488995920        2.8159679655        3.6978161995
  O        -1.9882800973        5.5173572161       11.0417660822
  O         9.3112397979        2.9091697171       12.8686341144
  O        10.7772348456        0.2176829184        5.5153385257
  O         7.7823738505        0.0588041936        3.6985068841
  O         0.9673013061        3.0844531702       11.0413191153
  O         0.9978260821        5.6917064285       12.8203735992
  O         7.8148675431        2.6502429253        5.5140761826
  H         0.3459668202        3.0652551622        3.3291580713
  H         7.1117775360        0.0962416179       10.6737573090
  H         8.4120999533        2.6634596292       13.2295520201
  H         1.6652868957        5.6472616645        5.8800346873
  H        -1.3703885344        5.5376979683        3.3201661509
  H         0.1190858471        2.7748812464       10.6629310924
  H        10.1262938457        0.1958304150       13.2201462846
  H         8.6676381032        2.9578611309        5.8829519510
  H        -0.5532510257        3.0518092467        4.6429615973
  H        -2.0625452591        5.9153310500       11.9477589549
  H         9.3236163173        2.6666479258       11.9247642439
  H        10.8473722682       -0.1548454834        4.5997239081
  H         7.7897869116       -0.1762696719        4.6443381345
  H         1.0444094674        2.6839479742       11.9455488221
  H         0.9969637261        5.9253405950       11.8733803406
  H         7.7444278951        3.0219555800        4.5983681631
 Ca         3.6197879642        1.4344715370        2.7844377533
 Ca         8.0088122839        4.2968978995        9.5581816334
 Ca         5.1661699280        4.2990897344       13.7184066184
 Ca         6.4631068495        1.4278113841        6.9938224049
  S         8.0210691146        4.2824810563        1.8757438065
  S         3.6185472792        1.4324658345        9.3511616372
  S         6.4480732756        1.4247885094       14.6543399965
  S         5.1756558806        4.2875835208        7.1741453276
  O         1.9005237423        3.1726399655        2.9166878372
  O         3.1716429224        0.2807447877       10.2002836351
  O         6.8593827883        2.5507666494       13.5975511324
  O         5.6032991534        5.4351529964        6.3068515639
  O         8.4338521990        5.4289639003        2.9158405377
  O         4.0611683103        2.5839029341       10.2029732673
  O         0.3239170764        0.2744486865       13.6072768071
  O         4.7183458618        3.1295574888        6.3385858026
  O         3.3113078540        3.7112134268        0.8851223330
  O         4.7424860318        0.9089180186        8.5261878663
  O         5.4352888079        2.0390184757       15.6252214570
  O         4.0668337249        4.8088572543        8.0181441567
  O         7.0240694068        4.8908565841        0.8850459922
  O         2.4952010383        1.9559931724        8.5259478185
  O         1.7499898956        0.7611655377       15.6250930692
  O         6.3133869701        3.7724379793        7.9863012260
  O         5.1389636229        2.8273031703        3.6801194074
  O         3.6912853546        5.5176956861       11.0419970445
  O         3.6298069216        2.9065383426       12.8700076862
  O         5.0980003266        0.2177640614        5.5117255928
  O         2.1021042935        0.0530570554        3.6942786553
  O         6.6438391773        3.0842111406       11.0410179405
  O         6.7040487228        5.6937614777       12.8702981430
  O         2.1333617061        2.6507063748        5.5117966932
  H         6.0393968891        3.0623345361        3.3170386137
  H         1.4319439285        0.0968336073       10.6732848425
  H         2.7315392468        2.6613766836       13.2328761944
  H         7.3493283013        5.6391959704        5.8740989296
  H         4.2983095698        5.5406353721        3.3127263840
  H         5.7954314176        2.7731490382       10.6644329990
  H         4.4706319481        0.1790705654       13.2145640889
  H         2.9892575237        2.9551749392        5.8768762849
  H         5.1335079120        3.0531684640        4.6283156060
  H         3.6059172078        5.8989518832       11.9545083389
  H         3.6397837929        2.6626894985       11.9267394100
  H         5.1755290146       -0.1690013828        4.6028295325
  H         2.1085863746       -0.1744169353        4.6425323337
  H         6.7218559006        2.6858276618       11.9466124593
  H         6.7003656082        5.9230533927       11.9228835770
  H         2.0532194223        3.0335245853        4.6014564900
 Ca         1.0447286705        7.1704432309        2.7793722589
 Ca         5.4408371052       10.0297088847        9.5530478447
 Ca         2.5875860349       10.0242774165       13.7258809497
 Ca         3.8890680018        7.1632275298        6.9890641797
  S         5.4259320514       10.0597575543        1.8756230317
  S         1.0499330445        7.1667767666        9.3510923886
  S         3.8593459723        7.1408933931       14.6514191181
  S         2.6057372349       10.0335328926        7.1787634440
  O        -0.6602121635        8.8917305198        2.9233105020
  O         0.6015079490        6.0151410796       10.1989959966
  O         4.2860694153        8.2754179689       13.6044038366
  O         3.0461800151       11.2026772632        6.3518306375
  O         5.8541607516       11.1859342175        2.9256866720
  O         1.4897897132        8.3191468163       10.2029437404
  O        -2.2024275745        6.0518944355       13.6005949832
  O         2.1612596855        8.8993059852        6.3046044028
  O         0.7692865063        9.3865468270        0.8857822730
  O         2.1744952007        6.6435930745        8.5257461859
  O         2.8609127925        7.7726401143       15.6252838352
  O         1.4872765299       10.5399566214        8.0193330811
  O         4.4232434008       10.6898068983        0.8858253860
  O        -0.0733257149        7.6866970408        8.5269910934
  O        -0.7767145462        6.5727652487       15.6253218930
  O         3.7328349018        9.4992869923        7.9930055039
  O         2.5680434841        8.5643172826        3.6737459982
  O         1.1142321540       11.2528647241       11.0435886364
  O         1.0606569087        8.6432722489       12.8652775751
  O         2.5207233773        5.9514713883        5.5151513451
  O        -0.4746337526        5.7818740556        3.6889852583
  O         4.0732198211        8.8216090925       11.0421613380
  O         4.0722659955       11.4464609820       12.8606540923
  O        -0.4372357228        8.3859449073        5.5133195746
  H         3.4659540180        8.8040880889        3.3084524129
  H        -1.1430066010        5.8303571335       10.6606840442
  H         0.1571667862        8.4143487893       13.2300122181
  H         4.7727951210       11.3883718540        5.8821434692
  H         1.7413751009       11.2759009985        3.3301056072
  H         3.2233489964        8.5141005916       10.6655900139
  H         1.8948070545        5.9263585323       13.1925270571
  H         0.4172822738        8.6959190235        5.8758003564
  H         2.5604237740        8.8041992084        4.6185748559
  H         1.0347919319       11.6303189767       11.9584133195
  H         1.0685598119        8.3980676670       11.9223813400
  H         2.5948820802        5.5780055445        4.6002347897
  H        -0.4721640529        5.5469746695        4.6348955311
  H         4.1496976110        8.4207482194       11.9464915489
  H         4.0820159955       11.6557664360       11.9076027101
  H        -0.5125432767        8.7578736476        4.5978205992
 Ca         6.7225785090        7.1693060837        2.7886000291
 Ca        -0.2408284938       10.0322510001        9.5545910909
 Ca        -3.0988478848       10.0411140783       13.7266225899
 Ca        -1.7952498000        7.1693064444        6.9908520400
  S        -0.2296341522       10.0193235529        1.8762848082
  S         6.7270994328        7.1627011442        9.3564127648
  S        -1.7929966931        7.1805608404       14.6562959291
  S        -3.0725223095       10.0355362930        7.1770809064
  O         5.0151140421        8.9131777897        2.9145548084
  O         6.2830761687        6.0111308143       10.2066811340
  O        -1.3747228829        8.3259429806       13.6201480796
  O        -2.6307042579       11.2056765864        6.3529846846
  O         0.1844519585       11.1656620281        2.9168866330
  O         7.1668370662        8.3187026064       10.2037115951
  O         3.4352713811        6.0085258338       13.6080728489
  O        -3.5182736168        8.9002464014        6.3037525781
  O         6.4226664596        9.4515393712        0.8849618137
  O         7.8495823789        6.6441692920        8.5273860431
  O        -2.8160121080        7.7784278433       15.6252886188
  O        -4.1909969588       10.5409140388        8.0171842157
  O        -1.2275349647       10.6281499737        0.8851779444
  O         5.6017391242        7.6773657599        8.5320597261
  O         4.8560997316        6.4996859659       15.6251635158
  O        -1.9443050931        9.5016839131        7.9898689416
  O        -3.1115361487        8.5643580803        3.6735269646
  O        -4.5650156577       11.2511652944       11.0428637028
  O         6.7346717664        8.6420119508       12.8687632683
  O         8.2018163124        5.9532798444        5.5103948242
  O         5.1977457357        5.7770476717        3.6757908931
  O        -1.6047629399        8.8205417543       11.0420106809
  O        -1.5742339227       11.4136267384       12.8422926335
  O         5.2426251185        8.3861576671        5.5108442294
  H        -2.2111477272        8.7974708434        3.3103155200
  H         4.5411405782        5.8326079029       10.6728409055
  H         5.8370800942        8.3924849738       13.2301154229
  H        -0.9044099425       11.3856514387        5.8807871066
  H        -3.9432427997       11.2802204845        3.3302182333
  H        -2.4560031459        8.5077397925       10.6737662967
  H         7.6042748452        5.9341143213       13.2323662699
  H         6.0946602508        8.7030647154        5.8737626346
  H        -3.1194525370        8.8047755519        4.6185543904
  H        -4.6522224008       11.6340234992       11.9544306592
  H         6.7472111746        8.4019768475       11.9242326622
  H         8.2843735103        5.5701800145        4.5999672742
  H         5.2079540950        5.5329095245        4.6198350943
  H        -1.5267808908        8.4466938331       11.9577225857
  H        -1.5742897783       11.6523788136       11.8970468372
  H         5.1588259593        8.7689592700        4.6007588330
     192
 i =       62, E =     -2330.2440678921
 Ca         9.2984508353        1.4337855347        2.7724461504
 Ca         2.3383135813        4.2969259092        9.5592450668
 Ca        -0.5097392202        4.2994904539       13.7121058731
 Ca         0.7767922630        1.4352666114        6.9958293746
  S         2.3121611880        4.3184934110        1.8771402987
  S         9.3043415339        1.4249926571        9.3575484134
  S         0.7522098187        1.4053425920       14.6509545091
  S        -0.5073186142        4.3080700206        7.2101874375
  O         7.5913583744        3.1561211106        2.9237217735
  O         8.8585094522        0.2726482017       10.2057144433
  O         1.1806992288        2.5398724958       13.6050043581
  O        -0.0616168571        5.4693532729        6.3748352618
  O         2.7443806024        5.4462578745        2.9235005158
  O         9.7432449487        2.5819231121       10.2039996271
  O         6.0241747958        0.2780769563       13.6194203525
  O        -0.9518955600        3.1581804887        6.3607488441
  O         9.0227464559        3.6510369544        0.8861740215
  O        10.4283865283        0.9030088706        8.5307516325
  O        -0.2441346057        2.0360576049       15.6257339063
  O        -1.6292473857        4.8258406891        8.0381752908
  O         1.3131567447        4.9518964163        0.8861902668
  O         8.1797662031        1.9401505302        8.5345954170
  O         7.4718110186        0.8306916913       15.6256031805
  O         0.6179996112        3.7882626333        8.0299115566
  O        -0.5530919310        2.8064726964        3.7071343561
  O        -1.9885822280        5.5167696301       11.0420358067
  O         9.3117710212        2.9098668612       12.8691556100
  O        10.7774032471        0.2178688359        5.5159556605
  O         7.7853506973        0.0717117879        3.7064274419
  O         0.9673479155        3.0846731629       11.0411975650
  O         0.9943399334        5.6936448712       12.8177910295
  O         7.8152363861        2.6507790883        5.5148772886
  H         0.3392866910        3.0619807383        3.3366649067
  H         7.1125338209        0.0949723813       10.6747315805
  H         8.4123079263        2.6637475481       13.2288793090
  H         1.6658333254        5.6462827927        5.8825816507
  H        -1.3664743920        5.5396522061        3.3246316993
  H         0.1189934026        2.7752291511       10.6630738825
  H        10.1221008096        0.1915163997       13.2234526444
  H         8.6664397968        2.9597135100        5.8859557988
  H        -0.5574504917        3.0449749687        4.6517998517
  H        -2.0617190599        5.9152401094       11.9480759673
  H         9.3242557210        2.6657855080       11.9255884082
  H        10.8464637970       -0.1541967892        4.6000259167
  H         7.7958950651       -0.1682401477        4.6514155022
  H         1.0436331236        2.6835115974       11.9454411715
  H         0.9933358678        5.9263134209       11.8704081849
  H         7.7468606998        3.0215114889        4.5986852101
 Ca         3.6217665178        1.4349159159        2.7825988743
 Ca         8.0098227760        4.2955852319        9.5597604990
 Ca         5.1657324659        4.3000933089       13.7186848415
 Ca         6.4639235985        1.4269134637        6.9954215083
  S         8.0222901139        4.2835172948        1.8766785733
  S         3.6202938967        1.4312740819        9.3512988901
  S         6.4481375157        1.4244888224       14.6543074223
  S         5.1758490726        4.2868705036        7.1789184538
  O         1.8968846187        3.1715644960        2.9172611325
  O         3.1722086905        0.2797834862       10.2001936682
  O         6.8592339939        2.5510331959       13.5981095239
  O         5.6017807635        5.4298832375        6.3044895961
  O         8.4367648456        5.4301118868        2.9165173228
  O         4.0618524335        2.5832618735       10.2029534294
  O         0.3233173277        0.2745670749       13.6070953853
  O         4.7159737744        3.1225488176        6.3549210583
  O         3.3096408101        3.7100855877        0.8854905602
  O         4.7443988367        0.9071272278        8.5268686502
  O         5.4357187484        2.0384611714       15.6256446845
  O         4.0665614647        4.8105681511        8.0197823506
  O         7.0255988831        4.8921385141        0.8854885905
  O         2.4973518058        1.9538387694        8.5258683133
  O         1.7496539324        0.7610237175       15.6254544058
  O         6.3161279252        3.7748593944        7.9888810395
  O         5.1385597751        2.8264360392        3.6838924451
  O         3.6924056090        5.5177845597       11.0417665070
  O         3.6293264449        2.9060705920       12.8704547612
  O         5.0981219213        0.2180810454        5.5122142521
  O         2.1055233746        0.0634177408        3.7013780050
  O         6.6437326000        3.0848211523       11.0411095326
  O         6.7038010990        5.6934641468       12.8711561850
  O         2.1331726472        2.6508607899        5.5122477828
  H         6.0389421841        3.0628791834        3.3213356767
  H         1.4315473082        0.0966968905       10.6733743888
  H         2.7309715872        2.6612099892       13.2334146222
  H         7.3484289192        5.6380391606        5.8758223886
  H         4.2991142939        5.5406341769        3.3129009963
  H         5.7953965397        2.7732809052       10.6647044754
  H         4.4695731311        0.1793858817       13.2102964005
  H         2.9887004597        2.9536270702        5.8796013832
  H         5.1338198411        3.0466683341        4.6334726643
  H         3.6064750440        5.9005304701       11.9537437652
  H         3.6411378798        2.6581192408       11.9283574983
  H         5.1748030801       -0.1696353257        4.6036171638
  H         2.1130022877       -0.1649394594        4.6498437954
  H         6.7214828905        2.6853971216       11.9466128900
  H         6.7011734732        5.9222590322       11.9235921797
  H         2.0546435428        3.0329690777        4.6015190898
 Ca         1.0461620031        7.1708596764        2.7793507724
 Ca         5.4413132230       10.0285323338        9.5533645227
 Ca         2.5847034289       10.0216039328       13.7315619302
 Ca         3.8894042218        7.1621275572        6.9894674507
  S         5.4268144603       10.0603522160        1.8764245354
  S         1.0503420242        7.1669960130        9.3513503117
  S         3.8571487586        7.1394205697       14.6515475090
  S         2.6053773438       10.0324069051        7.1794432136
  O        -0.6594106048        8.8923767451        2.9230288656
  O         0.6017011274        6.0152519772       10.1988502754
  O         4.2856741815        8.2741501689       13.6053477794
  O         3.0470006389       11.2019175405        6.3533136623
  O         5.8551245714       11.1865714997        2.9260923915
  O         1.4902391999        8.3193650731       10.2033395050
  O        -2.2022572965        6.0513897617       13.6012038715
  O         2.1613547157        8.8988937571        6.3042787022
  O         0.7704161494        9.3871323326        0.8861361613
  O         2.1748183863        6.6439578147        8.5261173567
  O         2.8599733260        7.7739466931       15.6256305670
  O         1.4872402227       10.5397138563        8.0198995775
  O         4.4236432745       10.6900375294        0.8862206053
  O        -0.0729240315        7.6877139379        8.5281157071
  O        -0.7765469566        6.5724539988       15.6257099515
  O         3.7318317131        9.4979538189        7.9944891603
  O         2.5688570536        8.5656403576        3.6730474576
  O         1.1143333451       11.2517672896       11.0433526400
  O         1.0600139386        8.6427567428       12.8646329580
  O         2.5201638696        5.9508227311        5.5150943965
  O        -0.4708645252        5.7834810217        3.6947493692
  O         4.0734764343        8.8222384773       11.0423023156
  O         4.0686559805       11.4405862217       12.8640476689
  O        -0.4374565709        8.3859383340        5.5134251631
  H         3.4674980536        8.8041828877        3.3084979190
  H        -1.1437090858        5.8294090200       10.6599947493
  H         0.1566381354        8.4130932149       13.2291292672
  H         4.7737225034       11.3880286295        5.8838436610
  H         1.7479969896       11.2803535488        3.3360100310
  H         3.2231698581        8.5150576508       10.6662989337
  H         1.8918957540        5.9272340817       13.1895184583
  H         0.4171124493        8.6958429322        5.8759108573
  H         2.5606798089        8.8048844000        4.6180653930
  H         1.0356321064       11.6292553465       11.9586028175
  H         1.0694091335        8.3982732127       11.9215299263
  H         2.5934352357        5.5763768411        4.6006133017
  H        -0.4697420438        5.5503431073        4.6408936737
  H         4.1494220876        8.4222146612       11.9472547096
  H         4.0791280716       11.6496048152       11.9109044120
  H        -0.5128767170        8.7579925954        4.5980220705
 Ca         6.7234040459        7.1697391907        2.7887227284
 Ca        -0.2401420888       10.0315744971        9.5550113513
 Ca        -3.0987840467       10.0416215999       13.7263297875
 Ca        -1.7943864858        7.1690713279        6.9929781554
  S        -0.2275472880       10.0206401843        1.8771135252
  S         6.7280155849        7.1614858235        9.3569482903
  S        -1.7927808751        7.1803046237       14.6566136875
  S        -3.0727163616       10.0347464188        7.1769604232
  O         5.0155604047        8.9135236597        2.9146379146
  O         6.2843946230        6.0098267991       10.2069852402
  O        -1.3746622511        8.3255078256       13.6203942226
  O        -2.6301396236       11.2050647543        6.3537141490
  O         0.1885923230       11.1666698878        2.9175917776
  O         7.1674017461        8.3182599276       10.2034884542
  O         3.4326646775        6.0083180634       13.6076337876
  O        -3.5181153001        8.8994886482        6.3034897996
  O         6.4229653848        9.4518734709        0.8853380130
  O         7.8504162386        6.6431616975        8.5275289825
  O        -2.8157698298        7.7780156590       15.6256599660
  O        -4.1913500262       10.5404905010        8.0165033690
  O        -1.2258046373       10.6297163058        0.8855894419
  O         5.6021233343        7.6750684864        8.5331043182
  O         4.8512858735        6.4949738773       15.6255651180
  O        -1.9441950203        9.5014360363        7.9895279033
  O        -3.1109149203        8.5651593837        3.6731774534
  O        -4.5651670161       11.2500871707       11.0427619469
  O         6.7347025856        8.6427330089       12.8691260658
  O         8.2009462672        5.9525671669        5.5122740932
  O         5.1983835648        5.7771683267        3.6759778594
  O        -1.6047202647        8.8210780173       11.0416823331
  O        -1.5740210029       11.4125186338       12.8359663704
  O         5.2430990754        8.3862987715        5.5114320454
  H        -2.2104123061        8.7981443459        3.3102440958
  H         4.5423450416        5.8328371370       10.6728024211
  H         5.8376439531        8.3915352523       13.2303810161
  H        -0.9038554109       11.3866270377        5.8823565170
  H        -3.9368735280       11.2831753660        3.3361158949
  H        -2.4561861983        8.5080347683       10.6741548431
  H         7.6043791451        5.9332523231       13.2328474036
  H         6.0949112207        8.7038693356        5.8744883032
  H        -3.1190492431        8.8064420170        4.6180374097
  H        -4.6524495972       11.6342161641       11.9540826792
  H         6.7474846576        8.4011445817       11.9249662100
  H         8.2841421510        5.5702142212        4.6017772219
  H         5.2086897649        5.5306781941        4.6194968759
  H        -1.5269055104        8.4466278857       11.9572319652
  H        -1.5737202456       11.6501832796       11.8904551457
  H         5.1592946131        8.7693003115        4.6015561796
     192
 i =       63, E =     -2330.2441991067
 Ca         9.2974046492        1.4334519939        2.7735296438
 Ca         2.3373640041        4.2971718515        9.5574106698
 Ca        -0.5095533615        4.3000474576       13.7121371663
 Ca         0.7768734620        1.4349593552        6.9947690068
  S         2.3129502002        4.3189986971        1.8767734045
  S         9.3039567864        1.4259061895        9.3568608961
  S         0.7524470972        1.4054057443       14.6508299183
  S        -0.5107999237        4.3075300549        7.2040007207
  O         7.5912956202        3.1558540200        2.9236378738
  O         8.8577488850        0.2738409146       10.2053369729
  O         1.1807350588        2.5398261585       13.6048580731
  O        -0.0659490492        5.4634631626        6.3600822922
  O         2.7445423237        5.4465058935        2.9236586492
  O         9.7428992567        2.5821608688       10.2041837141
  O         6.0243016610        0.2782389372       13.6194623773
  O        -0.9544890273        3.1542270509        6.3578989954
  O         9.0223975393        3.6508004883        0.8860341664
  O        10.4280274408        0.9036964722        8.5302396835
  O        -0.2440115806        2.0361173848       15.6255875906
  O        -1.6332556982        4.8278626199        8.0309517249
  O         1.3136723404        4.9520987288        0.8860488869
  O         8.1793580624        1.9422812177        8.5341061333
  O         7.4717086505        0.8311250958       15.6254665583
  O         0.6134613669        3.7892457806        8.0270782306
  O        -0.5509146181        2.8107321868        3.7020659691
  O        -1.9885013814        5.5172452428       11.0419228621
  O         9.3113072073        2.9092248015       12.8688939786
  O        10.7773591708        0.2176598826        5.5157161187
  O         7.7836970242        0.0640600943        3.7014694293
  O         0.9674847721        3.0845839100       11.0413702040
  O         0.9952911182        5.6927426484       12.8195837493
  O         7.8150567908        2.6506347510        5.5145507861
  H         0.3425275457        3.0630107341        3.3325667621
  H         7.1121618709        0.0955230257       10.6740620626
  H         8.4120055168        2.6633973591       13.2293239848
  H         1.6658128131        5.6469832392        5.8812264252
  H        -1.3680577838        5.5388918952        3.3225443403
  H         0.1191855867        2.7752671760       10.6629904605
  H        10.1236807848        0.1936981562       13.2220574753
  H         8.6670101489        2.9590236831        5.8842730858
  H        -0.5563707329        3.0482843374        4.6469867721
  H        -2.0622659603        5.9152853468       11.9479164886
  H         9.3237892201        2.6662138138       11.9251251025
  H        10.8471856692       -0.1541217857        4.5997615143
  H         7.7930971690       -0.1724443917        4.6471057555
  H         1.0443785690        2.6839493255       11.9455432730
  H         0.9946104327        5.9252707601       11.8722420479
  H         7.7456273524        3.0214307574        4.5984202483
 Ca         3.6209017139        1.4347593836        2.7833016580
 Ca         8.0098273940        4.2963053341        9.5587889692
 Ca         5.1660791099        4.2991830277       13.7183702545
 Ca         6.4635027987        1.4277354284        6.9943331667
  S         8.0218518589        4.2831050376        1.8762848016
  S         3.6198365061        1.4316551037        9.3512539194
  S         6.4479497345        1.4246941412       14.6543076533
  S         5.1764044634        4.2884580581        7.1759209186
  O         1.8983930204        3.1721779430        2.9170577568
  O         3.1721626959        0.2802126705       10.2003587656
  O         6.8593111926        2.5508733839       13.5977254975
  O         5.6036243007        5.4331494358        6.3045323072
  O         8.4357474207        5.4296755941        2.9162419454
  O         4.0616839703        2.5834279823       10.2030425558
  O         0.3234520511        0.2744680165       13.6070995679
  O         4.7182371589        3.1288868099        6.3442281339
  O         3.3104265710        3.7105516066        0.8853381064
  O         4.7439984143        0.9077410057        8.5266452617
  O         5.4354240550        2.0389828852       15.6254420836
  O         4.0668591539        4.8104627407        8.0181282344
  O         7.0249862842        4.8915931053        0.8852897083
  O         2.4966842100        1.9544928766        8.5259427665
  O         1.7497151743        0.7610444175       15.6252937562
  O         6.3144812316        3.7745810374        7.9881072744
  O         5.1387276220        2.8266824545        3.6823243150
  O         3.6916093409        5.5178552335       11.0420396389
  O         3.6297062312        2.9063602107       12.8700463011
  O         5.0980966794        0.2179949268        5.5119758244
  O         2.1036829336        0.0589996035        3.6971605843
  O         6.6440641824        3.0843843568       11.0410369082
  O         6.7039055222        5.6937590864       12.8704505269
  O         2.1334399335        2.6508467900        5.5120848306
  H         6.0391748138        3.0626477257        3.3197345953
  H         1.4317930282        0.0968591974       10.6734397782
  H         2.7314456497        2.6609896405       13.2326829537
  H         7.3489255396        5.6386035373        5.8749138527
  H         4.2986452857        5.5406483656        3.3126406805
  H         5.7955550263        2.7733665264       10.6646381270
  H         4.4701248354        0.1793824783       13.2121262549
  H         2.9890958633        2.9546079801        5.8780825506
  H         5.1336455158        3.0492096532        4.6313245353
  H         3.6060252790        5.8995694305       11.9543003825
  H         3.6406862065        2.6608928539       11.9272064823
  H         5.1757474379       -0.1690678539        4.6031274421
  H         2.1110511288       -0.1698788483        4.6452941732
  H         6.7217373756        2.6859850335       11.9467830224
  H         6.7006156547        5.9223244034       11.9228528989
  H         2.0539343952        3.0329497982        4.6013819645
 Ca         1.0458548525        7.1708247377        2.7792381917
 Ca         5.4410896683       10.0292754975        9.5531072691
 Ca         2.5859916635       10.0223852516       13.7294747014
 Ca         3.8892087790        7.1627968098        6.9891015474
  S         5.4264425280       10.0600722072        1.8759525733
  S         1.0498584675        7.1670012340        9.3511840494
  S         3.8592799729        7.1404131008       14.6516340668
  S         2.6055215656       10.0327633823        7.1786662481
  O        -0.6598241722        8.8919906788        2.9231470950
  O         0.6013176715        6.0153612226       10.1989754896
  O         4.2862609664        8.2750048334       13.6048173132
  O         3.0461797339       11.2013858558        6.3508584178
  O         5.8547493690       11.1862900203        2.9255923487
  O         1.4898554929        8.3192047666       10.2032415656
  O        -2.2023550138        6.0516390578       13.6010006686
  O         2.1610237916        8.8986528914        6.3044916385
  O         0.7698812021        9.3868998948        0.8859897873
  O         2.1743763650        6.6438655929        8.5259296339
  O         2.8610334003        7.7728387466       15.6255088784
  O         1.4877275655       10.5404360337        8.0193335018
  O         4.4234107554       10.6898705063        0.8860386307
  O        -0.0733760663        7.6874690926        8.5273808909
  O        -0.7765621588        6.5728033964       15.6255404127
  O         3.7323747287        9.4987497253        7.9934258028
  O         2.5685566323        8.5651246736        3.6731944397
  O         1.1142810921       11.2525221063       11.0435200908
  O         1.0602207420        8.6428923166       12.8650019523
  O         2.5207794736        5.9513429546        5.5148945532
  O        -0.4722136832        5.7825628528        3.6917902474
  O         4.0734734530        8.8219675604       11.0421680267
  O         4.0698078848       11.4439767565       12.8628054312
  O        -0.4374106690        8.3857844301        5.5133517624
  H         3.4669967745        8.8041398951        3.3084957147
  H        -1.1433684264        5.8297505921       10.6602550207
  H         0.1566415494        8.4137278878       13.2294504030
  H         4.7732118830       11.3879380280        5.8826390558
  H         1.7440143860       11.2784227932        3.3328204226
  H         3.2233710156        8.5146350102       10.6659456702
  H         1.8926166075        5.9265991793       13.1913994426
  H         0.4171886684        8.6955674761        5.8758011865
  H         2.5606362595        8.8045234872        4.6181572428
  H         1.0353082187       11.6296794443       11.9585756206
  H         1.0687862062        8.3983550957       11.9219186413
  H         2.5941882475        5.5771665998        4.6002414140
  H        -0.4700506810        5.5489204570        4.6378639587
  H         4.1496641228        8.4214992330       11.9467799815
  H         4.0802112346       11.6522214417       11.9095272194
  H        -0.5126393911        8.7578450880        4.5978865161
 Ca         6.7231051594        7.1694440662        2.7886368642
 Ca        -0.2403977383       10.0318772655        9.5547137604
 Ca        -3.0985986331       10.0416388263       13.7261647436
 Ca        -1.7947403962        7.1689876541        6.9916173967
  S        -0.2285582049       10.0199621481        1.8767313407
  S         6.7275900508        7.1621407024        9.3567004875
  S        -1.7929845779        7.1804209030       14.6565619062
  S        -3.0729122976       10.0350799620        7.1763995468
  O         5.0153802480        8.9133238481        2.9145187790
  O         6.2836664948        6.0106631834       10.2070123279
  O        -1.3748309731        8.3257125738       13.6203322087
  O        -2.6321917155       11.2043178597        6.3502923102
  O         0.1866141726       11.1661024494        2.9172728321
  O         7.1671475594        8.3184366824       10.2037274817
  O         3.4344569403        6.0082988780       13.6086131224
  O        -3.5186155124        8.8993709848        6.3037608558
  O         6.4229443674        9.4517526062        0.8851707309
  O         7.8500555377        6.6437070614        8.5274426087
  O        -2.8161237049        7.7781367979       15.6255122498
  O        -4.1905112079       10.5411926471        8.0173099360
  O        -1.2267130861       10.6289087146        0.8854262771
  O         5.6019654164        7.6766987158        8.5327978949
  O         4.8554301154        6.4980466255       15.6254063006
  O        -1.9439938329        9.5022591917        7.9888633275
  O        -3.1111662057        8.5650148161        3.6730682076
  O        -4.5651195092       11.2508314055       11.0428228479
  O         6.7347465143        8.6422143968       12.8688255213
  O         8.2014456746        5.9530130808        5.5112422394
  O         5.1981208504        5.7768565677        3.6756491942
  O        -1.6048234894        8.8206161464       11.0418515649
  O        -1.5740942695       11.4132921014       12.8389111979
  O         5.2426722772        8.3860295762        5.5109293984
  H        -2.2105722643        8.7978326467        3.3101084244
  H         4.5416106479        5.8326563446       10.6729804683
  H         5.8373814494        8.3921093275       13.2303114279
  H        -0.9041419894       11.3857300006        5.8810073511
  H        -3.9400836224       11.2823532575        3.3327118867
  H        -2.4561181581        8.5076838078       10.6738348996
  H         7.6042550207        5.9339129280       13.2324143909
  H         6.0946443074        8.7030809579        5.8738650181
  H        -3.1192823387        8.8056486446        4.6180467941
  H        -4.6526048809       11.6340522520       11.9543369845
  H         6.7472120930        8.4017376564       11.9244139320
  H         8.2843711284        5.5700820304        4.6008608187
  H         5.2083331686        5.5316530047        4.6193829000
  H        -1.5268556159        8.4466423222       11.9575107590
  H        -1.5735093763       11.6515511735       11.8935037830
  H         5.1590491681        8.7691397543        4.6009593164
     192
 i =       64, E =     -2330.2441221530
 Ca         9.2969001408        1.4334327161        2.7740309814
 Ca         2.3370756826        4.2971970926        9.5564272259
 Ca        -0.5095885995        4.3003641087       13.7123210390
 Ca         0.7770647569        1.4351047820        6.9945424702
  S         2.3132182422        4.3191516033        1.8766935455
  S         9.3040228931        1.4263483350        9.3565691099
  S         0.7525914998        1.4054238562       14.6507415348
  S        -0.5133792352        4.3063115709        7.1993322074
  O         7.5913829020        3.1556920893        2.9236198820
  O         8.8574603902        0.2742040036       10.2048129515
  O         1.1807593507        2.5397601173       13.6047811115
  O        -0.0719616363        5.4537339586        6.3413449923
  O         2.7444683543        5.4465627332        2.9238753579
  O         9.7428535665        2.5825579955       10.2040173806
  O         6.0243000674        0.2783114323       13.6197133354
  O        -0.9567893122        3.1492669456        6.3574910088
  O         9.0222703167        3.6507265944        0.8859512689
  O        10.4279986857        0.9040193484        8.5299039342
  O        -0.2439941042        2.0361009094       15.6254668625
  O        -1.6335912348        4.8302498896        8.0284213696
  O         1.3139200528        4.9520857472        0.8859370321
  O         8.1794177756        1.9430564562        8.5338216523
  O         7.4715093382        0.8313116189       15.6253851123
  O         0.6108857050        3.7919082136        8.0255868691
  O        -0.5505065005        2.8111350445        3.6991085136
  O        -1.9884340071        5.5171225304       11.0417417952
  O         9.3109338312        2.9089978586       12.8687472752
  O        10.7773667113        0.2174724510        5.5154359444
  O         7.7835022801        0.0610950171        3.6985990188
  O         0.9676183602        3.0850104370       11.0413576195
  O         0.9952852744        5.6921391118       12.8208290775
  O         7.8151027047        2.6504651014        5.5141856205
  H         0.3433857332        3.0629830733        3.3307507957
  H         7.1118656940        0.0956564033       10.6737691393
  H         8.4118203020        2.6631226097       13.2296470048
  H         1.6658484001        5.6475039597        5.8804304072
  H        -1.3683641646        5.5386546480        3.3216900624
  H         0.1193611721        2.7752568866       10.6631407216
  H        10.1239416173        0.1946696550       13.2214781756
  H         8.6673773450        2.9588325157        5.8833681265
  H        -0.5561581852        3.0499601618        4.6438570077
  H        -2.0623882878        5.9153012175       11.9476912969
  H         9.3235071068        2.6663468271       11.9249104534
  H        10.8477489533       -0.1539165368        4.5993649971
  H         7.7915360324       -0.1747847750        4.6443897463
  H         1.0447908300        2.6841800853       11.9454463191
  H         0.9949841032        5.9244756300       11.8734779606
  H         7.7448877492        3.0213320385        4.5980113815
 Ca         3.6206478684        1.4349554291        2.7833576843
 Ca         8.0095920096        4.2963016448        9.5583535350
 Ca         5.1667025343        4.2988575493       13.7185476883
 Ca         6.4635477149        1.4279772665        6.9939603131
  S         8.0218141019        4.2829724230        1.8762392369
  S         3.6198318907        1.4316702040        9.3512493004
  S         6.4477417969        1.4249302389       14.6543296349
  S         5.1765386215        4.2896566942        7.1748632873
  O         1.8990276048        3.1721971841        2.9167630420
  O         3.1722415767        0.2801667273       10.2002504917
  O         6.8593422454        2.5509344638       13.5975963723
  O         5.6041329597        5.4351691283        6.3046779776
  O         8.4355108742        5.4296144973        2.9162069915
  O         4.0617732923        2.5836888536       10.2027022219
  O         0.3235450239        0.2743437190       13.6071414047
  O         4.7196764809        3.1299773110        6.3427444572
  O         3.3107149383        3.7107571473        0.8852461339
  O         4.7440975852        0.9079242933        8.5265496231
  O         5.4351729547        2.0395134899       15.6253318601
  O         4.0668171554        4.8108565124        8.0177308580
  O         7.0249090923        4.8913891855        0.8852040905
  O         2.4967120331        1.9546485601        8.5259545636
  O         1.7498320144        0.7611693977       15.6251836290
  O         6.3138111515        3.7755480815        7.9880588076
  O         5.1388200167        2.8265043300        3.6817564245
  O         3.6911280917        5.5176946804       11.0421748655
  O         3.6297813798        2.9065363927       12.8697073125
  O         5.0981413075        0.2179710124        5.5116935780
  O         2.1027188891        0.0584560184        3.6959230556
  O         6.6441079803        3.0843569767       11.0410153319
  O         6.7039343392        5.6936762260       12.8701075235
  O         2.1336756509        2.6505056411        5.5120602373
  H         6.0391921663        3.0625624263        3.3191226411
  H         1.4319286253        0.0970083739       10.6736434914
  H         2.7316488638        2.6607111127       13.2323431642
  H         7.3492350672        5.6389768411        5.8742579806
  H         4.2983919387        5.5406772741        3.3121762980
  H         5.7955981980        2.7733231710       10.6645880979
  H         4.4705461555        0.1794749419       13.2131804511
  H         2.9893542535        2.9554307771        5.8769942560
  H         5.1334961513        3.0501123213        4.6305922224
  H         3.6057356931        5.8990357037       11.9545607094
  H         3.6404494532        2.6624039517       11.9264337036
  H         5.1766093310       -0.1685531932        4.6026716323
  H         2.1102160898       -0.1726559917        4.6433041316
  H         6.7220207560        2.6863873451       11.9468950136
  H         6.7004566337        5.9223169579       11.9225094172
  H         2.0537164464        3.0328286307        4.6013385670
 Ca         1.0456077377        7.1704897768        2.7790713895
 Ca         5.4409119588       10.0296868512        9.5528913609
 Ca         2.5866127533       10.0226047372       13.7287396204
 Ca         3.8890819004        7.1632467296        6.9890066686
  S         5.4262565596       10.0599254213        1.8757081355
  S         1.0496323527        7.1669580665        9.3510025674
  S         3.8602031476        7.1408717726       14.6513045279
  S         2.6056661762       10.0329610522        7.1782371959
  O        -0.6599153880        8.8920050458        2.9233262446
  O         0.6010377163        6.0152493712       10.1987558590
  O         4.2865506576        8.2754460777       13.6043583234
  O         3.0460397587       11.2013754867        6.3501138756
  O         5.8545253223       11.1860249449        2.9254161654
  O         1.4896156139        8.3193059529       10.2027833676
  O        -2.2024418760        6.0518078833       13.6007636541
  O         2.1608650508        8.8985417673        6.3046323083
  O         0.7696826278        9.3867676909        0.8858962041
  O         2.1741550243        6.6437157913        8.5257632876
  O         2.8616696175        7.7722622723       15.6254110186
  O         1.4876923185       10.5407397418        8.0184836381
  O         4.4232991954       10.6898376431        0.8859561311
  O        -0.0734972404        7.6872633695        8.5266754342
  O        -0.7764675340        6.5730471711       15.6254291249
  O         3.7327985556        9.4992134467        7.9926579282
  O         2.5686802351        8.5648115284        3.6733253651
  O         1.1141512258       11.2526366051       11.0434864909
  O         1.0602182441        8.6430397789       12.8652437131
  O         2.5211372866        5.9518603694        5.5147696865
  O        -0.4722556810        5.7822304377        3.6899497905
  O         4.0734592961        8.8217446320       11.0421248588
  O         4.0703146416       11.4440513179       12.8622396433
  O        -0.4374329522        8.3858705881        5.5132127058
  H         3.4669362283        8.8041562769        3.3083043440
  H        -1.1431653325        5.8300003406       10.6606257681
  H         0.1565250279        8.4139876798       13.2295608030
  H         4.7729016177       11.3877763669        5.8817390867
  H         1.7424800035       11.2775319706        3.3314678475
  H         3.2234490857        8.5145109903       10.6656832289
  H         1.8923997718        5.9262667966       13.1925994592
  H         0.4172433072        8.6953133095        5.8756983660
  H         2.5607190725        8.8043329001        4.6182369721
  H         1.0352720267       11.6297068523       11.9584653388
  H         1.0683813867        8.3984812911       11.9221408006
  H         2.5947339190        5.5776036364        4.6000286699
  H        -0.4698412416        5.5483902401        4.6359530792
  H         4.1499897104        8.4213948067       11.9466157542
  H         4.0803628545       11.6532208970       11.9091993572
  H        -0.5125083996        8.7575721522        4.5976622206
 Ca         6.7229526673        7.1690781823        2.7884874820
 Ca        -0.2405284979       10.0320588564        9.5543761157
 Ca        -3.0987104061       10.0413694312       13.7260619023
 Ca        -1.7947680321        7.1687452475        6.9910365853
  S        -0.2288957274       10.0197385720        1.8765186677
  S         6.7275585987        7.1625386236        9.3565458816
  S        -1.7930655283        7.1804674100       14.6564903356
  S        -3.0727700626       10.0353364766        7.1764095320
  O         5.0153600260        8.9132641127        2.9145710046
  O         6.2832759579        6.0108115327       10.2064319046
  O        -1.3747627819        8.3258172772       13.6202793679
  O        -2.6326935695       11.2042140827        6.3491985388
  O         0.1857175867       11.1661123869        2.9169075173
  O         7.1670763983        8.3186544006       10.2038189544
  O         3.4352042326        6.0083255841       13.6086051235
  O        -3.5188749480        8.8998701913        6.3037362656
  O         6.4229610705        9.4517603907        0.8850763095
  O         7.8500001577        6.6439305445        8.5273783638
  O        -2.8162721332        7.7781701763       15.6253826901
  O        -4.1903614275       10.5414410078        8.0174102756
  O        -1.2270238375       10.6285280082        0.8852706906
  O         5.6021338363        7.6773029806        8.5324047911
  O         4.8566917151        6.4985299652       15.6253017866
  O        -1.9437791628        9.5024514789        7.9887799865
  O        -3.1111666962        8.5650433489        3.6729102799
  O        -4.5650795074       11.2510298573       11.0427935088
  O         6.7349376727        8.6422017955       12.8686771965
  O         8.2019231245        5.9532491894        5.5108313975
  O         5.1979433828        5.7767958683        3.6751736820
  O        -1.6047790483        8.8205778018       11.0418532469
  O        -1.5738999124       11.4138455424       12.8403020188
  O         5.2423126877        8.3859816922        5.5105814452
  H        -2.2105083122        8.7976790236        3.3098949059
  H         4.5411546743        5.8326608794       10.6733038115
  H         5.8374249374        8.3926065268       13.2303227726
  H        -0.9042777573       11.3850725892        5.8800845555
  H        -3.9411726011       11.2825651279        3.3308440214
  H        -2.4559816284        8.5075136620       10.6737491706
  H         7.6040838428        5.9342734343       13.2322107899
  H         6.0944949256        8.7023577998        5.8734268473
  H        -3.1193559289        8.8051170167        4.6179877297
  H        -4.6528438356       11.6339276673       11.9543723841
  H         6.7470502000        8.4020941179       11.9241826362
  H         8.2846165256        5.5699633531        4.6004885724
  H         5.2082069686        5.5320753738        4.6189926807
  H        -1.5268636213        8.4466924588       11.9575458890
  H        -1.5734196945       11.6522671526       11.8948874743
  H         5.1587581955        8.7689242546        4.6004940281
     192
 i =       65, E =     -2330.2442435594
 Ca         9.2972168891        1.4333049461        2.7730356364
 Ca         2.3377885293        4.2970348786        9.5571814074
 Ca        -0.5099813910        4.2999638633       13.7123820241
 Ca         0.7773820716        1.4347975790        6.9947055649
  S         2.3127003677        4.3188352965        1.8769017885
  S         9.3042047459        1.4260729514        9.3568296172
  S         0.7523747096        1.4052862345       14.6507022378
  S        -0.5109164404        4.3065018398        7.2026236503
  O         7.5913538894        3.1559618887        2.9236182310
  O         8.8578781393        0.2739228928       10.2051319878
  O         1.1807200813        2.5396952223       13.6048302494
  O        -0.0680882300        5.4585804552        6.3520698209
  O         2.7444167523        5.4464020246        2.9237158240
  O         9.7429793019        2.5824185609       10.2040783661
  O         6.0241715240        0.2782386387       13.6196491901
  O        -0.9552473541        3.1517250932        6.3581129973
  O         9.0225251560        3.6508571083        0.8860209653
  O        10.4281587520        0.9038772991        8.5300045466
  O        -0.2440332293        2.0360712675       15.6255538395
  O        -1.6322122578        4.8282748005        8.0308390538
  O         1.3135927143        4.9519767560        0.8860175311
  O         8.1795878765        1.9426233318        8.5340878435
  O         7.4715116000        0.8310744606       15.6254639965
  O         0.6136862968        3.7900932372        8.0270813361
  O        -0.5512996475        2.8082834253        3.7022905485
  O        -1.9884499842        5.5171688439       11.0418798499
  O         9.3109729109        2.9090526708       12.8688907873
  O        10.7774350741        0.2174705379        5.5156714182
  O         7.7837848626        0.0638790655        3.7009242411
  O         0.9676240441        3.0849439408       11.0414086991
  O         0.9937410732        5.6927601855       12.8200321726
  O         7.8151484244        2.6507237033        5.5145138181
  H         0.3415978675        3.0618399315        3.3327369206
  H         7.1121187636        0.0953624694       10.6739586690
  H         8.4117530011        2.6631074011       13.2294630172
  H         1.6661012796        5.6472927257        5.8811866052
  H        -1.3670795060        5.5391550007        3.3231998081
  H         0.1193538296        2.7753584656       10.6631005997
  H        10.1225891871        0.1934212140       13.2225198576
  H         8.6669747230        2.9594872033        5.8841975031
  H        -0.5578050190        3.0481270747        4.6468027573
  H        -2.0621426987        5.9154021374       11.9478210141
  H         9.3236092779        2.6659838696       11.9251406885
  H        10.8475539571       -0.1536258997        4.5994550913
  H         7.7935074545       -0.1726780227        4.6465652689
  H         1.0446153084        2.6840273390       11.9454721981
  H         0.9937089590        5.9246781130       11.8725306832
  H         7.7457069352        3.0211590745        4.5981514832
 Ca         3.6211965899        1.4350919873        2.7829420768
 Ca         8.0102593420        4.2960883126        9.5588379798
 Ca         5.1663960323        4.2990969988       13.7184899925
 Ca         6.4637334670        1.4278641752        6.9944159374
  S         8.0221810519        4.2832946832        1.8764906275
  S         3.6204485976        1.4312610229        9.3512636293
  S         6.4477485964        1.4247379055       14.6543221617
  S         5.1767219848        4.2893114606        7.1762285160
  O         1.8980072430        3.1719914182        2.9170060027
  O         3.1724559375        0.2799028804       10.2002690853
  O         6.8593021800        2.5508441185       13.5976593015
  O         5.6039113762        5.4341876678        6.3050737729
  O         8.4364782691        5.4299770521        2.9163973322
  O         4.0620212767        2.5833956167       10.2027824894
  O         0.3232254451        0.2743349839       13.6070020214
  O         4.7197820899        3.1292628057        6.3451744944
  O         3.3102889766        3.7103962032        0.8853341556
  O         4.7448439706        0.9072580011        8.5268513994
  O         5.4352710803        2.0392414861       15.6254335653
  O         4.0667002483        4.8113656898        8.0179197718
  O         7.0253595065        4.8918234081        0.8852954789
  O         2.4973906595        1.9539322978        8.5260086078
  O         1.7496289052        0.7610010565       15.6252711130
  O         6.3146119133        3.7764575340        7.9892135925
  O         5.1386969431        2.8262295404        3.6831077305
  O         3.6914802384        5.5178023132       11.0421423464
  O         3.6296813167        2.9064461505       12.8697949511
  O         5.0982391566        0.2181018027        5.5118439795
  O         2.1036827041        0.0619970243        3.6979876550
  O         6.6441426401        3.0844649506       11.0410202008
  O         6.7039282831        5.6937355795       12.8702766390
  O         2.1337083968        2.6506893628        5.5122313200
  H         6.0390580356        3.0628176188        3.3207442351
  H         1.4318468868        0.0971049171       10.6737151359
  H         2.7315397599        2.6605798302       13.2323754658
  H         7.3489843865        5.6386362212        5.8748017450
  H         4.2985353882        5.5405871417        3.3122007170
  H         5.7956355018        2.7733076867       10.6647077591
  H         4.4702971695        0.1795772327       13.2118569427
  H         2.9892450448        2.9551012463        5.8778919192
  H         5.1336338338        3.0480989784        4.6323148161
  H         3.6058532624        5.8995077048       11.9543984938
  H         3.6408845955        2.6611607948       11.9268509692
  H         5.1764870226       -0.1687249816        4.6029071113
  H         2.1115469956       -0.1701090343        4.6452441588
  H         6.7217927466        2.6862147562       11.9468883292
  H         6.7006531014        5.9220343804       11.9225902623
  H         2.0541058374        3.0325808305        4.6013376683
 Ca         1.0461926493        7.1706422062        2.7791580210
 Ca         5.4411064134       10.0293785801        9.5530111611
 Ca         2.5854706141       10.0215029750       13.7306023581
 Ca         3.8891553923        7.1630326276        6.9890230991
  S         5.4265861209       10.0601367772        1.8758986962
  S         1.0497619003        7.1670432662        9.3510405858
  S         3.8597298454        7.1403124652       14.6513638013
  S         2.6055808966       10.0326244960        7.1784139304
  O        -0.6596585144        8.8921114593        2.9231837584
  O         0.6010908421        6.0153630140       10.1987585184
  O         4.2863646226        8.2749891819       13.6046598236
  O         3.0459877476       11.2010052993        6.3501542028
  O         5.8548815675       11.1862746683        2.9253903483
  O         1.4897384244        8.3192921170       10.2030084187
  O        -2.2024270975        6.0517639225       13.6008806035
  O         2.1608988628        8.8984604694        6.3044549016
  O         0.7700506743        9.3869808310        0.8859714490
  O         2.1742293383        6.6438206301        8.5258045294
  O         2.8615202186        7.7725863440       15.6254878236
  O         1.4878137554       10.5407180648        8.0187222605
  O         4.4234447640       10.6898839021        0.8860385120
  O        -0.0733664581        7.6876022588        8.5269180668
  O        -0.7765942252        6.5729153204       15.6255320343
  O         3.7325182679        9.4988274812        7.9930962550
  O         2.5689724794        8.5652581205        3.6731297533
  O         1.1142387873       11.2525207810       11.0434876179
  O         1.0599483006        8.6427643810       12.8650714388
  O         2.5210665954        5.9517410158        5.5147900617
  O        -0.4710090804        5.7826800212        3.6917516735
  O         4.0735227225        8.8219853468       11.0421296600
  O         4.0688746650       11.4431164859       12.8634513953
  O        -0.4374623791        8.3857769496        5.5132662962
  H         3.4674891204        8.8042591719        3.3084367833
  H        -1.1433259757        5.8297804576       10.6602763494
  H         0.1562095649        8.4136125444       13.2292722270
  H         4.7731801755       11.3875732751        5.8822101906
  H         1.7437571963       11.2787396535        3.3328517157
  H         3.2234225334        8.5147051492       10.6658876712
  H         1.8910787406        5.9264351712       13.1916371808
  H         0.4171936351        8.6952385567        5.8758081142
  H         2.5609096629        8.8046684333        4.6180794893
  H         1.0356146837       11.6294763073       11.9586104265
  H         1.0685388837        8.3984634314       11.9219045358
  H         2.5942861607        5.5771015701        4.6002101014
  H        -0.4688355308        5.5493093687        4.6378985562
  H         4.1498204631        8.4216415538       11.9467434092
  H         4.0792862506       11.6513382763       11.9101925330
  H        -0.5125263072        8.7576284394        4.5977564915
 Ca         6.7233134208        7.1692389125        2.7886594762
 Ca        -0.2403104187       10.0318523077        9.5545782060
 Ca        -3.0985700460       10.0417029691       13.7257187034
 Ca        -1.7945049329        7.1687162812        6.9914832787
  S        -0.2283288028       10.0200608964        1.8767003179
  S         6.7278529464        7.1621881102        9.3566472399
  S        -1.7930961506        7.1804695825       14.6565463891
  S        -3.0728752212       10.0352438026        7.1763812382
  O         5.0155355532        8.9133579020        2.9145243780
  O         6.2836931410        6.0105866091       10.2066777906
  O        -1.3747740332        8.3257714425       13.6203244052
  O        -2.6328914570       11.2039856693        6.3489186051
  O         0.1867877783       11.1663117529        2.9171443884
  O         7.1672283567        8.3184675829       10.2038045344
  O         3.4344541876        6.0081875478       13.6084532472
  O        -3.5187959825        8.8996843045        6.3037828465
  O         6.4231266172        9.4518912130        0.8851615195
  O         7.8503310809        6.6436379800        8.5274072989
  O        -2.8162613677        7.7781700531       15.6254793263
  O        -4.1902924286       10.5414825836        8.0175327500
  O        -1.2266155608       10.6289180500        0.8853731516
  O         5.6023073751        7.6767439457        8.5326356613
  O         4.8558902016        6.4977339875       15.6253850952
  O        -1.9438723190        9.5024437162        7.9887391150
  O        -3.1109429429        8.5653731129        3.6727521343
  O        -4.5650871442       11.2508203116       11.0427749680
  O         6.7349005190        8.6422497630       12.8687561708
  O         8.2016240603        5.9530099629        5.5112593817
  O         5.1980502423        5.7767227973        3.6751635360
  O        -1.6048408588        8.8205731320       11.0418086372
  O        -1.5738729568       11.4136449977       12.8386341495
  O         5.2424828613        8.3858756896        5.5106707064
  H        -2.2101883791        8.7979436551        3.3099515967
  H         4.5415110194        5.8328133333       10.6732918545
  H         5.8375188520        8.3922922228       13.2304015111
  H        -0.9040516187       11.3851856314        5.8804485999
  H        -3.9392857124       11.2837167971        3.3326858255
  H        -2.4560649351        8.5074435773       10.6737962717
  H         7.6041736286        5.9341577074       13.2322748769
  H         6.0945406908        8.7025400459        5.8736497607
  H        -3.1191585935        8.8057412012        4.6177804714
  H        -4.6529403109       11.6340951987       11.9542886266
  H         6.7470869334        8.4017891382       11.9243499743
  H         8.2846421096        5.5698532643        4.6009433893
  H         5.2083889045        5.5311616282        4.6188217377
  H        -1.5269629378        8.4465545407       11.9574675183
  H        -1.5731629130       11.6516735956       11.8930914411
  H         5.1589099608        8.7691107908        4.6006817452
     192
 i =       66, E =     -2330.2442834926
 Ca         9.2971736835        1.4330302547        2.7722016529
 Ca         2.3383515516        4.2967971610        9.5575455456
 Ca        -0.5104753799        4.2996444630       13.7127696878
 Ca         0.7779189897        1.4343697576        6.9947923637
  S         2.3122018302        4.3185264795        1.8771124550
  S         9.3044590480        1.4259929002        9.3569905834
  S         0.7522238544        1.4051554002       14.6506263766
  S        -0.5094791367        4.3056304898        7.2044650803
  O         7.5914219033        3.1562038282        2.9235726187
  O         8.8582365420        0.2737408217       10.2051640829
  O         1.1806985501        2.5396143719       13.6049096856
  O        -0.0663188392        5.4591061664        6.3562665652
  O         2.7443421997        5.4462331666        2.9236195244
  O         9.7431518597        2.5824164301       10.2041378790
  O         6.0240937234        0.2782261833       13.6196656362
  O        -0.9544078747        3.1520325134        6.3582350080
  O         9.0228833647        3.6510494651        0.8860677763
  O        10.4283535516        0.9039249237        8.5299765274
  O        -0.2440701774        2.0360390528       15.6255945532
  O        -1.6315093473        4.8264929923        8.0320110687
  O         1.3132985335        4.9517921993        0.8860659388
  O         8.1798425940        1.9424901053        8.5342127370
  O         7.4714225237        0.8309754211       15.6255091131
  O         0.6154199936        3.7883192302        8.0283216312
  O        -0.5524289387        2.8057337338        3.7037702812
  O        -1.9884152287        5.5171522157       11.0418990619
  O         9.3108176431        2.9088925490       12.8690091185
  O        10.7775834991        0.2172491132        5.5158297945
  O         7.7844026409        0.0652361473        3.7015399636
  O         0.9677747219        3.0850165661       11.0414349819
  O         0.9912054981        5.6934251515       12.8198130364
  O         7.8152458092        2.6510279794        5.5146644358
  H         0.3400458901        3.0601972827        3.3342710329
  H         7.1122362378        0.0949751760       10.6740031472
  H         8.4115538805        2.6629223587       13.2294759670
  H         1.6664072550        5.6473878061        5.8817302348
  H        -1.3657163977        5.5396489698        3.3245059694
  H         0.1194686334        2.7755429594       10.6631341521
  H        10.1212113594        0.1924566105       13.2234900055
  H         8.6667262693        2.9601710096        5.8846664781
  H        -0.5596046686        3.0466576394        4.6481409913
  H        -2.0618933656        5.9154804598       11.9478194231
  H         9.3235999411        2.6656176174       11.9253135100
  H        10.8477159165       -0.1530033535        4.5993166823
  H         7.7947669691       -0.1714562801        4.6471905586
  H         1.0446991406        2.6840506806       11.9454575004
  H         0.9921037285        5.9243356489       11.8720446763
  H         7.7462477019        3.0207962502        4.5980115899
 Ca         3.6219414496        1.4356341482        2.7822546429
 Ca         8.0108234006        4.2957722883        9.5592145997
 Ca         5.1663363941        4.2991877410       13.7185030768
 Ca         6.4640746591        1.4277815745        6.9947404149
  S         8.0226820516        4.2836107492        1.8767536449
  S         3.6212015385        1.4307541780        9.3513636403
  S         6.4476705756        1.4246771589       14.6542813343
  S         5.1770277645        4.2897706750        7.1771386303
  O         1.8971394445        3.1717645582        2.9171041222
  O         3.1728257472        0.2795137466       10.2002940225
  O         6.8592862997        2.5509302788       13.5977982434
  O         5.6038227129        5.4338767956        6.3048085564
  O         8.4376357668        5.4303463346        2.9166297076
  O         4.0623629984        2.5832123383       10.2027240939
  O         0.3229298676        0.2742681693       13.6068989247
  O         4.7207266180        3.1293937590        6.3468038501
  O         3.3099348774        3.7100954457        0.8853919531
  O         4.7457741018        0.9066296825        8.5271487081
  O         5.4352901836        2.0391913360       15.6254857538
  O         4.0664588617        4.8117989943        8.0180534432
  O         7.0258891959        4.8921611106        0.8853507539
  O         2.4982555184        1.9531062113        8.5261681266
  O         1.7495263013        0.7609583007       15.6253136510
  O         6.3150408230        3.7782489061        7.9906728091
  O         5.1385242607        2.8256448325        3.6842425251
  O         3.6916536867        5.5179673840       11.0421396194
  O         3.6296387749        2.9064091261       12.8697522133
  O         5.0983861171        0.2180828435        5.5118527848
  O         2.1043485170        0.0651458716        3.6994496980
  O         6.6442269852        3.0844083917       11.0410678480
  O         6.7038803686        5.6937588050       12.8703443512
  O         2.1338571583        2.6508045465        5.5125644300
  H         6.0388342356        3.0629816784        3.3222860116
  H         1.4318139990        0.0972642589       10.6738888364
  H         2.7315476959        2.6602639363       13.2322396827
  H         7.3489008186        5.6384922411        5.8749978849
  H         4.2985815096        5.5405480590        3.3118369621
  H         5.7957003921        2.7733131533       10.6647692475
  H         4.4703023364        0.1797927581       13.2109801234
  H         2.9893037095        2.9552318650        5.8782425639
  H         5.1336848380        3.0459202414        4.6338388952
  H         3.6057389022        5.8997027835       11.9543545469
  H         3.6412576051        2.6605406809       11.9269638635
  H         5.1769615170       -0.1684650179        4.6028720321
  H         2.1128867055       -0.1684287885        4.6463576267
  H         6.7217639440        2.6863075862       11.9470103530
  H         6.7008328932        5.9216396852       11.9225376645
  H         2.0544482348        3.0320630008        4.6013727458
 Ca         1.0468664760        7.1706683203        2.7790656620
 Ca         5.4412522009       10.0291971141        9.5530186078
 Ca         2.5844021981       10.0201034615       13.7328751433
 Ca         3.8892545541        7.1627619587        6.9891377460
  S         5.4269143964       10.0603102247        1.8759852582
  S         1.0497755858        7.1671162368        9.3509903049
  S         3.8596601847        7.1398434065       14.6512385156
  S         2.6055658289       10.0324363631        7.1784370407
  O        -0.6594343811        8.8922092241        2.9230768297
  O         0.6010336440        6.0153975113       10.1986105322
  O         4.2863243750        8.2746567977       13.6048296171
  O         3.0460433940       11.2007685837        6.3500526910
  O         5.8552233447       11.1863110341        2.9253661048
  O         1.4897543893        8.3193442313       10.2029824410
  O        -2.2024926001        6.0516949172       13.6009561616
  O         2.1608892576        8.8983516123        6.3044254457
  O         0.7703199349        9.3872013398        0.8860124242
  O         2.1742041766        6.6439103205        8.5258023801
  O         2.8616474237        7.7724977039       15.6255287311
  O         1.4878946249       10.5407559308        8.0186398483
  O         4.4235870061       10.6899203988        0.8860864852
  O        -0.0733501702        7.6879142236        8.5269125463
  O        -0.7766907239        6.5728989813       15.6255869129
  O         3.7324079731        9.4986742438        7.9932192168
  O         2.5693927248        8.5655920617        3.6729171483
  O         1.1142215568       11.2524571220       11.0434287945
  O         1.0596203002        8.6424970044       12.8650259302
  O         2.5211343770        5.9518105037        5.5146652016
  O        -0.4695301011        5.7827866731        3.6930930504
  O         4.0736343663        8.8219539559       11.0421194582
  O         4.0676226983       11.4416876822       12.8647050160
  O        -0.4375383031        8.3857795038        5.5132425899
  H         3.4681047420        8.8043359514        3.3083572240
  H        -1.1433463787        5.8296727097       10.6601567921
  H         0.1557521269        8.4133061828       13.2290017983
  H         4.7733469483       11.3872310983        5.8821864163
  H         1.7444462051       11.2796902650        3.3339148870
  H         3.2234125571        8.5149455230       10.6659565825
  H         1.8888383769        5.9263278075       13.1911897749
  H         0.4171813895        8.6949663890        5.8758342109
  H         2.5611595384        8.8048713112        4.6178938906
  H         1.0359955610       11.6290273145       11.9587143348
  H         1.0685355513        8.3985662679       11.9217615016
  H         2.5941469399        5.5768241440        4.6002351451
  H        -0.4672789893        5.5503346851        4.6394605183
  H         4.1498714254        8.4220741313       11.9468714005
  H         4.0780068345       11.6495105486       11.9113597508
  H        -0.5124584143        8.7574837961        4.5977137942
 Ca         6.7236009994        7.1691480474        2.7887124350
 Ca        -0.2401151182       10.0316523171        9.5545954033
 Ca        -3.0985055399       10.0419301385       13.7253708254
 Ca        -1.7942285623        7.1684261317        6.9918797437
  S        -0.2279083093       10.0203072205        1.8767787732
  S         6.7281547777        7.1620091351        9.3566567039
  S        -1.7932033507        7.1804387087       14.6565684227
  S        -3.0728413765       10.0352237145        7.1764109522
  O         5.0157372134        8.9134499607        2.9144778476
  O         6.2840197296        6.0104013099       10.2066273236
  O        -1.3747961128        8.3257390202       13.6203623875
  O        -2.6330912475       11.2038533711        6.3484827271
  O         0.1873922100       11.1664864274        2.9172844125
  O         7.1673777999        8.3183975406       10.2037714900
  O         3.4339236778        6.0079710931       13.6083093088
  O        -3.5187454769        8.8997970375        6.3037245866
  O         6.4233761208        9.4520660042        0.8852049771
  O         7.8507024275        6.6434624366        8.5274390851
  O        -2.8163330722        7.7781319134       15.6255266993
  O        -4.1902104980       10.5415272846        8.0176001781
  O        -1.2264004765       10.6291525271        0.8854288061
  O         5.6025733536        7.6764865767        8.5327136061
  O         4.8557274347        6.4972610134       15.6254103338
  O        -1.9438685266        9.5023902787        7.9887451831
  O        -3.1106493469        8.5659495548        3.6724449840
  O        -4.5651034451       11.2507689254       11.0427405911
  O         6.7349882188        8.6423385974       12.8688000080
  O         8.2015543367        5.9529080148        5.5114342095
  O         5.1981274966        5.7765361090        3.6747879500
  O        -1.6048701183        8.8205378846       11.0417384802
  O        -1.5737209891       11.4138535874       12.8375989488
  O         5.2424220626        8.3858932228        5.5105650616
  H        -2.2097011886        8.7980887089        3.3097724396
  H         4.5417458419        5.8330082597       10.6734464917
  H         5.8376954780        8.3922590488       13.2305321730
  H        -0.9038871283       11.3849795507        5.8803659773
  H        -3.9378917170       11.2855620434        3.3336468773
  H        -2.4560754940        8.5073507656       10.6737534487
  H         7.6041571768        5.9341839747       13.2322743477
  H         6.0945230434        8.7023007818        5.8736109928
  H        -3.1189793965        8.8060612178        4.6175336894
  H        -4.6533201607       11.6341069729       11.9542177812
  H         6.7470509419        8.4016543223       11.9244574302
  H         8.2848071268        5.5696636121        4.6011934820
  H         5.2085623099        5.5303929437        4.6182891641
  H        -1.5270110613        8.4465404957       11.9573745100
  H        -1.5728197719       11.6512761151       11.8918559374
  H         5.1589496244        8.7691372368        4.6005964853
     192
 i =       67, E =     -2330.2443246107
 Ca         9.2970556230        1.4326671544        2.7712394338
 Ca         2.3391001076        4.2964163128        9.5577033174
 Ca        -0.5117861684        4.2989285858       13.7130801877
 Ca         0.7787796888        1.4334686541        6.9947194993
  S         2.3116441287        4.3181650863        1.8773363160
  S         9.3047683622        1.4259679118        9.3571228199
  S         0.7519685844        1.4048733102       14.6504569691
  S        -0.5080764808        4.3038969054        7.2055266515
  O         7.5914640974        3.1564780628        2.9234626290
  O         8.8586606107        0.2736745644       10.2052702924
  O         1.1806594165        2.5393685886       13.6049202886
  O        -0.0653357917        5.4574733379        6.3574157165
  O         2.7442614911        5.4460230228        2.9235248906
  O         9.7433407021        2.5824916070       10.2041609414
  O         6.0240013544        0.2780979365       13.6197307085
  O        -0.9539754540        3.1509866005        6.3581283127
  O         9.0233499044        3.6512437934        0.8860850040
  O        10.4285728361        0.9040178227        8.5298711110
  O        -0.2441693375        2.0358512212       15.6256265593
  O        -1.6303468582        4.8243650040        8.0329715822
  O         1.3129872492        4.9515846808        0.8860931314
  O         8.1800923851        1.9425546585        8.5343468807
  O         7.4712838174        0.8307417353       15.6255540884
  O         0.6167566218        3.7854292405        8.0296211285
  O        -0.5530792082        2.8037201061        3.7052758901
  O        -1.9881979806        5.5172745488       11.0419394277
  O         9.3104055157        2.9087379760       12.8691699407
  O        10.7777720811        0.2170684432        5.5159808542
  O         7.7842457448        0.0658455271        3.7021598582
  O         0.9679500381        3.0853060134       11.0415273889
  O         0.9863239910        5.6949803451       12.8193560215
  O         7.8153505830        2.6513200276        5.5148588396
  H         0.3389750670        3.0581126646        3.3355718142
  H         7.1123603785        0.0946719473       10.6739410869
  H         8.4111235700        2.6624574712       13.2294239478
  H         1.6668857834        5.6475423792        5.8822836284
  H        -1.3637894355        5.5399960891        3.3265012233
  H         0.1197180101        2.7757162772       10.6631336153
  H        10.1192530241        0.1913730726       13.2246931893
  H         8.6664498617        2.9610795914        5.8850997617
  H        -0.5622959272        3.0453313786        4.6495739639
  H        -2.0614922976        5.9158802991       11.9477727736
  H         9.3233166469        2.6648915541       11.9255987084
  H        10.8480888804       -0.1522107993        4.5990542994
  H         7.7962444942       -0.1709027022        4.6477741479
  H         1.0448561156        2.6839518738       11.9453874732
  H         0.9894503179        5.9236741809       11.8710374746
  H         7.7469327979        3.0203895958        4.5978163208
 Ca         3.6224597225        1.4359916531        2.7815836399
 Ca         8.0115759640        4.2954374443        9.5598344672
 Ca         5.1663572528        4.2992397959       13.7182433208
 Ca         6.4645784852        1.4277790580        6.9950844720
  S         8.0233348100        4.2839667751        1.8770344819
  S         3.6222578735        1.4300709378        9.3516009495
  S         6.4475046651        1.4244646330       14.6542720235
  S         5.1777365553        4.2907582012        7.1782781982
  O         1.8964610489        3.1715696207        2.9173533202
  O         3.1733983135        0.2789805150       10.2004077684
  O         6.8591796952        2.5507634727       13.5977602206
  O         5.6039002970        5.4342168164        6.3048619057
  O         8.4391038675        5.4307587282        2.9170317467
  O         4.0628558809        2.5829675369       10.2027721132
  O         0.3224670867        0.2741117019       13.6066119232
  O         4.7221333461        3.1298485106        6.3490104725
  O         3.3096192574        3.7096599839        0.8854304742
  O         4.7470520420        0.9058553662        8.5275393754
  O         5.4352314341        2.0391117711       15.6255331211
  O         4.0661812351        4.8127165318        8.0179478614
  O         7.0265222050        4.8926604875        0.8854076248
  O         2.4994038727        1.9519692333        8.5265883720
  O         1.7492468530        0.7606942307       15.6253488017
  O         6.3158291685        3.7815543759        7.9930482733
  O         5.1385205170        2.8249160412        3.6860252076
  O         3.6918473865        5.5180037197       11.0421517022
  O         3.6295674278        2.9064889812       12.8695175316
  O         5.0987034016        0.2183272791        5.5118746699
  O         2.1051218500        0.0676929603        3.7002165828
  O         6.6442759725        3.0845919553       11.0411192435
  O         6.7038599331        5.6937815596       12.8702757432
  O         2.1342226664        2.6510476557        5.5129146257
  H         6.0386616712        3.0633717952        3.3244538068
  H         1.4318158087        0.0977656656       10.6742581858
  H         2.7316467735        2.6596632165       13.2318979015
  H         7.3488872663        5.6383929346        5.8751632898
  H         4.2984177799        5.5402975824        3.3112976866
  H         5.7958497719        2.7731684590       10.6648554248
  H         4.4704834615        0.1801312509       13.2100483015
  H         2.9894490309        2.9558330167        5.8785672301
  H         5.1337385051        3.0432675583        4.6361471809
  H         3.6055333228        5.8999302608       11.9543364552
  H         3.6417813382        2.6600880595       11.9268523679
  H         5.1776934688       -0.1681401383        4.6028363028
  H         2.1144728507       -0.1671119193        4.6467983643
  H         6.7216233995        2.6862778737       11.9471157597
  H         6.7010027287        5.9210978330       11.9222950484
  H         2.0548247787        3.0313454932        4.6012938984
 Ca         1.0477205398        7.1705651027        2.7791762720
 Ca         5.4414361010       10.0291115484        9.5530228035
 Ca         2.5828281063       10.0178233774       13.7361278456
 Ca         3.8894473628        7.1627663789        6.9890937051
  S         5.4274612929       10.0606097258        1.8760097575
  S         1.0498075435        7.1672064201        9.3508146730
  S         3.8596145559        7.1392261439       14.6509601888
  S         2.6055960957       10.0322291497        7.1783909048
  O        -0.6590624235        8.8922822452        2.9230389392
  O         0.6009574650        6.0154722662       10.1983696283
  O         4.2863094221        8.2741684394       13.6049579861
  O         3.0459294426       11.2004512236        6.3496532045
  O         5.8555163310       11.1865247513        2.9251730824
  O         1.4897408574        8.3193023644       10.2029903996
  O        -2.2025585915        6.0518885029       13.6008734498
  O         2.1608657046        8.8982292416        6.3043452008
  O         0.7707008590        9.3874512970        0.8860413646
  O         2.1741312739        6.6439254064        8.5256396070
  O         2.8618171736        7.7723051114       15.6255636273
  O         1.4880856270       10.5408852316        8.0184655055
  O         4.4238411168       10.6900207225        0.8861231391
  O        -0.0733638735        7.6882301455        8.5266740170
  O        -0.7768723142        6.5728911769       15.6256425186
  O         3.7324574248        9.4986318256        7.9931690123
  O         2.5700799470        8.5659311141        3.6727641706
  O         1.1142892639       11.2523898211       11.0433926454
  O         1.0589676177        8.6420414209       12.8650099492
  O         2.5213093274        5.9521437361        5.5146045550
  O        -0.4674410998        5.7827930026        3.6946814575
  O         4.0737132113        8.8221914944       11.0420212550
  O         4.0656925438       11.4403331435       12.8664153866
  O        -0.4375614931        8.3855649984        5.5132806844
  H         3.4690056795        8.8046070572        3.3083995569
  H        -1.1432507388        5.8297512288       10.6599363176
  H         0.1548259928        8.4128590959       13.2285898666
  H         4.7735611805       11.3865887298        5.8819201705
  H         1.7443497265       11.2803727859        3.3345138392
  H         3.2234623523        8.5150669780       10.6660443080
  H         1.8845637032        5.9259198133       13.1906283762
  H         0.4171976359        8.6945434500        5.8759485997
  H         2.5617032669        8.8053782756        4.6177011245
  H         1.0367389436       11.6287129835       11.9588736049
  H         1.0683057858        8.3985560079       11.9216227611
  H         2.5939820512        5.5764557911        4.6004082845
  H        -0.4649687914        5.5512651202        4.6412928218
  H         4.1497921996        8.4222391105       11.9468022418
  H         4.0760219062       11.6472371197       11.9128840695
  H        -0.5121913955        8.7572982478        4.5977278550
 Ca         6.7242547421        7.1691165311        2.7890792602
 Ca        -0.2398249743       10.0314571801        9.5547531365
 Ca        -3.0984077930       10.0423505838       13.7245002415
 Ca        -1.7938460019        7.1679301002        6.9919675154
  S        -0.2274619024       10.0204933403        1.8767916810
  S         6.7286189984        7.1618522726        9.3566287818
  S        -1.7934031205        7.1805184056       14.6566212162
  S        -3.0728232763       10.0352477489        7.1764890188
  O         5.0160917361        8.9136069709        2.9143783344
  O         6.2844298578        6.0103309188       10.2066272908
  O        -1.3748227983        8.3258053890       13.6203611627
  O        -2.6333211619       11.2036684698        6.3477555609
  O         0.1878102787       11.1667040978        2.9173519985
  O         7.1675977114        8.3183337970       10.2037914650
  O         3.4330089375        6.0076637694       13.6080279087
  O        -3.5186941827        8.8998706828        6.3038783150
  O         6.4238884446        9.4523941935        0.8852406689
  O         7.8512916454        6.6432716760        8.5274489063
  O        -2.8164852087        7.7783092990       15.6255715852
  O        -4.1900377430       10.5416997548        8.0178506164
  O        -1.2262727451       10.6292335417        0.8854593750
  O         5.6030154714        7.6763114402        8.5327328241
  O         4.8556830379        6.4966516191       15.6254332152
  O        -1.9439630954        9.5024432144        7.9889096938
  O        -3.1101087262        8.5663938282        3.6720499569
  O        -4.5650208872       11.2506672106       11.0427312644
  O         6.7350068980        8.6423773386       12.8687853015
  O         8.2015290049        5.9528439132        5.5115322316
  O         5.1979985393        5.7761119337        3.6742617885
  O        -1.6049871404        8.8204237464       11.0416951914
  O        -1.5734942766       11.4144202583       12.8365955274
  O         5.2423229327        8.3855942427        5.5103623154
  H        -2.2089435365        8.7983756092        3.3097038697
  H         4.5419318555        5.8334655226       10.6737579513
  H         5.8378333652        8.3921887702       13.2306534303
  H        -0.9035243783       11.3843430177        5.8798797782
  H        -3.9368548995       11.2881558809        3.3345672353
  H        -2.4560731648        8.5069485998       10.6736540710
  H         7.6041117231        5.9344744267       13.2320762916
  H         6.0944321445        8.7018560627        5.8734611012
  H        -3.1185500435        8.8066562169        4.6171247947
  H        -4.6538632064       11.6343878173       11.9541248408
  H         6.7468910780        8.4013880438       11.9245169215
  H         8.2851873937        5.5692138367        4.6014682861
  H         5.2086353662        5.5290133940        4.6175183449
  H        -1.5272515604        8.4462237894       11.9572910013
  H        -1.5722496949       11.6509802763       11.8905674738
  H         5.1590340304        8.7693021552        4.6004658552
     192
 i =       68, E =     -2330.2443129196
 Ca         9.2963687876        1.4312555662        2.7676333620
 Ca         2.3427752433        4.2943813643        9.5583442669
 Ca        -0.5180385530        4.2961181591       13.7153483985
 Ca         0.7834145927        1.4290873310        6.9950947061
  S         2.3090416251        4.3163058206        1.8783275860
  S         9.3063266440        1.4258090388        9.3578257841
  S         0.7508586501        1.4035538066       14.6496185550
  S        -0.5010858771        4.2937877073        7.2107121853
  O         7.5918864278        3.1578744291        2.9232626929
  O         8.8606101509        0.2730772986       10.2054190014
  O         1.1803703224        2.5383740996       13.6050935410
  O        -0.0606457979        5.4478041820        6.3627654699
  O         2.7437186547        5.4450027429        2.9230217784
  O         9.7443153073        2.5827201082       10.2045532646
  O         6.0238400913        0.2775481511       13.6200435556
  O        -0.9517715760        3.1445968607        6.3572232231
  O         9.0258582331        3.6523960898        0.8862199375
  O        10.4296644414        0.9043690861        8.5294893078
  O        -0.2446135113        2.0348838081       15.6257512239
  O        -1.6247538223        4.8134005882        8.0366125051
  O         1.3114294469        4.9502652517        0.8862290948
  O         8.1813954224        1.9427356356        8.5349227381
  O         7.4706683020        0.8297119774       15.6257443176
  O         0.6221298469        3.7678850462        8.0373391069
  O        -0.5575180242        2.7970350931        3.7101652655
  O        -1.9869928402        5.5179984966       11.0420329203
  O         9.3078637697        2.9070788904       12.8697196886
  O        10.7787783341        0.2160569332        5.5163609695
  O         7.7847407330        0.0682542404        3.7036261597
  O         0.9691047356        3.0864611624       11.0419584089
  O         0.9559707478        5.7057732800       12.8157516453
  O         7.8158828358        2.6529589198        5.5155272757
  H         0.3345455766        3.0485113029        3.3430784938
  H         7.1129516186        0.0929365101       10.6734741541
  H         8.4084295908        2.6599167308       13.2295088104
  H         1.6692298130        5.6482747333        5.8850242209
  H        -1.3547429302        5.5409377299        3.3365452104
  H         0.1210928739        2.7767618662       10.6630338119
  H        10.1099602034        0.1859864200       13.2305629683
  H         8.6652780022        2.9653799314        5.8871425065
  H        -0.5740185323        3.0394509724        4.6548273233
  H        -2.0593558304        5.9179395385       11.9474785657
  H         9.3219815090        2.6609914768       11.9266632777
  H        10.8500280695       -0.1484464002        4.5973935974
  H         7.8018220184       -0.1694044954        4.6490616867
  H         1.0457559925        2.6836159230       11.9451115144
  H         0.9743729069        5.9202226388       11.8640688888
  H         7.7499842482        3.0184038021        4.5965019368
 Ca         3.6253588800        1.4380067950        2.7783430609
 Ca         8.0157769109        4.2940083119        9.5629305517
 Ca         5.1664236413        4.2995370675       13.7173147995
 Ca         6.4669507880        1.4278155239        6.9969176114
  S         8.0266000810        4.2855957692        1.8783813719
  S         3.6273465714        1.4267774938        9.3531833772
  S         6.4468034285        1.4235720513       14.6541856527
  S         5.1813138131        4.2967709517        7.1838797884
  O         1.8939061255        3.1700585730        2.9179418265
  O         3.1765302956        0.2761498765       10.2011767804
  O         6.8588014358        2.5504166052       13.5979460881
  O         5.6043051470        5.4367116075        6.3046702268
  O         8.4460845546        5.4327222915        2.9191020738
  O         4.0653447729        2.5821287351       10.2029557761
  O         0.3203822123        0.2733468209       13.6052472361
  O         4.7300264017        3.1336975198        6.3582259746
  O         3.3084208473        3.7077389379        0.8855884585
  O         4.7530988470        0.9025290960        8.5294959226
  O         5.4350543117        2.0388720215       15.6257340726
  O         4.0645136099        4.8169258003        8.0178726081
  O         7.0295307848        4.8947973367        0.8856372210
  O         2.5047188849        1.9463669471        8.5295585032
  O         1.7481291958        0.7596292416       15.6254786877
  O         6.3197889194        3.8011921546        8.0061464292
  O         5.1382266755        2.8202208546        3.6943014259
  O         3.6926096071        5.5186704531       11.0422775287
  O         3.6293254882        2.9068237293       12.8684424530
  O         5.1000170407        0.2188012137        5.5116867186
  O         2.1077719113        0.0752344791        3.7020882201
  O         6.6446660711        3.0847272494       11.0415738952
  O         6.7036883167        5.6938842122       12.8698934923
  O         2.1361254623        2.6517117765        5.5144400943
  H         6.0373498492        3.0651278830        3.3350977805
  H         1.4318052304        0.1002554685       10.6760611335
  H         2.7322561660        2.6565090592       13.2302563637
  H         7.3490084803        5.6381317079        5.8756173143
  H         4.2975626390        5.5389883036        3.3083133218
  H         5.7966221400        2.7725763230       10.6649898150
  H         4.4717910465        0.1820217908       13.2058345937
  H         2.9900806446        2.9593953509        5.8797384172
  H         5.1340702919        3.0298388705        4.6469201497
  H         3.6040786495        5.9007374638       11.9545049945
  H         3.6443171457        2.6580391828       11.9262818951
  H         5.1819147649       -0.1660294917        4.6021400964
  H         2.1218571551       -0.1614487857        4.6480063976
  H         6.7211847665        2.6863387393       11.9478932333
  H         6.7018429876        5.9184244020       11.9210420931
  H         2.0567228730        3.0280824164        4.6007526083
 Ca         1.0519488802        7.1700429115        2.7796114936
 Ca         5.4422256466       10.0287094760        9.5531069997
 Ca         2.5751492562       10.0057402386       13.7536345448
 Ca         3.8904851699        7.1625732489        6.9891451302
  S         5.4302820810       10.0622647978        1.8760124701
  S         1.0499782415        7.1675880077        9.3498029452
  S         3.8588346522        7.1357309002       14.6490969827
  S         2.6057988640       10.0314607855        7.1781678256
  O        -0.6571479947        8.8925187132        2.9230009966
  O         0.6006049750        6.0153277018       10.1964465035
  O         4.2860372660        8.2713943955       13.6054953911
  O         3.0459305662       11.1994253728        6.3483600469
  O         5.8566553859       11.1873996116        2.9247768098
  O         1.4896056425        8.3192631671       10.2025858711
  O        -2.2031005185        6.0525890788       13.6006347455
  O         2.1608277719        8.8977510987        6.3040727987
  O         0.7727171347        9.3888189449        0.8861717499
  O         2.1738281629        6.6439974131        8.5247705065
  O         2.8624547390        7.7711714229       15.6256750840
  O         1.4888461844       10.5412798727        8.0176116481
  O         4.4251292637       10.6907168740        0.8862961021
  O        -0.0735487795        7.6895204964        8.5254279311
  O        -0.7776897275        6.5729641582       15.6258658513
  O         3.7328118023        9.4985414929        7.9927074419
  O         2.5734588701        8.5673858858        3.6720865902
  O         1.1144370748       11.2525052017       11.0431373543
  O         1.0556443780        8.6400898063       12.8650074123
  O         2.5221292772        5.9534268974        5.5141598282
  O        -0.4578191326        5.7829214659        3.7024137976
  O         4.0742314775        8.8222423744       11.0417605757
  O         4.0572601158       11.4316476381       12.8745844451
  O        -0.4376626664        8.3850702170        5.5134038076
  H         3.4732847980        8.8059160301        3.3083071698
  H        -1.1425418557        5.8303487243       10.6590345488
  H         0.1501366017        8.4104566545       13.2264511707
  H         4.7746578186       11.3833362153        5.8803005931
  H         1.7440086671       11.2830567979        3.3383248693
  H         3.2236366357        8.5158967395       10.6661136609
  H         1.8582086567        5.9233417516       13.1871206140
  H         0.4174499883        8.6924031806        5.8766158132
  H         2.5644794378        8.8078588585        4.6167812509
  H         1.0405429235       11.6266597338       11.9598027992
  H         1.0671207265        8.3983868949       11.9210916426
  H         2.5934957530        5.5748642690        4.6010780077
  H        -0.4530721013        5.5553914859        4.6502776625
  H         4.1496985979        8.4235953906       11.9468723120
  H         4.0659433369       11.6358322409       11.9206142044
  H        -0.5108278787        8.7561025423        4.5975566715
 Ca         6.7271063093        7.1681074072        2.7910791210
 Ca        -0.2384535064       10.0303552427        9.5553864713
 Ca        -3.0979659114       10.0442242827       13.7205703065
 Ca        -1.7919908458        7.1653847022        6.9926993257
  S        -0.2253943486       10.0211785552        1.8767170823
  S         6.7309580389        7.1612479415        9.3565178122
  S        -1.7943991993        7.1807697467       14.6568028998
  S        -3.0724599686       10.0350582229        7.1770335315
  O         5.0181001387        8.9145636554        2.9138645429
  O         6.2864356228        6.0098677341       10.2062040920
  O        -1.3750326129        8.3261370952       13.6203283190
  O        -2.6341921079       11.2029408522        6.3450184772
  O         0.1891511967       11.1676685446        2.9176156620
  O         7.1687129206        8.3182837878       10.2038236556
  O         3.4275844612        6.0058326150       13.6060315929
  O        -3.5181713841        8.9004802759        6.3040251791
  O         6.4267017565        9.4543933464        0.8853757205
  O         7.8542145865        6.6424377423        8.5275179190
  O        -2.8171742515        7.7790646950       15.6257151226
  O        -4.1893820726       10.5420408664        8.0187114343
  O        -1.2257806664       10.6294078433        0.8855856952
  O         5.6052692436        7.6755866842        8.5327490520
  O         4.8548877490        6.4936696052       15.6254548399
  O        -1.9442181423        9.5021691605        7.9897799005
  O        -3.1071504846        8.5683255211        3.6704514016
  O        -4.5647600528       11.2506876030       11.0426951665
  O         6.7351891515        8.6425772994       12.8687040949
  O         8.2016947545        5.9526104074        5.5118409420
  O         5.1972293276        5.7743129887        3.6713564718
  O        -1.6054640421        8.8196849007       11.0415264880
  O        -1.5721551911       11.4177034388       12.8321470494
  O         5.2417801253        8.3851379472        5.5091599041
  H        -2.2050933799        8.7996835832        3.3091038193
  H         4.5427387884        5.8357782764       10.6751785243
  H         5.8386041664        8.3919689352       13.2312765323
  H        -0.9019207111       11.3811422333        5.8778243551
  H        -3.9344505832       11.3003996367        3.3381073911
  H        -2.4559786833        8.5051248631       10.6729440979
  H         7.6038032913        5.9359318620       13.2311798935
  H         6.0941899246        8.6995173638        5.8727881018
  H        -3.1163396636        8.8095120930        4.6153713094
  H        -4.6569090939       11.6355187816       11.9537235366
  H         6.7461073733        8.4000410316       11.9248069681
  H         8.2872360702        5.5668961300        4.6026626718
  H         5.2088041162        5.5221023480        4.6132591026
  H        -1.5283426268        8.4447492275       11.9569346750
  H        -1.5692732901       11.6495950586       11.8846293454
  H         5.1593207234        8.7697975611        4.5994125445
     192
 i =       69, E =     -2330.2443761415
 Ca         9.2968187258        1.4324842834        2.7707361031
 Ca         2.3398810867        4.2958861473        9.5574779191
 Ca        -0.5139417945        4.2980897801       13.7138702575
 Ca         0.7801442566        1.4321371209        6.9949877610
  S         2.3111319815        4.3177239073        1.8774940347
  S         9.3051008129        1.4260241898        9.3572210240
  S         0.7517353020        1.4045181737       14.6501949346
  S        -0.5071568711        4.3009618507        7.2056614615
  O         7.5916014038        3.1566476830        2.9234355260
  O         8.8590280508        0.2736166045       10.2051995498
  O         1.1805599055        2.5391238921       13.6049385586
  O        -0.0650662791        5.4540329255        6.3566282835
  O         2.7440812593        5.4457918736        2.9234188425
  O         9.7435917875        2.5825966971       10.2042484111
  O         6.0240784021        0.2779276583       13.6198410852
  O        -0.9534712435        3.1481130204        6.3574263597
  O         9.0240655930        3.6516770406        0.8860715887
  O        10.4287491605        0.9040927889        8.5297396547
  O        -0.2443052160        2.0354770217       15.6256180934
  O        -1.6299024835        4.8217381188        8.0323325313
  O         1.3126445926        4.9511248029        0.8860691889
  O         8.1803829253        1.9427948884        8.5343134565
  O         7.4711345618        0.8304548912       15.6255581660
  O         0.6170710414        3.7812465482        8.0312764327
  O        -0.5539127361        2.8039251923        3.7053901757
  O        -1.9877292464        5.5175786304       11.0419163188
  O         9.3095050597        2.9081119788       12.8692661948
  O        10.7780842199        0.2167516500        5.5159220550
  O         7.7838968801        0.0654621877        3.7019434441
  O         0.9683313193        3.0856797052       11.0416535188
  O         0.9777548653        5.6972490355       12.8182415709
  O         7.8154335177        2.6517853436        5.5149731289
  H         0.3388254454        3.0560153279        3.3370808412
  H         7.1124741040        0.0942657252       10.6736850408
  H         8.4101815658        2.6615801302       13.2294850092
  H         1.6675334578        5.6477259820        5.8828541863
  H        -1.3620170629        5.5396592040        3.3290796149
  H         0.1201928336        2.7760401796       10.6630359732
  H        10.1172087867        0.1902074519       13.2261217791
  H         8.6662718841        2.9620741283        5.8853818260
  H        -0.5649651616        3.0444907436        4.6500824970
  H        -2.0608324121        5.9165891889       11.9476296957
  H         9.3227907075        2.6636454920       11.9258370558
  H        10.8487389557       -0.1513165289        4.5984543097
  H         7.7970087263       -0.1716951131        4.6474414694
  H         1.0451962702        2.6838757300       11.9452911767
  H         0.9844541548        5.9223694891       11.8690354268
  H         7.7475426472        3.0199372567        4.5973875288
 Ca         3.6228947136        1.4362472154        2.7809513736
 Ca         8.0126642136        4.2951193911        9.5605914514
 Ca         5.1664138358        4.2993195208       13.7180004877
 Ca         6.4651994963        1.4277870596        6.9955307550
  S         8.0240569522        4.2841584633        1.8772538015
  S         3.6235196508        1.4292791382        9.3522843957
  S         6.4473293275        1.4242302850       14.6542466051
  S         5.1788871813        4.2929481648        7.1793454463
  O         1.8965355307        3.1711954778        2.9175243905
  O         3.1744641847        0.2781197345       10.2007299301
  O         6.8591054935        2.5506926302       13.5977975652
  O         5.6042157238        5.4356904887        6.3047420535
  O         8.4400261721        5.4310744956        2.9177790133
  O         4.0635718707        2.5829203521       10.2028948513
  O         0.3220051598        0.2738815764       13.6062030109
  O         4.7248145644        3.1315332544        6.3504826615
  O         3.3095601883        3.7092533840        0.8854202784
  O         4.7485040397        0.9052830717        8.5281148995
  O         5.4351557334        2.0391050367       15.6255319551
  O         4.0658218945        4.8140390475        8.0177622141
  O         7.0270928146        4.8930125899        0.8854056613
  O         2.5004475349        1.9504747223        8.5280248443
  O         1.7490176456        0.7604201567       15.6253367698
  O         6.3173540305        3.7874677059        7.9958598619
  O         5.1383843536        2.8234835081        3.6880374818
  O         3.6919204372        5.5181317080       11.0421751097
  O         3.6295487115        2.9066301999       12.8691245223
  O         5.0990797498        0.2184424656        5.5117634808
  O         2.1053080062        0.0680497827        3.6994570156
  O         6.6444207009        3.0846649261       11.0412408652
  O         6.7037608699        5.6938255569       12.8700479882
  O         2.1348469238        2.6512035437        5.5131909661
  H         6.0381995213        3.0637980673        3.3271186010
  H         1.4318325678        0.0985984274       10.6748258363
  H         2.7319380709        2.6586536468       13.2313749645
  H         7.3490428407        5.6384931567        5.8750710406
  H         4.2980101929        5.5398401135        3.3103103266
  H         5.7961442194        2.7729857408       10.6648329918
  H         4.4711391547        0.1807651897       13.2093068867
  H         2.9896646736        2.9572378520        5.8785612683
  H         5.1337929412        3.0398750062        4.6387792994
  H         3.6049279334        5.8999682265       11.9544484020
  H         3.6424546459        2.6599462484       11.9264837247
  H         5.1790223218       -0.1674325340        4.6025207202
  H         2.1159169669       -0.1667168464        4.6459628454
  H         6.7215468036        2.6862951512       11.9472988138
  H         6.7011428324        5.9203725356       11.9218199272
  H         2.0553054676        3.0305688828        4.6010254003
 Ca         1.0486669884        7.1703169216        2.7793652994
 Ca         5.4415794891       10.0290967140        9.5530996680
 Ca         2.5811896552       10.0146709273       13.7404101446
 Ca         3.8896878623        7.1629160162        6.9890846126
  S         5.4283007868       10.0611209151        1.8758810154
  S         1.0498317670        7.1672639582        9.3504262859
  S         3.8593082372        7.1381090407       14.6502626501
  S         2.6056873031       10.0321471901        7.1782469618
  O        -0.6585087068        8.8922331676        2.9230697946
  O         0.6008898275        6.0153036255       10.1976746592
  O         4.2861990848        8.2732303645       13.6050257216
  O         3.0458939034       11.2002766152        6.3491708020
  O         5.8555626387       11.1867957407        2.9251472824
  O         1.4896463983        8.3192371966       10.2027605505
  O        -2.2028682488        6.0521508885       13.6007515253
  O         2.1608384911        8.8981475054        6.3042879207
  O         0.7712773520        9.3878500122        0.8860170805
  O         2.1740362011        6.6439072961        8.5252866742
  O         2.8619553390        7.7718892110       15.6255468008
  O         1.4882576367       10.5410660356        8.0181106361
  O         4.4242127697       10.6902105923        0.8861125411
  O        -0.0735008047        7.6884435019        8.5261814336
  O        -0.7771590790        6.5728744372       15.6256448011
  O         3.7327287319        9.4988109471        7.9928103063
  O         2.5709399953        8.5661471313        3.6727269126
  O         1.1143223505       11.2525090399       11.0432884540
  O         1.0580344117        8.6416042733       12.8650760653
  O         2.5215716895        5.9525350273        5.5144846017
  O        -0.4655510000        5.7822593642        3.6963850685
  O         4.0738440640        8.8221484267       11.0419205589
  O         4.0639269252       11.4387298586       12.8680890687
  O        -0.4375478556        8.3854841249        5.5133426935
  H         3.4700119756        8.8049852489        3.3083179655
  H        -1.1428845420        5.8301250164       10.6597805843
  H         0.1534648674        8.4121714346       13.2279658131
  H         4.7738419323       11.3856419693        5.8812198025
  H         1.7435131624       11.2804564062        3.3349447489
  H         3.2235427681        8.5152300808       10.6659633735
  H         1.8763281641        5.9255002087       13.1899786450
  H         0.4173436815        8.6939141946        5.8761767213
  H         2.5625309054        8.8060963712        4.6175413146
  H         1.0379103661       11.6281476214       11.9591273088
  H         1.0678630896        8.3984131210       11.9215971497
  H         2.5940048125        5.5761260796        4.6005838928
  H        -0.4615945762        5.5518425244        4.6433639366
  H         4.1497694158        8.4225094851       11.9467321049
  H         4.0732352106       11.6444628751       11.9144561730
  H        -0.5117046630        8.7568890281        4.5976464467
 Ca         6.7250767035        7.1686991056        2.7897852949
 Ca        -0.2394701369       10.0311911195        9.5549551450
 Ca        -3.0982997033       10.0427958864       13.7234621490
 Ca        -1.7933647998        7.1671340256        6.9920081688
  S        -0.2270650886       10.0204962708        1.8766342973
  S         6.7291912984        7.1618564379        9.3565602828
  S        -1.7937453261        7.1805921459       14.6566375474
  S        -3.0726518183       10.0352247116        7.1766746538
  O         5.0166962381        8.9139353629        2.9141847091
  O         6.2849038817        6.0103385710       10.2064270863
  O        -1.3748844172        8.3259460210       13.6203306987
  O        -2.6335841249       11.2034739190        6.3469055721
  O         0.1876398706       11.1668516340        2.9173540803
  O         7.1679026207        8.3184175187       10.2038335882
  O         3.4311947720        6.0070214313       13.6072341267
  O        -3.5185077131        8.9000823826        6.3039595625
  O         6.4248994358        9.4531659450        0.8852422635
  O         7.8520510649        6.6431800264        8.5274718096
  O        -2.8166912274        7.7786424853       15.6255669113
  O        -4.1898538634       10.5417814894        8.0180842854
  O        -1.2263132206       10.6290192315        0.8854316593
  O         5.6036409983        7.6763952690        8.5325767648
  O         4.8556256904        6.4960830521       15.6253901225
  O        -1.9440413807        9.5023242472        7.9892401452
  O        -3.1092898788        8.5664983528        3.6717742795
  O        -4.5649295151       11.2507437962       11.0427182198
  O         6.7350413878        8.6423901183       12.8687093695
  O         8.2017235555        5.9528008959        5.5114092611
  O         5.1975585618        5.7756316533        3.6734283219
  O        -1.6051269028        8.8201798899       11.0416587920
  O        -1.5730101765       11.4158513445       12.8358082747
  O         5.2421495992        8.3855302476        5.5099138069
  H        -2.2079878250        8.7986680636        3.3095551021
  H         4.5419850770        5.8341853127       10.6741746491
  H         5.8380279737        8.3921673952       13.2307909224
  H        -0.9030520790       11.3832235364        5.8791374487
  H        -3.9374062145       11.2911367149        3.3349272783
  H        -2.4560049318        8.5063683617       10.6733708205
  H         7.6039383169        5.9350106482       13.2317409453
  H         6.0943902818        8.7011087320        5.8731663972
  H        -3.1178572244        8.8074233306        4.6166969316
  H        -4.6548053898       11.6347389742       11.9540021619
  H         6.7466164575        8.4010227887       11.9245215750
  H         8.2858822406        5.5684967606        4.6016189700
  H         5.2085079101        5.5270201987        4.6162607404
  H        -1.5275926655        8.4457090781       11.9571969288
  H        -1.5712940088       11.6508684398       11.8893466029
  H         5.1591231971        8.7694312855        4.6000221274
     192
 i =       70, E =     -2330.2444107171
 Ca         9.2967349059        1.4324454837        2.7706709209
 Ca         2.3403249182        4.2956442930        9.5574915919
 Ca        -0.5150405346        4.2977931487       13.7143701820
 Ca         0.7807889370        1.4314913768        6.9951441087
  S         2.3109008788        4.3174751637        1.8775727223
  S         9.3052349164        1.4259259154        9.3573018572
  S         0.7516452632        1.4043383982       14.6500510798
  S        -0.5063467440        4.2995541203        7.2063758757
  O         7.5916996684        3.1566960985        2.9234897204
  O         8.8591663276        0.2735710364       10.2053358323
  O         1.1804710800        2.5390449370       13.6049323274
  O        -0.0643383140        5.4527116984        6.3574318741
  O         2.7438987626        5.4456349225        2.9234273657
  O         9.7436485274        2.5825264912       10.2043480748
  O         6.0241857618        0.2777620933       13.6198953691
  O        -0.9529932741        3.1473344710        6.3572665574
  O         9.0243695164        3.6518125237        0.8860762796
  O        10.4288388541        0.9040154730        8.5297638619
  O        -0.2443424946        2.0352098597       15.6256171214
  O        -1.6294179383        4.8200675450        8.0326029481
  O         1.3124643858        4.9508411963        0.8860785056
  O         8.1804161947        1.9427837721        8.5344607119
  O         7.4711222724        0.8303368216       15.6255710498
  O         0.6172786838        3.7782069248        8.0325578775
  O        -0.5539498140        2.8037576967        3.7056598261
  O        -1.9874393138        5.5179095277       11.0419425981
  O         9.3089649239        2.9077525046       12.8692968201
  O        10.7782602318        0.2167339574        5.5158917522
  O         7.7838757287        0.0653402384        3.7019706277
  O         0.9684985533        3.0857601101       11.0417262633
  O         0.9717725446        5.6990712074       12.8165867386
  O         7.8155308609        2.6519377108        5.5150849891
  H         0.3389481610        3.0555224377        3.3380515199
  H         7.1126179892        0.0940768202       10.6735298596
  H         8.4095917220        2.6611117507       13.2295101715
  H         1.6678446153        5.6476298624        5.8833037005
  H        -1.3611572373        5.5392098613        3.3307963185
  H         0.1204224081        2.7762133921       10.6628912930
  H        10.1161393996        0.1895097250       13.2265007799
  H         8.6661964953        2.9624972082        5.8856616529
  H        -0.5658279820        3.0440752226        4.6505044278
  H        -2.0603987429        5.9169958500       11.9476035701
  H         9.3225667651        2.6628433875       11.9259729061
  H        10.8488851008       -0.1510944248        4.5982506399
  H         7.7973623748       -0.1720547666        4.6474202361
  H         1.0452740244        2.6838540440       11.9452668054
  H         0.9812174743        5.9219389405       11.8668740504
  H         7.7478790872        3.0198261322        4.5972868811
 Ca         3.6229615693        1.4360612732        2.7807316221
 Ca         8.0131574128        4.2950357151        9.5611316462
 Ca         5.1661859050        4.2993266693       13.7179308767
 Ca         6.4654904564        1.4279404562        6.9956565324
  S         8.0243192553        4.2841793092        1.8772989776
  S         3.6241661007        1.4288716071        9.3527523791
  S         6.4472886022        1.4240390847       14.6542271949
  S         5.1794499671        4.2943278758        7.1798552014
  O         1.8966149123        3.1709966163        2.9176507941
  O         3.1750036019        0.2776825939       10.2010221715
  O         6.8590306666        2.5505508777       13.5977224682
  O         5.6040726432        5.4365963209        6.3043747355
  O         8.4405077695        5.4313530050        2.9176988001
  O         4.0639174046        2.5828442622       10.2031266513
  O         0.3218045141        0.2737498252       13.6060376139
  O         4.7260633322        3.1321882426        6.3516661483
  O         3.3095678383        3.7091308186        0.8854258242
  O         4.7491080220        0.9051147550        8.5283390701
  O         5.4351570464        2.0389670756       15.6255340717
  O         4.0656298305        4.8146045807        8.0177916750
  O         7.0272001792        4.8930070702        0.8854197153
  O         2.5009891375        1.9495718445        8.5288283481
  O         1.7489305695        0.7602819763       15.6253318607
  O         6.3180732268        3.7916741474        7.9977505919
  O         5.1382593935        2.8228167758        3.6891557234
  O         3.6919813668        5.5182522223       11.0421795302
  O         3.6295989960        2.9067115729       12.8690236504
  O         5.0992438068        0.2185744915        5.5117911889
  O         2.1053341959        0.0683960095        3.6993984438
  O         6.6445064329        3.0846576418       11.0413421334
  O         6.7036965506        5.6938933109       12.8699268583
  O         2.1351158736        2.6513368924        5.5132728324
  H         6.0378642569        3.0638899159        3.3283042074
  H         1.4318273033        0.0990412794       10.6750688299
  H         2.7321404033        2.6581910715       13.2311940687
  H         7.3491734613        5.6385302664        5.8750808985
  H         4.2977667985        5.5395368594        3.3098596117
  H         5.7963270813        2.7729394644       10.6647450498
  H         4.4714482071        0.1811231973       13.2087752456
  H         2.9896790698        2.9579447444        5.8786707370
  H         5.1337643217        3.0381596436        4.6402079078
  H         3.6045331713        5.8999821496       11.9545101076
  H         3.6428613841        2.6596853407       11.9264647987
  H         5.1794775966       -0.1671873134        4.6024736651
  H         2.1164225287       -0.1665930251        4.6458313817
  H         6.7214970904        2.6862345969       11.9473808814
  H         6.7011380379        5.9200083402       11.9215747249
  H         2.0556603998        3.0303199604        4.6008943561
 Ca         1.0489253030        7.1701913947        2.7795333218
 Ca         5.4416746014       10.0290978184        9.5531419401
 Ca         2.5803741037       10.0130209457       13.7426673748
 Ca         3.8898532297        7.1629862598        6.9889630104
  S         5.4287848807       10.0614455255        1.8758076290
  S         1.0498927985        7.1672599668        9.3502284323
  S         3.8587482212        7.1374614948       14.6498329274
  S         2.6057509674       10.0321043782        7.1782263331
  O        -0.6582687090        8.8922277589        2.9230797424
  O         0.6009168096        6.0152571964       10.1974288584
  O         4.2861545016        8.2726809928       13.6051955100
  O         3.0458734853       11.2002245395        6.3490553390
  O         5.8555456790       11.1869931281        2.9252510766
  O         1.4896256476        8.3191089451       10.2027375530
  O        -2.2030818720        6.0522845195       13.6007330171
  O         2.1608383316        8.8980942474        6.3043190362
  O         0.7716322421        9.3880678603        0.8860269037
  O         2.1740593505        6.6438929847        8.5251128268
  O         2.8617394617        7.7717639936       15.6255399107
  O         1.4883344927       10.5410122873        8.0180739744
  O         4.4244058429       10.6902887235        0.8861206820
  O        -0.0735602167        7.6885139462        8.5260439343
  O        -0.7773331205        6.5728731989       15.6256544500
  O         3.7328778239        9.4988344766        7.9926774574
  O         2.5713329814        8.5662946925        3.6727135920
  O         1.1143996612       11.2526903660       11.0432805840
  O         1.0576404969        8.6414326306       12.8651152583
  O         2.5215950800        5.9526514629        5.5144806798
  O        -0.4646424064        5.7821824360        3.6972735192
  O         4.0738941581        8.8221937253       11.0418841778
  O         4.0628002297       11.4379677385       12.8690690705
  O        -0.4375110300        8.3853739461        5.5134395511
  H         3.4704596151        8.8051755100        3.3082442921
  H        -1.1426611967        5.8303743691       10.6596114353
  H         0.1528425010        8.4117997544       13.2276412457
  H         4.7740815456       11.3852382451        5.8810043599
  H         1.7432940117       11.2804555842        3.3352608494
  H         3.2235824917        8.5152883739       10.6659624661
  H         1.8705439059        5.9254305415       13.1888751905
  H         0.4174268302        8.6936714514        5.8763155569
  H         2.5629161278        8.8065100782        4.6174681765
  H         1.0385424551       11.6278268874       11.9593615395
  H         1.0677150697        8.3982195708       11.9216421247
  H         2.5939888954        5.5758813587        4.6007492907
  H        -0.4601436515        5.5518816629        4.6443196885
  H         4.1496241124        8.4225233566       11.9466918182
  H         4.0720867314       11.6430439411       11.9153372100
  H        -0.5113977027        8.7567266211        4.5976722862
 Ca         6.7254295636        7.1684135737        2.7902380981
 Ca        -0.2392884857       10.0310520343        9.5551465459
 Ca        -3.0980395643       10.0431753557       13.7229790517
 Ca        -1.7930909280        7.1667053258        6.9919929451
  S        -0.2268373460       10.0205004513        1.8765791459
  S         6.7295010390        7.1617876137        9.3565881955
  S        -1.7939223133        7.1806172716       14.6566431540
  S        -3.0726018803       10.0351088684        7.1767337763
  O         5.0170389991        8.9141492385        2.9140231136
  O         6.2851958955        6.0103888126       10.2065455359
  O        -1.3749494220        8.3259944726       13.6202984926
  O        -2.6334993204       11.2034224934        6.3468818470
  O         0.1876800476       11.1669373121        2.9173360304
  O         7.1680240482        8.3184360131       10.2038864606
  O         3.4298794334        6.0066097110       13.6067876496
  O        -3.5184428494        8.9000050095        6.3040413013
  O         6.4255737280        9.4537983768        0.8852457844
  O         7.8524800366        6.6431483443        8.5275241425
  O        -2.8167708610        7.7788188608       15.6255661638
  O        -4.1897769798       10.5417661585        8.0181688341
  O        -1.2262705468       10.6288718429        0.8854267811
  O         5.6039104978        7.6763586015        8.5326411248
  O         4.8549880112        6.4954838636       15.6253842622
  O        -1.9440901102        9.5023190475        7.9894126884
  O        -3.1089154494        8.5666568759        3.6717607768
  O        -4.5648841751       11.2509039490       11.0427614021
  O         6.7349685096        8.6423346432       12.8686819244
  O         8.2018539373        5.9528408033        5.5114152867
  O         5.1972573146        5.7753118555        3.6731359221
  O        -1.6052248657        8.8199576391       11.0416863861
  O        -1.5728458436       11.4166108804       12.8353909786
  O         5.2421397273        8.3854761926        5.5098277795
  H        -2.2075637655        8.7987909401        3.3094577051
  H         4.5419981997        5.8345734249       10.6743019484
  H         5.8381015870        8.3919855683       13.2309104121
  H        -0.9027577870       11.3827004057        5.8789336444
  H        -3.9376739478       11.2922037063        3.3352818160
  H        -2.4560091693        8.5060845936       10.6731818267
  H         7.6038417273        5.9352326239       13.2316413754
  H         6.0944271659        8.7009073380        5.8730584572
  H        -3.1175170724        8.8079435610        4.6165776110
  H        -4.6552522467       11.6349670170       11.9539877966
  H         6.7465459741        8.4007407576       11.9245442432
  H         8.2861539503        5.5681257780        4.6017732034
  H         5.2083881134        5.5258636843        4.6157177240
  H        -1.5277757869        8.4453834101       11.9571923247
  H        -1.5706935117       11.6507771776       11.8886879690
  H         5.1592927302        8.7695473719        4.5999451391
     192
 i =       71, E =     -2330.2438656575
 Ca         9.2964186136        1.4325288947        2.7703814973
 Ca         2.3437076719        4.2934966843        9.5572798702
 Ca        -0.5253335659        4.2940917680       13.7193029637
 Ca         0.7852812778        1.4270406038        6.9965480445
  S         2.3091021668        4.3157303336        1.8780273936
  S         9.3060869356        1.4253236516        9.3579254456
  S         0.7513685610        1.4035388677       14.6491338808
  S        -0.5000117532        4.2878728894        7.2098764236
  O         7.5918837916        3.1569906726        2.9236986900
  O         8.8598694750        0.2728691494       10.2056108821
  O         1.1799958598        2.5390177803       13.6051324739
  O        -0.0588936752        5.4431320351        6.3630514251
  O         2.7425888443        5.4448827137        2.9229953108
  O         9.7441313937        2.5822134426       10.2048986912
  O         6.0256161755        0.2769966621       13.6201501664
  O        -0.9503518898        3.1407658832        6.3548661008
  O         9.0264417532        3.6531900737        0.8862698774
  O        10.4291719025        0.9034281139        8.5299289159
  O        -0.2443963173        2.0337171756       15.6257882376
  O        -1.6250314666        4.8084207727        8.0318773298
  O         1.3107899232        4.9487129185        0.8862618823
  O         8.1807450182        1.9424499953        8.5350375089
  O         7.4711224667        0.8299661641       15.6257771528
  O         0.6190670800        3.7551224150        8.0411663924
  O        -0.5543606806        2.8035210714        3.7058361457
  O        -1.9853267265        5.5196348997       11.0417868398
  O         9.3054933196        2.9052551931       12.8699079495
  O        10.7794260811        0.2159718875        5.5154765057
  O         7.7833588730        0.0640066829        3.7015964426
  O         0.9702518304        3.0870516430       11.0420615646
  O         0.9239482227        5.7093296824       12.8027841178
  O         7.8159379744        2.6534985581        5.5157783432
  H         0.3405046648        3.0525067526        3.3437259898
  H         7.1134806678        0.0918686115       10.6727526616
  H         8.4055237237        2.6577341155       13.2295314939
  H         1.6701685733        5.6463017991        5.8859265166
  H        -1.3560837376        5.5356022663        3.3412588503
  H         0.1224879466        2.7781608710       10.6619524041
  H        10.1099288051        0.1842140477       13.2298540330
  H         8.6659980106        2.9647970018        5.8869702136
  H        -0.5709067545        3.0406657748        4.6520736373
  H        -2.0573016240        5.9192076582       11.9472005567
  H         9.3211807071        2.6570340180       11.9273950334
  H        10.8504753150       -0.1492396337        4.5965580834
  H         7.7995158111       -0.1751960637        4.6465795832
  H         1.0459868653        2.6842236133       11.9450515999
  H         0.9538972881        5.9176201449       11.8493912019
  H         7.7500076473        3.0188292532        4.5963718166
 Ca         3.6239138847        1.4351394178        2.7785039966
 Ca         8.0178722811        4.2949040152        9.5651398688
 Ca         5.1647108958        4.3006487652       13.7184297776
 Ca         6.4672212750        1.4294084833        6.9971866536
  S         8.0261267974        4.2844882677        1.8778619040
  S         3.6293130179        1.4256763949        9.3564176956
  S         6.4471656201        1.4231450624       14.6541219676
  S         5.1846324516        4.3069425961        7.1839178331
  O         1.8969501881        3.1693474738        2.9178879514
  O         3.1795381219        0.2741151757       10.2031303980
  O         6.8585739250        2.5508192811       13.5982671028
  O         5.6022952517        5.4448549636        6.3003940668
  O         8.4439523395        5.4320445372        2.9192154340
  O         4.0665573408        2.5826353951       10.2043883752
  O         0.3208751046        0.2731748526       13.6050537882
  O         4.7380595807        3.1388836141        6.3599311775
  O         3.3095794346        3.7084096016        0.8856212247
  O         4.7539455317        0.9040393333        8.5301207339
  O         5.4353348390        2.0384707018       15.6257131816
  O         4.0636887239        4.8190439426        8.0175283423
  O         7.0279947358        4.8929932587        0.8856604680
  O         2.5051026420        1.9419214393        8.5351779307
  O         1.7488345554        0.7599717667       15.6254750725
  O         6.3273635713        3.8317282155        8.0115589017
  O         5.1362016808        2.8168584970        3.6960516994
  O         3.6918719543        5.5184983789       11.0420789967
  O         3.6298430360        2.9072949571       12.8683325459
  O         5.1002357861        0.2188704750        5.5118208650
  O         2.1047302881        0.0689243186        3.6985460427
  O         6.6455138547        3.0851504435       11.0418798788
  O         6.7025655312        5.6935908074       12.8693079616
  O         2.1372467072        2.6524087686        5.5138782190
  H         6.0343224819        3.0636725853        3.3361509743
  H         1.4315742515        0.1019133078       10.6769830345
  H         2.7337314764        2.6544835664       13.2300568022
  H         7.3498875001        5.6395156294        5.8747441809
  H         4.2957709143        5.5376395684        3.3058170179
  H         5.7979143889        2.7730895890       10.6643305560
  H         4.4743058166        0.1844121580       13.2056498158
  H         2.9899148510        2.9635224384        5.8790984503
  H         5.1335504983        3.0246997154        4.6493331936
  H         3.6006456047        5.8994560779       11.9549214720
  H         3.6461683476        2.6580337967       11.9262832117
  H         5.1832114832       -0.1644835200        4.6016842487
  H         2.1191484424       -0.1667064007        4.6445771261
  H         6.7216432683        2.6863574375       11.9477848883
  H         6.7010133064        5.9170189870       11.9201165548
  H         2.0580858721        3.0282273250        4.5997887938
 Ca         1.0511374658        7.1697741972        2.7801176260
 Ca         5.4423480678       10.0288592592        9.5530743236
 Ca         2.5751970721       10.0012113417       13.7596336380
 Ca         3.8907971524        7.1640006244        6.9885053370
  S         5.4327614574       10.0636386093        1.8748389674
  S         1.0502252515        7.1675267641        9.3487360253
  S         3.8542277826        7.1316916604       14.6460912265
  S         2.6060134853       10.0321809019        7.1777036272
  O        -0.6566588170        8.8921995177        2.9230252868
  O         0.6008280484        6.0143523312       10.1943340219
  O         4.2854862676        8.2678059378       13.6062012826
  O         3.0457553657       11.2003778847        6.3483036285
  O         5.8559592582       11.1884093202        2.9255295325
  O         1.4892793570        8.3186516005       10.2021821072
  O        -2.2049208126        6.0526127819       13.6012327498
  O         2.1608955681        8.8981435619        6.3039078749
  O         0.7743413588        9.3897738437        0.8862027689
  O         2.1738906136        6.6438444106        8.5238377854
  O         2.8606005419        7.7706890933       15.6256297681
  O         1.4888066799       10.5414226189        8.0175202994
  O         4.4258418352       10.6904908753        0.8862703176
  O        -0.0741551512        7.6887551605        8.5248539883
  O        -0.7786729359        6.5723846804       15.6258317578
  O         3.7338489647        9.4995517333        7.9913009947
  O         2.5736773909        8.5670403964        3.6721256071
  O         1.1144650692       11.2532167518       11.0427193078
  O         1.0549605027        8.6404400424       12.8654373374
  O         2.5218302703        5.9534128564        5.5144310886
  O        -0.4595554971        5.7810275797        3.7034334173
  O         4.0744752311        8.8219230389       11.0417498486
  O         4.0570977165       11.4299971970       12.8757417770
  O        -0.4372359567        8.3851254323        5.5139028807
  H         3.4730571616        8.8061625415        3.3070290816
  H        -1.1408937261        5.8320104180       10.6589836874
  H         0.1488306325        8.4088808891       13.2255378839
  H         4.7755759277       11.3826488730        5.8794424503
  H         1.7415693608       11.2801458599        3.3360042948
  H         3.2238211893        8.5163672824       10.6658299285
  H         1.8222684324        5.9260120134       13.1794391181
  H         0.4183213629        8.6916826263        5.8770757715
  H         2.5656455498        8.8085327817        4.6165315329
  H         1.0433989459       11.6243107065       11.9607607504
  H         1.0675486220        8.3974661318       11.9220051835
  H         2.5940838744        5.5743193824        4.6018209024
  H        -0.4487853009        5.5515697349        4.6508857721
  H         4.1492337404        8.4238654189       11.9468413435
  H         4.0636811034       11.6319721636       11.9216284873
  H        -0.5095184708        8.7550373426        4.5974108389
 Ca         6.7278184596        7.1661845986        2.7930137864
 Ca        -0.2380442799       10.0300446991        9.5555300859
 Ca        -3.0964132590       10.0452711083       13.7201269774
 Ca        -1.7912964885        7.1638598134        6.9922811009
  S        -0.2251270568       10.0205760718        1.8761606789
  S         6.7316157984        7.1615761305        9.3568553566
  S        -1.7952498200        7.1805267343       14.6567798284
  S        -3.0720959139       10.0341060079        7.1769444526
  O         5.0197087853        8.9158642945        2.9126619766
  O         6.2870336588        6.0104942927       10.2065100770
  O        -1.3752559074        8.3261480351       13.6203178494
  O        -2.6333293909       11.2025360294        6.3458577758
  O         0.1879070042       11.1673070624        2.9175958279
  O         7.1689747966        8.3189808778       10.2040520390
  O         3.4181560783        6.0034098021       13.6024660515
  O        -3.5178550282        8.8996444745        6.3040099711
  O         6.4319244066        9.4589707879        0.8854678027
  O         7.8553550329        6.6432683663        8.5279273682
  O        -2.8172051157        7.7799758791       15.6257340500
  O        -4.1889174232       10.5418083779        8.0186449973
  O        -1.2257947765       10.6281718407        0.8856070259
  O         5.6058397266        7.6761000000        8.5328562865
  O         4.8504196339        6.4916213273       15.6254099532
  O        -1.9440643493        9.5018558534        7.9900185874
  O        -3.1066265460        8.5676043197        3.6713679263
  O        -4.5647279059       11.2511909028       11.0428795024
  O         6.7351512348        8.6428086475       12.8687234274
  O         8.2029641236        5.9525253430        5.5110438525
  O         5.1950032796        5.7731371794        3.6699153068
  O        -1.6056119179        8.8192393334       11.0415380339
  O        -1.5710010909       11.4229853614       12.8327881171
  O         5.2421136640        8.3860934622        5.5088788465
  H        -2.2049940959        8.7992569587        3.3084068274
  H         4.5416238673        5.8371737037       10.6755673521
  H         5.8395328330        8.3908062813       13.2317582837
  H        -0.9008729902       11.3788888407        5.8775715466
  H        -3.9409000084       11.2991337348        3.3366372804
  H        -2.4557763018        8.5047644998       10.6718365958
  H         7.6024592038        5.9364836930       13.2308864819
  H         6.0951229831        8.6991322426        5.8721582478
  H        -3.1150075027        8.8109157446        4.6155156391
  H        -4.6588363625       11.6359517734       11.9535706933
  H         6.7462435430        8.3992140966       11.9250012495
  H         8.2883764662        5.5660561063        4.6022849312
  H         5.2070810914        5.5182283758        4.6108398616
  H        -1.5288633950        8.4434360241       11.9566264552
  H        -1.5659766043       11.6498377630       11.8841101800
  H         5.1602908966        8.7698390365        4.5987717776
     192
 i =       72, E =     -2330.2444484313
 Ca         9.2966833472        1.4325911385        2.7713024462
 Ca         2.3408114195        4.2952739629        9.5573891561
 Ca        -0.5171473285        4.2971569231       13.7157231974
 Ca         0.7814445736        1.4308530764        6.9954904825
  S         2.3107792203        4.3172529429        1.8775153675
  S         9.3051721365        1.4257477692        9.3573772830
  S         0.7517306950        1.4043414083       14.6499227343
  S        -0.5055560513        4.2976547541        7.2065181930
  O         7.5916693770        3.1566444090        2.9236683109
  O         8.8590287109        0.2734465268       10.2054355988
  O         1.1803173586        2.5391925338       13.6049019561
  O        -0.0634856305        5.4513408133        6.3580858633
  O         2.7435641450        5.4455602680        2.9233848463
  O         9.7436136965        2.5823458773       10.2044712074
  O         6.0246667089        0.2775643358       13.6199973297
  O        -0.9524842010        3.1463576092        6.3567195945
  O         9.0245569639        3.6519357961        0.8861144354
  O        10.4287225279        0.9037896740        8.5298954664
  O        -0.2443060268        2.0349659088       15.6256481244
  O        -1.6289261646        4.8178968056        8.0319399730
  O         1.3121550773        4.9503803358        0.8861093720
  O         8.1802608434        1.9426571444        8.5345328348
  O         7.4712276443        0.8302834998       15.6256168301
  O         0.6170058038        3.7742458920        8.0338331327
  O        -0.5533134115        2.8044652191        3.7048206950
  O        -1.9869266777        5.5184499442       11.0419372595
  O         9.3081662132        2.9070447041       12.8692794961
  O        10.7784298473        0.2167840705        5.5157172034
  O         7.7838993079        0.0647517798        3.7015097853
  O         0.9688460206        3.0858125681       11.0417350078
  O         0.9623323834        5.7018473328       12.8128596557
  O         7.8156064217        2.6520967359        5.5151500263
  H         0.3401195706        3.0563242465        3.3384588945
  H         7.1128143860        0.0936468893       10.6733333997
  H         8.4086242848        2.6604735215       13.2295646606
  H         1.6681781322        5.6470308756        5.8836848620
  H        -1.3608626895        5.5379059894        3.3324666416
  H         0.1207933282        2.7766473385       10.6625961494
  H        10.1157944163        0.1887368481       13.2264133215
  H         8.6663765961        2.9624322199        5.8857166543
  H        -0.5651502468        3.0440302217        4.6499550800
  H        -2.0597769376        5.9173473900       11.9476214470
  H         9.3224352026        2.6616111647       11.9261086455
  H        10.8490052637       -0.1512682321        4.5980786006
  H         7.7968967506       -0.1733500377        4.6467957906
  H         1.0453069092        2.6841129004       11.9452872172
  H         0.9747198692        5.9211468612       11.8622609532
  H         7.7479510829        3.0199240401        4.5972280909
 Ca         3.6227204952        1.4353982573        2.7806431358
 Ca         8.0139463021        4.2952481262        9.5618321899
 Ca         5.1655069527        4.2996957537       13.7181628759
 Ca         6.4656199351        1.4282760877        6.9958178998
  S         8.0243693085        4.2840396212        1.8772497086
  S         3.6248601378        1.4284770691        9.3534253706
  S         6.4473989896        1.4238992789       14.6542328333
  S         5.1802506891        4.2971963758        7.1803479057
  O         1.8970207638        3.1707686540        2.9175825311
  O         3.1759504618        0.2771291512       10.2014687074
  O         6.8589873444        2.5506016224       13.5977739352
  O         5.6034837688        5.4387474476        6.3035342248
  O         8.4409459849        5.4313881656        2.9174016699
  O         4.0643249411        2.5828446426       10.2034162703
  O         0.3218845734        0.2737194890       13.6059829106
  O         4.7286990772        3.1334495506        6.3527705017
  O         3.3097640485        3.7092339001        0.8854660067
  O         4.7496630908        0.9053166511        8.5285697358
  O         5.4352540959        2.0388313541       15.6255650659
  O         4.0651724169        4.8153727587        8.0178559562
  O         7.0269937753        4.8926552923        0.8854487406
  O         2.5015558170        1.9483119093        8.5298185630
  O         1.7490460891        0.7603186795       15.6253656345
  O         6.3190914489        3.7998540126        8.0006488345
  O         5.1374543415        2.8216599706        3.6899627643
  O         3.6917657328        5.5182786517       11.0421711861
  O         3.6297475410        2.9067921393       12.8690430166
  O         5.0993171926        0.2186169450        5.5118435281
  O         2.1046797660        0.0668136915        3.6990548357
  O         6.6448037483        3.0846556296       11.0414640227
  O         6.7033426747        5.6938662363       12.8697890635
  O         2.1355566452        2.6515603587        5.5132556261
  H         6.0367554858        3.0633581300        3.3288763015
  H         1.4317577009        0.0994923295       10.6753475534
  H         2.7325262418        2.6576056739       13.2311313963
  H         7.3493451834        5.6389181129        5.8748919820
  H         4.2972552254        5.5391756356        3.3091075534
  H         5.7966905663        2.7731432425       10.6645925527
  H         4.4720770032        0.1818589703       13.2084909408
  H         2.9897167921        2.9590977195        5.8786916618
  H         5.1336449153        3.0363072830        4.6412351691
  H         3.6034274469        5.8996358205       11.9546786921
  H         3.6434363498        2.6594602583       11.9265676913
  H         5.1798801551       -0.1667240406        4.6023641047
  H         2.1159236131       -0.1677503185        4.6455131562
  H         6.7216201349        2.6862716676       11.9474111695
  H         6.7009270362        5.9195597220       11.9213149795
  H         2.0561083052        3.0302673462        4.6006954652
 Ca         1.0487864147        7.1700821585        2.7797036619
 Ca         5.4417624286       10.0290331603        9.5530896125
 Ca         2.5801121037       10.0112471197       13.7448820662
 Ca         3.8898751927        7.1634220857        6.9888400982
  S         5.4295497336       10.0618537559        1.8755098492
  S         1.0499915970        7.1673075313        9.3498510591
  S         3.8573821836        7.1362519894       14.6489852622
  S         2.6058501179       10.0323146185        7.1781509130
  O        -0.6581490530        8.8922045893        2.9230888613
  O         0.6009186888        6.0149520518       10.1965867012
  O         4.2859794837        8.2715770798       13.6053901044
  O         3.0459120394       11.2005324493        6.3491542725
  O         5.8555881937       11.1872319524        2.9255009282
  O         1.4895647789        8.3189473572       10.2026220328
  O        -2.2036044274        6.0522704948       13.6008854545
  O         2.1608755613        8.8982142215        6.3043416798
  O         0.7721078717        9.3883185884        0.8860600196
  O         2.1741160226        6.6438922695        8.5248426978
  O         2.8611642631        7.7715833033       15.6255495143
  O         1.4883654004       10.5409537590        8.0181483927
  O         4.4246510054       10.6902591497        0.8861577991
  O        -0.0736716185        7.6884455506        8.5258538616
  O        -0.7776376878        6.5726815992       15.6256906189
  O         3.7331601822        9.4990592313        7.9923496724
  O         2.5715224416        8.5663206362        3.6726059695
  O         1.1144208958       11.2528671164       11.0432099569
  O         1.0574584792        8.6413765272       12.8652526484
  O         2.5215350424        5.9525978383        5.5145223303
  O        -0.4644368098        5.7821741768        3.6978771381
  O         4.0739745546        8.8220979898       11.0419295887
  O         4.0623329200       11.4370639762       12.8697912362
  O        -0.4373946659        8.3853784109        5.5135435598
  H         3.4705475600        8.8052883739        3.3078330635
  H        -1.1421727327        5.8308094676       10.6595182659
  H         0.1524330271        8.4113429878       13.2273622837
  H         4.7743695786       11.3850218743        5.8808377578
  H         1.7430630097       11.2798834443        3.3349853017
  H         3.2236237792        8.5154731205       10.6659269026
  H         1.8603440936        5.9265686583       13.1863887428
  H         0.4176662111        8.6934611200        5.8764122608
  H         2.5633007475        8.8066913691        4.6173181137
  H         1.0393697045       11.6270192493       11.9597311818
  H         1.0679026154        8.3979705368       11.9218711595
  H         2.5941292470        5.5756855193        4.6009371746
  H        -0.4587543254        5.5509136290        4.6447317992
  H         4.1495078986        8.4226514116       11.9467667381
  H         4.0713134857       11.6415587077       11.9159700002
  H        -0.5110502760        8.7564235889        4.5976063586
 Ca         6.7255666350        7.1678330819        2.7908279866
 Ca        -0.2391427408       10.0308907841        9.5551776039
 Ca        -3.0975631328       10.0435361743       13.7226744292
 Ca        -1.7928060802        7.1661733427        6.9919745202
  S        -0.2266732364       10.0204086807        1.8764627294
  S         6.7297821577        7.1618110067        9.3567084400
  S        -1.7941681435        7.1805166182       14.6566372574
  S        -3.0724945208       10.0348424396        7.1767455564
  O         5.0175181256        8.9145055230        2.9136280423
  O         6.2854303275        6.0105217745       10.2066591112
  O        -1.3749998514        8.3259284560       13.6202570680
  O        -2.6332268586       11.2033156630        6.3471825828
  O         0.1875883421       11.1669393352        2.9172687087
  O         7.1681276922        8.3186074639       10.2039618909
  O         3.4274367601        6.0059946699       13.6055198025
  O        -3.5183153815        8.8998468220        6.3039546182
  O         6.4270675849        9.4549806580        0.8852946829
  O         7.8529121561        6.6433476309        8.5276697581
  O        -2.8167733915        7.7790084726       15.6255929402
  O        -4.1897048773       10.5415749796        8.0181681037
  O        -1.2261965106       10.6286111198        0.8854478282
  O         5.6041479789        7.6763637833        8.5327074974
  O         4.8535862897        6.4946613766       15.6254001376
  O        -1.9440321253        9.5021808134        7.9894691081
  O        -3.1087110000        8.5667736062        3.6718974322
  O        -4.5649040309       11.2510998450       11.0428082193
  O         6.7349945792        8.6423758027       12.8687256886
  O         8.2021307722        5.9528996372        5.5112820380
  O         5.1966786086        5.7749433520        3.6725553514
  O        -1.6052468059        8.8198160335       11.0417043948
  O        -1.5724068837       11.4177058458       12.8352277455
  O         5.2422684817        8.3857250293        5.5097035066
  H        -2.2074053550        8.7987071792        3.3092143569
  H         4.5416905671        5.8350039656       10.6744678612
  H         5.8384263069        8.3915712075       13.2311034053
  H        -0.9024331347       11.3820869895        5.8789403675
  H        -3.9391315701       11.2921255780        3.3350456154
  H        -2.4559579553        8.5060477913       10.6728677623
  H         7.6034522667        5.9353469700       13.2315792302
  H         6.0947060161        8.7008088375        5.8729000608
  H        -3.1171110800        8.8083492236        4.6165843796
  H        -4.6558043481       11.6350723022       11.9539494615
  H         6.7466120529        8.4004754861       11.9246490263
  H         8.2864623634        5.5678501527        4.6017629738
  H         5.2078569515        5.5247097890        4.6148821039
  H        -1.5279018782        8.4450316526       11.9571095851
  H        -1.5696710550       11.6507458889       11.8882412250
  H         5.1595786861        8.7695903578        4.5997349768
     192
 i =       73, E =     -2330.2444541986
 Ca         9.2968253044        1.4327722407        2.7714379475
 Ca         2.3408219535        4.2952959709        9.5573716956
 Ca        -0.5169782265        4.2974815539       13.7157951925
 Ca         0.7814657410        1.4309513649        6.9955695296
  S         2.3108663226        4.3172762477        1.8774645474
  S         9.3050792573        1.4256825154        9.3573593297
  S         0.7518187761        1.4044548378       14.6499461788
  S        -0.5052728364        4.2974315763        7.2063804683
  O         7.5915720921        3.1565634426        2.9237041156
  O         8.8588907848        0.2734037433       10.2054205071
  O         1.1802794881        2.5393547078       13.6049654992
  O        -0.0633840456        5.4512877059        6.3580056364
  O         2.7435383939        5.4456033647        2.9233683496
  O         9.7435758670        2.5822957446       10.2044194118
  O         6.0248490541        0.2776187760       13.6199052826
  O        -0.9524657343        3.1463420527        6.3567187991
  O         9.0244522753        3.6519935964        0.8861329298
  O        10.4286314974        0.9037194956        8.5298853866
  O        -0.2443094064        2.0349886235       15.6256474857
  O        -1.6284154882        4.8176963553        8.0319022769
  O         1.3121218686        4.9502802783        0.8861123877
  O         8.1801759011        1.9425844454        8.5345293742
  O         7.4713117202        0.8303672453       15.6256002051
  O         0.6174505871        3.7739626548        8.0334754067
  O        -0.5531872456        2.8049787557        3.7043235636
  O        -1.9868748946        5.5184074691       11.0418942722
  O         9.3081985443        2.9071325049       12.8693391751
  O        10.7783743010        0.2168424629        5.5156512427
  O         7.7838809274        0.0645831191        3.7014447160
  O         0.9688670968        3.0858578750       11.0417144441
  O         0.9616785395        5.6997050207       12.8121330203
  O         7.8155872950        2.6520045979        5.5151222077
  H         0.3403940657        3.0568633628        3.3378562401
  H         7.1127950964        0.0934532264       10.6733923075
  H         8.4085844669        2.6604992995       13.2294764925
  H         1.6681346627        5.6467978745        5.8835604401
  H        -1.3611102905        5.5376994368        3.3319482117
  H         0.1207807792        2.7767481380       10.6625953760
  H        10.1161908700        0.1886618910       13.2262161534
  H         8.6665144175        2.9621336044        5.8855137226
  H        -0.5642928101        3.0441045958        4.6495313011
  H        -2.0597312656        5.9171843548       11.9476561812
  H         9.3224926077        2.6615306441       11.9261977035
  H        10.8489990712       -0.1514963365        4.5981444803
  H         7.7965286696       -0.1735727688        4.6466954531
  H         1.0452442082        2.6842575310       11.9453670852
  H         0.9736494837        5.9209906086       11.8618304777
  H         7.7477444146        3.0200525320        4.5972967626
 Ca         3.6222982652        1.4350219975        2.7807001087
 Ca         8.0141194133        4.2953362126        9.5619251208
 Ca         5.1652490757        4.2998773126       13.7183895376
 Ca         6.4654408417        1.4284704912        6.9958198157
  S         8.0242585542        4.2839927051        1.8772876349
  S         3.6249105670        1.4284397583        9.3534981872
  S         6.4474937773        1.4239602891       14.6542181587
  S         5.1812978059        4.2972064794        7.1808736499
  O         1.8971711811        3.1707760894        2.9175414920
  O         3.1758831705        0.2771007037       10.2014821084
  O         6.8590052721        2.5508029471       13.5979351419
  O         5.6036347909        5.4387087331        6.3035888379
  O         8.4406856734        5.4311112175        2.9177131742
  O         4.0642520549        2.5828554631       10.2034409311
  O         0.3220722812        0.2737454820       13.6061185672
  O         4.7288909242        3.1340268432        6.3527035885
  O         3.3097930088        3.7092952995        0.8854619536
  O         4.7495890984        0.9053586225        8.5284665347
  O         5.4352900290        2.0388161742       15.6255399178
  O         4.0657118578        4.8151453733        8.0178699027
  O         7.0269624515        4.8926228747        0.8854536303
  O         2.5014251899        1.9481723712        8.5301147837
  O         1.7491938859        0.7604905606       15.6253429447
  O         6.3210327397        3.7993010677        7.9998768819
  O         5.1370840038        2.8216611608        3.6897710697
  O         3.6915880037        5.5181744734       11.0421489773
  O         3.6297292545        2.9067492415       12.8691403013
  O         5.0992842560        0.2185811711        5.5118616220
  O         2.1046617484        0.0662930348        3.6989210347
  O         6.6448632756        3.0847555202       11.0414531375
  O         6.7032684805        5.6938358247       12.8697832249
  O         2.1355804374        2.6515070896        5.5132613662
  H         6.0363546193        3.0629424042        3.3283015779
  H         1.4317077138        0.0993402444       10.6753103435
  H         2.7325154542        2.6576607238       13.2312745646
  H         7.3492577466        5.6390926406        5.8747716712
  H         4.2971105720        5.5392396326        3.3089100420
  H         5.7967191566        2.7732851150       10.6646174187
  H         4.4720919393        0.1819583620       13.2086815462
  H         2.9897352517        2.9591243376        5.8786465648
  H         5.1335550508        3.0364290660        4.6409940571
  H         3.6031073142        5.8994943424       11.9546982096
  H         3.6434226839        2.6594249921       11.9266757956
  H         5.1797272450       -0.1666516302        4.6023608095
  H         2.1152876526       -0.1682711982        4.6453928824
  H         6.7217167043        2.6863289594       11.9473516095
  H         6.7008206295        5.9195923888       11.9213322194
  H         2.0561687106        3.0303946528        4.6007607111
 Ca         1.0486384856        7.1701835383        2.7795790051
 Ca         5.4417609802       10.0290052527        9.5530509476
 Ca         2.5803575651       10.0113622992       13.7450178337
 Ca         3.8897293427        7.1636080258        6.9888700168
  S         5.4296062728       10.0618674617        1.8754569375
  S         1.0499982013        7.1673296398        9.3497984455
  S         3.8570696479        7.1360650459       14.6488190089
  S         2.6058694116       10.0324646154        7.1780666262
  O        -0.6582215910        8.8921503893        2.9230575691
  O         0.6008875984        6.0149900772       10.1965670160
  O         4.2860248680        8.2714646024       13.6054745385
  O         3.0457719186       11.2006280275        6.3489633018
  O         5.8555322379       11.1872962544        2.9255945142
  O         1.4895390733        8.3189181440       10.2026125128
  O        -2.2036863455        6.0521376157       13.6008977704
  O         2.1609363554        8.8983114491        6.3042856205
  O         0.7720753849        9.3883086149        0.8860664861
  O         2.1741431510        6.6439235365        8.5248555503
  O         2.8610689005        7.7716098651       15.6255431856
  O         1.4883117907       10.5410679953        8.0180426759
  O         4.4246874132       10.6901709343        0.8861287615
  O        -0.0736166430        7.6884690453        8.5258329341
  O        -0.7777487982        6.5724436150       15.6256504320
  O         3.7331908832        9.4992168254        7.9922691730
  O         2.5713921931        8.5662772462        3.6725360103
  O         1.1143473447       11.2527156991       11.0431711014
  O         1.0575785401        8.6415890480       12.8652444060
  O         2.5214972119        5.9525283005        5.5145592629
  O        -0.4648830462        5.7824613669        3.6977980040
  O         4.0739858420        8.8220971976       11.0419416782
  O         4.0626989551       11.4366666294       12.8697824087
  O        -0.4373764461        8.3854414760        5.5135341462
  H         3.4703232911        8.8052310722        3.3076335454
  H        -1.1420894013        5.8308340249       10.6596027774
  H         0.1526866170        8.4113442909       13.2274751875
  H         4.7743274002       11.3852248620        5.8809455132
  H         1.7431477616       11.2796803558        3.3345927391
  H         3.2236101294        8.5155419102       10.6659587728
  H         1.8586629368        5.9273185721       13.1853319317
  H         0.4177118389        8.6935448915        5.8763104246
  H         2.5632690029        8.8064415292        4.6172889086
  H         1.0393217251       11.6267303708       11.9597500625
  H         1.0681528723        8.3979848566       11.9219162479
  H         2.5941781166        5.5757753374        4.6009282545
  H        -0.4588897303        5.5505179628        4.6444803021
  H         4.1495556290        8.4227597518       11.9468163722
  H         4.0716350520       11.6415809070       11.9160021532
  H        -0.5111316513        8.7563750484        4.5975721230
 Ca         6.7255437093        7.1678534449        2.7906920552
 Ca        -0.2391630380       10.0309572509        9.5550437939
 Ca        -3.0973917603       10.0435024967       13.7228985736
 Ca        -1.7927325884        7.1661465030        6.9919616563
  S        -0.2267144398       10.0203761497        1.8764938503
  S         6.7297571530        7.1618323806        9.3567232843
  S        -1.7941917410        7.1804385750       14.6565763159
  S        -3.0725286522       10.0347929799        7.1767590984
  O         5.0175758805        8.9145377163        2.9135526285
  O         6.2853960119        6.0105679306       10.2066751860
  O        -1.3749910907        8.3258880450       13.6202754916
  O        -2.6333181122       11.2032609738        6.3472926996
  O         0.1875680726       11.1668566168        2.9173457355
  O         7.1681072877        8.3186374942       10.2039598621
  O         3.4267639204        6.0058835360       13.6054270451
  O        -3.5183605400        8.8998052190        6.3039352313
  O         6.4274067480        9.4553832477        0.8852827225
  O         7.8528715796        6.6434086252        8.5276755180
  O        -2.8167087306        7.7789665629       15.6255808557
  O        -4.1897391235       10.5416259779        8.0181111105
  O        -1.2261403650       10.6285725698        0.8854565049
  O         5.6041101846        7.6763925882        8.5327287220
  O         4.8532342621        6.4944674867       15.6253837816
  O        -1.9440670588        9.5021088991        7.9894690522
  O        -3.1088280827        8.5665090515        3.6719413352
  O        -4.5649463827       11.2509929880       11.0427951502
  O         6.7350331559        8.6424197909       12.8687539750
  O         8.2021186026        5.9528766659        5.5112395791
  O         5.1965839760        5.7748206002        3.6724008107
  O        -1.6051700006        8.8199507992       11.0416868064
  O        -1.5723596082       11.4176348782       12.8354015557
  O         5.2423226223        8.3858284786        5.5097574143
  H        -2.2076568291        8.7986122944        3.3091595958
  H         4.5415069509        5.8349677802       10.6745247294
  H         5.8385651050        8.3914734421       13.2312204283
  H        -0.9024603483       11.3821935896        5.8790889011
  H        -3.9392783259       11.2913830223        3.3349603710
  H        -2.4559297790        8.5063344959       10.6728501084
  H         7.6033548896        5.9351810709       13.2317238170
  H         6.0948131270        8.7009134701        5.8728481012
  H        -3.1171117595        8.8081465240        4.6166164794
  H        -4.6557666188       11.6349286884       11.9539120886
  H         6.7467810344        8.4005682396       11.9246713075
  H         8.2864203958        5.5680156221        4.6016757241
  H         5.2076529535        5.5250211952        4.6148296605
  H        -1.5277841243        8.4451659343       11.9570548008
  H        -1.5695922210       11.6507074051       11.8884348907
  H         5.1596279323        8.7695416473        4.5997496237
     192
 i =       74, E =     -2330.2444579931
 Ca         9.2967960770        1.4328572307        2.7721258487
 Ca         2.3409753880        4.2950270612        9.5574224145
 Ca        -0.5182658487        4.2969629847       13.7163424116
 Ca         0.7816651520        1.4307876462        6.9957272088
  S         2.3110456165        4.3173580146        1.8772506941
  S         9.3048288041        1.4255664807        9.3573248486
  S         0.7519308530        1.4046283698       14.6499768784
  S        -0.5044838135        4.2965646741        7.2058557636
  O         7.5912527167        3.1563921450        2.9238413096
  O         8.8586050260        0.2733566804       10.2054794986
  O         1.1802276452        2.5395415647       13.6049286221
  O        -0.0629624793        5.4510274611        6.3578396038
  O         2.7434298968        5.4456771796        2.9233092948
  O         9.7434546822        2.5821469080       10.2044164466
  O         6.0251328049        0.2774228589       13.6200115234
  O        -0.9520938845        3.1459411358        6.3564331709
  O         9.0241433264        3.6519073704        0.8861608332
  O        10.4283818554        0.9035597077        8.5299090415
  O        -0.2442643130        2.0350538618       15.6256982404
  O        -1.6273555959        4.8169038670        8.0311187590
  O         1.3119364221        4.9501033780        0.8861464900
  O         8.1799387658        1.9424240854        8.5344608311
  O         7.4714397577        0.8303568242       15.6256455421
  O         0.6183908563        3.7728498695        8.0329227288
  O        -0.5524688875        2.8062784234        3.7031883760
  O        -1.9865659152        5.5187247773       11.0419007001
  O         9.3079612196        2.9069608935       12.8694307260
  O        10.7783101017        0.2169798401        5.5155792152
  O         7.7838061613        0.0642065812        3.7011078148
  O         0.9689427365        3.0857299684       11.0416573560
  O         0.9592540543        5.6992655100       12.8087896943
  O         7.8155814312        2.6518787863        5.5150328247
  H         0.3413978142        3.0582915369        3.3364524104
  H         7.1128495258        0.0931301557       10.6734497499
  H         8.4081696347        2.6603623115       13.2293873561
  H         1.6681524970        5.6461353634        5.8834735261
  H        -1.3616456373        5.5369162632        3.3313663998
  H         0.1208042560        2.7768965373       10.6624936443
  H        10.1169368915        0.1884271154       13.2259859497
  H         8.6668387042        2.9614347889        5.8851962943
  H        -0.5622846926        3.0444264492        4.6485840254
  H        -2.0593860195        5.9172702790       11.9477873635
  H         9.3226722796        2.6609424173       11.9264115594
  H        10.8488637642       -0.1520921385        4.5983852083
  H         7.7956127190       -0.1745314835        4.6461900894
  H         1.0449371646        2.6845687110       11.9455413199
  H         0.9691203998        5.9205268932       11.8582730945
  H         7.7472803547        3.0204286418        4.5974480530
 Ca         3.6217750443        1.4344845795        2.7810875608
 Ca         8.0150347461        4.2953998366        9.5625315219
 Ca         5.1646019908        4.3004781798       13.7183653389
 Ca         6.4652193658        1.4287948688        6.9956837882
  S         8.0239256816        4.2837747977        1.8772482309
  S         3.6251527842        1.4282377729        9.3538588716
  S         6.4476189573        1.4238962560       14.6542664790
  S         5.1832053811        4.2983402772        7.1816462488
  O         1.8975239675        3.1709518623        2.9175298492
  O         3.1761542166        0.2768651234       10.2017761557
  O         6.8588921110        2.5507339278       13.5978740316
  O         5.6041302856        5.4396446835        6.3035242079
  O         8.4403794503        5.4307371120        2.9176451382
  O         4.0643817613        2.5828619434       10.2035054988
  O         0.3223510746        0.2738834268       13.6062071891
  O         4.7306221221        3.1349303576        6.3531977398
  O         3.3099688108        3.7095007777        0.8855031264
  O         4.7496518139        0.9054327567        8.5285299090
  O         5.4353636244        2.0386991708       15.6255976448
  O         4.0666367225        4.8149849949        8.0181928278
  O         7.0267036962        4.8924500900        0.8854852038
  O         2.5013461171        1.9474260396        8.5308501286
  O         1.7492420776        0.7605287268       15.6254061684
  O         6.3245788105        3.8019139545        7.9996281559
  O         5.1359160291        2.8212346638        3.6896285603
  O         3.6911696106        5.5180129221       11.0422335479
  O         3.6296302632        2.9065839567       12.8693141016
  O         5.0991795491        0.2185803195        5.5119589161
  O         2.1041347249        0.0648221642        3.6988039038
  O         6.6450485143        3.0848791120       11.0415049296
  O         6.7029359854        5.6936881531       12.8698193347
  O         2.1358550199        2.6515781699        5.5132205559
  H         6.0350741298        3.0619458684        3.3275164545
  H         1.4316460989        0.0993474987       10.6752742484
  H         2.7324132797        2.6576301175       13.2314522377
  H         7.3491582217        5.6395666459        5.8745808629
  H         4.2965990846        5.5391611963        3.3085718205
  H         5.7968857017        2.7735521802       10.6646276637
  H         4.4723269152        0.1821915143       13.2090317450
  H         2.9898126320        2.9595495078        5.8788199385
  H         5.1334072578        3.0366473393        4.6406855731
  H         3.6021609301        5.8991737683       11.9549012160
  H         3.6434466281        2.6592019563       11.9268882512
  H         5.1794393699       -0.1665488503        4.6024136578
  H         2.1139976662       -0.1699258538        4.6452399340
  H         6.7217925231        2.6862061693       11.9472672886
  H         6.7005819616        5.9196471489       11.9214186377
  H         2.0564218926        3.0307285680        4.6008364350
 Ca         1.0483346988        7.1703857712        2.7795701903
 Ca         5.4417807915       10.0289588006        9.5532262235
 Ca         2.5807894007       10.0112042341       13.7455957310
 Ca         3.8896209078        7.1637807353        6.9887840115
  S         5.4300530620       10.0620280949        1.8751704824
  S         1.0500678258        7.1674562363        9.3495382332
  S         3.8560472004        7.1353566602       14.6483353551
  S         2.6060159131       10.0327268346        7.1780001811
  O        -0.6584048837        8.8921519794        2.9230812369
  O         0.6007790245        6.0149552677       10.1961031950
  O         4.2858914397        8.2708639252       13.6056060261
  O         3.0457632678       11.2009605293        6.3490255397
  O         5.8556656081       11.1874711329        2.9257914044
  O         1.4895491801        8.3188409304       10.2025755720
  O        -2.2039260524        6.0520608678       13.6009605822
  O         2.1610340624        8.8984472627        6.3043006587
  O         0.7721153050        9.3882219279        0.8860933966
  O         2.1742063189        6.6438612094        8.5247907774
  O         2.8606917413        7.7716871615       15.6255740367
  O         1.4885104751       10.5410855831        8.0182874382
  O         4.4248449323       10.6900394283        0.8861771546
  O        -0.0735338919        7.6884994003        8.5257178518
  O        -0.7781342489        6.5720077301       15.6257122559
  O         3.7335677765        9.4994676049        7.9919337780
  O         2.5712121407        8.5661350184        3.6723665590
  O         1.1142313363       11.2527198509       11.0431498458
  O         1.0578935335        8.6413670446       12.8653882931
  O         2.5213958525        5.9524155515        5.5146164571
  O        -0.4659923063        5.7834547972        3.6979114098
  O         4.0740010733        8.8219702454       11.0420155499
  O         4.0630703983       11.4370348917       12.8697828795
  O        -0.4372929683        8.3855332515        5.5135652197
  H         3.4698958838        8.8052515960        3.3072593262
  H        -1.1417919515        5.8311742525       10.6596199212
  H         0.1528991029        8.4113780131       13.2275369485
  H         4.7743192804       11.3856471394        5.8812145199
  H         1.7432873754       11.2790401438        3.3337568471
  H         3.2235904846        8.5155686604       10.6660441997
  H         1.8542604569        5.9294654250       13.1830804641
  H         0.4178282194        8.6937449178        5.8761959954
  H         2.5633310709        8.8061214377        4.6171634958
  H         1.0395393148       11.6261275889       11.9599962816
  H         1.0685896078        8.3977858040       11.9220973232
  H         2.5943169715        5.5758462672        4.6009489141
  H        -0.4589264806        5.5491012446        4.6440122471
  H         4.1494858515        8.4226352098       11.9469084554
  H         4.0718382313       11.6414561573       11.9158398324
  H        -0.5111470592        8.7562708058        4.5975251889
 Ca         6.7253303349        7.1676066187        2.7908508581
 Ca        -0.2391253906       10.0309994197        9.5551035364
 Ca        -3.0973783551       10.0434377170       13.7228992565
 Ca        -1.7925128955        7.1658781861        6.9918024672
  S        -0.2268682067       10.0202548293        1.8764145831
  S         6.7298057771        7.1618658878        9.3567716988
  S        -1.7943693477        7.1803386303       14.6565828990
  S        -3.0725045255       10.0346757491        7.1768265986
  O         5.0178934071        8.9148004392        2.9132648853
  O         6.2853543274        6.0105646543       10.2065564923
  O        -1.3749325655        8.3257535436       13.6203227868
  O        -2.6334144141       11.2030593749        6.3474306638
  O         0.1874194631       11.1667376083        2.9172461988
  O         7.1681468618        8.3186986354       10.2040206364
  O         3.4248396471        6.0057348604       13.6045645293
  O        -3.5183617391        8.8997052909        6.3039249926
  O         6.4287633393        9.4564624201        0.8853420328
  O         7.8529360000        6.6434809060        8.5277551669
  O        -2.8167014539        7.7789856538       15.6256396099
  O        -4.1897382367       10.5416160959        8.0181014536
  O        -1.2262088727       10.6283959032        0.8855028293
  O         5.6041355227        7.6764465237        8.5327761237
  O         4.8522707274        6.4939919559       15.6254179786
  O        -1.9440174299        9.5019738397        7.9894930603
  O        -3.1090764745        8.5663447496        3.6720771213
  O        -4.5649361468       11.2509202353       11.0428413547
  O         6.7351302518        8.6425012143       12.8689187501
  O         8.2021878502        5.9529631412        5.5112052995
  O         5.1961040472        5.7746336192        3.6721206124
  O        -1.6050890604        8.8201281136       11.0416887250
  O        -1.5721606545       11.4178912462       12.8356275175
  O         5.2425314949        8.3860431207        5.5097747523
  H        -2.2080825480        8.7984066870        3.3090227538
  H         4.5409950825        5.8351839287       10.6747732275
  H         5.8388821714        8.3909626298       13.2313452320
  H        -0.9024298492       11.3822113282        5.8794807296
  H        -3.9400441613       11.2896678829        3.3344980572
  H        -2.4559009521        8.5066981650       10.6727898552
  H         7.6030210305        5.9349926353       13.2317303441
  H         6.0950808692        8.7011353532        5.8728411030
  H        -3.1170796340        8.8078895245        4.6167641319
  H        -4.6556741759       11.6349429562       11.9539044371
  H         6.7469406392        8.4004787726       11.9248732116
  H         8.2863924260        5.5681831034        4.6016021462
  H         5.2069425792        5.5251508875        4.6146358192
  H        -1.5277164858        8.4451051746       11.9569608166
  H        -1.5691878784       11.6507784741       11.8886390509
  H         5.1598290843        8.7695653224        4.5997061198
     192
 i =       75, E =     -2330.2444609503
 Ca         9.2970083613        1.4330331619        2.7722766331
 Ca         2.3410625157        4.2949379501        9.5572826234
 Ca        -0.5178199913        4.2973045614       13.7165682972
 Ca         0.7816523051        1.4306849386        6.9957213290
  S         2.3111123196        4.3174736355        1.8771505621
  S         9.3047292163        1.4255004296        9.3573251299
  S         0.7520227004        1.4047938827       14.6500103549
  S        -0.5041324377        4.2966391007        7.2052629579
  O         7.5909812689        3.1562560527        2.9237656173
  O         8.8585197516        0.2732779715       10.2054741977
  O         1.1801881280        2.5396907149       13.6049240829
  O        -0.0627979453        5.4514413789        6.3574925248
  O         2.7434683890        5.4457917614        2.9232086486
  O         9.7434167240        2.5820926536       10.2043891494
  O         6.0252244372        0.2774773206       13.6199812335
  O        -0.9517151853        3.1459823943        6.3562114845
  O         9.0238817869        3.6517812255        0.8861787398
  O        10.4283167985        0.9035685899        8.5299229152
  O        -0.2441950907        2.0353050939       15.6257025586
  O        -1.6268824769        4.8168551156        8.0304863581
  O         1.3118370972        4.9500919382        0.8861515539
  O         8.1799061578        1.9422921436        8.5344200996
  O         7.4714634337        0.8304143528       15.6256536517
  O         0.6189934106        3.7733119388        8.0321792592
  O        -0.5523518596        2.8066802374        3.7026295629
  O        -1.9865199845        5.5187378741       11.0419371913
  O         9.3079699129        2.9069656748       12.8694218689
  O        10.7782360960        0.2170359159        5.5156023992
  O         7.7836941172        0.0641724590        3.7010232015
  O         0.9689262602        3.0857918422       11.0415177626
  O         0.9599672535        5.6995099630       12.8086158648
  O         7.8155534413        2.6517546274        5.5149066987
  H         0.3415114867        3.0587519849        3.3353548321
  H         7.1128409827        0.0929090299       10.6736117815
  H         8.4081141727        2.6604581438       13.2293529597
  H         1.6680985384        5.6459117314        5.8832013282
  H        -1.3619254582        5.5370371160        3.3306722146
  H         0.1207352001        2.7769472053       10.6625048973
  H        10.1174812987        0.1884199203       13.2259296433
  H         8.6670240066        2.9609683059        5.8848524444
  H        -0.5611430832        3.0443728087        4.6480679397
  H        -2.0594204567        5.9170308634       11.9479435220
  H         9.3228793164        2.6609364866       11.9264125264
  H        10.8487617919       -0.1523537554        4.5985946325
  H         7.7952602214       -0.1746073442        4.6460787730
  H         1.0448419614        2.6849763026       11.9455973772
  H         0.9683735010        5.9203339973       11.8578435564
  H         7.7469529577        3.0206141233        4.5975103972
 Ca         3.6213641169        1.4342791937        2.7811217571
 Ca         8.0154331166        4.2953403807        9.5622127576
 Ca         5.1641382042        4.3005814804       13.7185532020
 Ca         6.4652289743        1.4287044722        6.9956321339
  S         8.0236972933        4.2836850044        1.8772270787
  S         3.6251494144        1.4281567022        9.3539488639
  S         6.4476998017        1.4240209325       14.6542417602
  S         5.1835753887        4.2984566016        7.1814089395
  O         1.8974695100        3.1709951052        2.9173435729
  O         3.1763273265        0.2767408015       10.2018898976
  O         6.8589315187        2.5509621377       13.5980219695
  O         5.6044068768        5.4398591738        6.3033529047
  O         8.4401924584        5.4306125437        2.9174280581
  O         4.0644216291        2.5827992263       10.2035060753
  O         0.3224897425        0.2739757586       13.6063450548
  O         4.7314519695        3.1346388103        6.3531021762
  O         3.3099150965        3.7096564175        0.8855064299
  O         4.7496510981        0.9054399338        8.5286166880
  O         5.4354089846        2.0387343203       15.6256095637
  O         4.0670059337        4.8148000609        8.0182056969
  O         7.0266020127        4.8924184344        0.8854832525
  O         2.5013694906        1.9471108055        8.5308037632
  O         1.7493593396        0.7607242881       15.6254135201
  O         6.3247307040        3.8016071524        7.9996456413
  O         5.1352694040        2.8212195246        3.6893838663
  O         3.6909953002        5.5176969508       11.0422558338
  O         3.6296636007        2.9066030701       12.8694271907
  O         5.0991038457        0.2185545600        5.5119888356
  O         2.1039323502        0.0644401530        3.6987662326
  O         6.6452168263        3.0850343505       11.0414924769
  O         6.7027852242        5.6936821432       12.8697819724
  O         2.1360129657        2.6516347360        5.5131959309
  H         6.0343876118        3.0613922554        3.3268057226
  H         1.4316264479        0.0990826602       10.6751417037
  H         2.7323704228        2.6578408471       13.2315099047
  H         7.3489966864        5.6398787847        5.8745002693
  H         4.2964112345        5.5393046189        3.3084997662
  H         5.7969785950        2.7738509447       10.6646867782
  H         4.4722744839        0.1821938080       13.2093688910
  H         2.9899271697        2.9595460781        5.8789448647
  H         5.1332908910        3.0372380929        4.6402698164
  H         3.6015806757        5.8988774536       11.9549374515
  H         3.6433520525        2.6591615208       11.9270306426
  H         5.1791435984       -0.1665656015        4.6024375800
  H         2.1135325893       -0.1704939746        4.6451836518
  H         6.7219351056        2.6863932962       11.9472409737
  H         6.7004037920        5.9196969624       11.9214067964
  H         2.0564660771        3.0308911452        4.6008939365
 Ca         1.0479758441        7.1704061381        2.7794425154
 Ca         5.4417216316       10.0289458987        9.5530092098
 Ca         2.5812478364       10.0116948622       13.7453624648
 Ca         3.8896791248        7.1637588711        6.9888389611
  S         5.4302158324       10.0619949799        1.8750169204
  S         1.0500276569        7.1675584868        9.3494814296
  S         3.8559462566        7.1353383770       14.6482748764
  S         2.6060325852       10.0328185792        7.1778191615
  O        -0.6585637526        8.8921043961        2.9230206816
  O         0.6006159522        6.0149352462       10.1958674336
  O         4.2858886089        8.2708495402       13.6055569781
  O         3.0458708998       11.2010956625        6.3490286746
  O         5.8557606260       11.1875558230        2.9257350844
  O         1.4895322972        8.3188825354       10.2025572694
  O        -2.2040054214        6.0519126723       13.6010145729
  O         2.1610513664        8.8984546816        6.3041871157
  O         0.7718737701        9.3881000851        0.8861072262
  O         2.1741709053        6.6439012122        8.5248078522
  O         2.8606693181        7.7716470134       15.6255817626
  O         1.4884744884       10.5409773975        8.0181821722
  O         4.4249210968       10.6898701204        0.8861774639
  O        -0.0734991436        7.6885912156        8.5256807864
  O        -0.7780567401        6.5719717739       15.6257122805
  O         3.7336693821        9.4996276528        7.9917012207
  O         2.5710796516        8.5661397199        3.6722462445
  O         1.1141425441       11.2524835868       11.0431525204
  O         1.0581153617        8.6415962052       12.8654340449
  O         2.5214305618        5.9523185225        5.5145931329
  O        -0.4667435305        5.7849269495        3.6977281278
  O         4.0740401004        8.8219598836       11.0420544357
  O         4.0636753554       11.4367750906       12.8695283415
  O        -0.4372965775        8.3856309312        5.5135452546
  H         3.4696606113        8.8052213327        3.3070490466
  H        -1.1417258383        5.8311910232       10.6596891864
  H         0.1532421762        8.4115131464       13.2276037875
  H         4.7742051930       11.3860313904        5.8813775807
  H         1.7434279596       11.2789091030        3.3331521692
  H         3.2235845750        8.5156583254       10.6661165590
  H         1.8547472824        5.9307105883       13.1817841564
  H         0.4178497576        8.6939250365        5.8760266221
  H         2.5632670774        8.8057174214        4.6171369591
  H         1.0393822387       11.6258485887       11.9600403491
  H         1.0688635107        8.3979342770       11.9221555483
  H         2.5944247071        5.5759953661        4.6008329299
  H        -0.4594440007        5.5485393267        4.6433185842
  H         4.1495996729        8.4227679592       11.9469856061
  H         4.0722833937       11.6416113946       11.9156692092
  H        -0.5113745921        8.7562249652        4.5974749335
 Ca         6.7251884360        7.1675968396        2.7907413991
 Ca        -0.2391645207       10.0310497722        9.5548502150
 Ca        -3.0972625412       10.0434607316       13.7231663212
 Ca        -1.7924621794        7.1657580238        6.9916878849
  S        -0.2270423067       10.0202583154        1.8764725689
  S         6.7297705248        7.1618207131        9.3567959700
  S        -1.7943172886        7.1802217514       14.6565660592
  S        -3.0725498420       10.0346364086        7.1766983109
  O         5.0179284539        8.9148683702        2.9130703990
  O         6.2853252697        6.0105848956       10.2066631401
  O        -1.3749710944        8.3256501726       13.6203424661
  O        -2.6332416252       11.2030071272        6.3475432953
  O         0.1873841101       11.1666931209        2.9172655519
  O         7.1681225367        8.3186924412       10.2039906142
  O         3.4250472869        6.0058138176       13.6042893321
  O        -3.5183916588        8.8995996604        6.3038333447
  O         6.4293494173        9.4566882152        0.8853656816
  O         7.8529204695        6.6434944593        8.5277971274
  O        -2.8166085533        7.7788636530       15.6256447516
  O        -4.1898264279       10.5414766289        8.0179727325
  O        -1.2262039291       10.6284638915        0.8854985884
  O         5.6041315671        7.6764398041        8.5327674051
  O         4.8523169712        6.4940948576       15.6254240798
  O        -1.9440319680        9.5019829232        7.9893695548
  O        -3.1093665153        8.5662546324        3.6720456352
  O        -4.5649906996       11.2508651117       11.0428283733
  O         6.7351627492        8.6424880033       12.8689124826
  O         8.2021955161        5.9529621796        5.5111717592
  O         5.1959896767        5.7746791057        3.6720245425
  O        -1.6049603632        8.8202650429       11.0416930063
  O        -1.5721863227       11.4177749275       12.8359407674
  O         5.2425712621        8.3860956017        5.5097415757
  H        -2.2084193348        8.7982474831        3.3089597764
  H         4.5407577033        5.8350975034       10.6748918854
  H         5.8390220825        8.3907490231       13.2314393129
  H        -0.9025239490       11.3824278302        5.8795837968
  H        -3.9400612533       11.2887187650        3.3340096972
  H        -2.4558918690        8.5071005558       10.6728562172
  H         7.6028717579        5.9347679043       13.2318013130
  H         6.0951425086        8.7012151399        5.8728154820
  H        -3.1171896985        8.8074029257        4.6168333524
  H        -4.6554892980       11.6347817109       11.9539127028
  H         6.7470867936        8.4006332128       11.9248325770
  H         8.2864039511        5.5684505613        4.6014799741
  H         5.2065873762        5.5257337608        4.6146786201
  H        -1.5275540864        8.4452743427       11.9569222037
  H        -1.5691640396       11.6507019074       11.8889691810
  H         5.1598471496        8.7695437824        4.5996641188
     192
 i =       76, E =     -2330.2444608882
 Ca         9.2970083613        1.4330331619        2.7722766331
 Ca         2.3410625157        4.2949379501        9.5572826234
 Ca        -0.5178199913        4.2973045614       13.7165682972
 Ca         0.7816523051        1.4306849386        6.9957213290
  S         2.3111123196        4.3174736355        1.8771505621
  S         9.3047292163        1.4255004296        9.3573251299
  S         0.7520227004        1.4047938827       14.6500103549
  S        -0.5041324377        4.2966391007        7.2052629579
  O         7.5909812689        3.1562560527        2.9237656173
  O         8.8585197516        0.2732779715       10.2054741977
  O         1.1801881280        2.5396907149       13.6049240829
  O        -0.0627979453        5.4514413789        6.3574925248
  O         2.7434683890        5.4457917614        2.9232086486
  O         9.7434167240        2.5820926536       10.2043891494
  O         6.0252244372        0.2774773206       13.6199812335
  O        -0.9517151853        3.1459823943        6.3562114845
  O         9.0238817869        3.6517812255        0.8861787398
  O        10.4283167985        0.9035685899        8.5299229152
  O        -0.2441950907        2.0353050939       15.6257025586
  O        -1.6268824769        4.8168551156        8.0304863581
  O         1.3118370972        4.9500919382        0.8861515539
  O         8.1799061578        1.9422921436        8.5344200996
  O         7.4714634337        0.8304143528       15.6256536517
  O         0.6189934106        3.7733119388        8.0321792592
  O        -0.5523518596        2.8066802374        3.7026295629
  O        -1.9865199845        5.5187378741       11.0419371913
  O         9.3079699129        2.9069656748       12.8694218689
  O        10.7782360960        0.2170359159        5.5156023992
  O         7.7836941172        0.0641724590        3.7010232015
  O         0.9689262602        3.0857918422       11.0415177626
  O         0.9599672535        5.6995099630       12.8086158648
  O         7.8155534413        2.6517546274        5.5149066987
  H         0.3415114867        3.0587519849        3.3353548321
  H         7.1128409827        0.0929090299       10.6736117815
  H         8.4081141727        2.6604581438       13.2293529597
  H         1.6680985384        5.6459117314        5.8832013282
  H        -1.3619254582        5.5370371160        3.3306722146
  H         0.1207352001        2.7769472053       10.6625048973
  H        10.1174812987        0.1884199203       13.2259296433
  H         8.6670240066        2.9609683059        5.8848524444
  H        -0.5611430832        3.0443728087        4.6480679397
  H        -2.0594204567        5.9170308634       11.9479435220
  H         9.3228793164        2.6609364866       11.9264125264
  H        10.8487617919       -0.1523537554        4.5985946325
  H         7.7952602214       -0.1746073442        4.6460787730
  H         1.0448419614        2.6849763026       11.9455973772
  H         0.9683735010        5.9203339973       11.8578435564
  H         7.7469529577        3.0206141233        4.5975103972
 Ca         3.6213641169        1.4342791937        2.7811217571
 Ca         8.0154331166        4.2953403807        9.5622127576
 Ca         5.1641382042        4.3005814804       13.7185532020
 Ca         6.4652289743        1.4287044722        6.9956321339
  S         8.0236972933        4.2836850044        1.8772270787
  S         3.6251494144        1.4281567022        9.3539488639
  S         6.4476998017        1.4240209325       14.6542417602
  S         5.1835753887        4.2984566016        7.1814089395
  O         1.8974695100        3.1709951052        2.9173435729
  O         3.1763273265        0.2767408015       10.2018898976
  O         6.8589315187        2.5509621377       13.5980219695
  O         5.6044068768        5.4398591738        6.3033529047
  O         8.4401924584        5.4306125437        2.9174280581
  O         4.0644216291        2.5827992263       10.2035060753
  O         0.3224897425        0.2739757586       13.6063450548
  O         4.7314519695        3.1346388103        6.3531021762
  O         3.3099150965        3.7096564175        0.8855064299
  O         4.7496510981        0.9054399338        8.5286166880
  O         5.4354089846        2.0387343203       15.6256095637
  O         4.0670059337        4.8148000609        8.0182056969
  O         7.0266020127        4.8924184344        0.8854832525
  O         2.5013694906        1.9471108055        8.5308037632
  O         1.7493593396        0.7607242881       15.6254135201
  O         6.3247307040        3.8016071524        7.9996456413
  O         5.1352694040        2.8212195246        3.6893838663
  O         3.6909953002        5.5176969508       11.0422558338
  O         3.6296636007        2.9066030701       12.8694271907
  O         5.0991038457        0.2185545600        5.5119888356
  O         2.1039323502        0.0644401530        3.6987662326
  O         6.6452168263        3.0850343505       11.0414924769
  O         6.7027852242        5.6936821432       12.8697819724
  O         2.1360129657        2.6516347360        5.5131959309
  H         6.0343876118        3.0613922554        3.3268057226
  H         1.4316264479        0.0990826602       10.6751417037
  H         2.7323704228        2.6578408471       13.2315099047
  H         7.3489966864        5.6398787847        5.8745002693
  H         4.2964112345        5.5393046189        3.3084997662
  H         5.7969785950        2.7738509447       10.6646867782
  H         4.4722744839        0.1821938080       13.2093688910
  H         2.9899271697        2.9595460781        5.8789448647
  H         5.1332908910        3.0372380929        4.6402698164
  H         3.6015806757        5.8988774536       11.9549374515
  H         3.6433520525        2.6591615208       11.9270306426
  H         5.1791435984       -0.1665656015        4.6024375800
  H         2.1135325893       -0.1704939746        4.6451836518
  H         6.7219351056        2.6863932962       11.9472409737
  H         6.7004037920        5.9196969624       11.9214067964
  H         2.0564660771        3.0308911452        4.6008939365
 Ca         1.0479758441        7.1704061381        2.7794425154
 Ca         5.4417216316       10.0289458987        9.5530092098
 Ca         2.5812478364       10.0116948622       13.7453624648
 Ca         3.8896791248        7.1637588711        6.9888389611
  S         5.4302158324       10.0619949799        1.8750169204
  S         1.0500276569        7.1675584868        9.3494814296
  S         3.8559462566        7.1353383770       14.6482748764
  S         2.6060325852       10.0328185792        7.1778191615
  O        -0.6585637526        8.8921043961        2.9230206816
  O         0.6006159522        6.0149352462       10.1958674336
  O         4.2858886089        8.2708495402       13.6055569781
  O         3.0458708998       11.2010956625        6.3490286746
  O         5.8557606260       11.1875558230        2.9257350844
  O         1.4895322972        8.3188825354       10.2025572694
  O        -2.2040054214        6.0519126723       13.6010145729
  O         2.1610513664        8.8984546816        6.3041871157
  O         0.7718737701        9.3881000851        0.8861072262
  O         2.1741709053        6.6439012122        8.5248078522
  O         2.8606693181        7.7716470134       15.6255817626
  O         1.4884744884       10.5409773975        8.0181821722
  O         4.4249210968       10.6898701204        0.8861774639
  O        -0.0734991436        7.6885912156        8.5256807864
  O        -0.7780567401        6.5719717739       15.6257122805
  O         3.7336693821        9.4996276528        7.9917012207
  O         2.5710796516        8.5661397199        3.6722462445
  O         1.1141425441       11.2524835868       11.0431525204
  O         1.0581153617        8.6415962052       12.8654340449
  O         2.5214305618        5.9523185225        5.5145931329
  O        -0.4667435305        5.7849269495        3.6977281278
  O         4.0740401004        8.8219598836       11.0420544357
  O         4.0636753554       11.4367750906       12.8695283415
  O        -0.4372965775        8.3856309312        5.5135452546
  H         3.4696606113        8.8052213327        3.3070490466
  H        -1.1417258383        5.8311910232       10.6596891864
  H         0.1532421762        8.4115131464       13.2276037875
  H         4.7742051930       11.3860313904        5.8813775807
  H         1.7434279596       11.2789091030        3.3331521692
  H         3.2235845750        8.5156583254       10.6661165590
  H         1.8547472824        5.9307105883       13.1817841564
  H         0.4178497576        8.6939250365        5.8760266221
  H         2.5632670774        8.8057174214        4.6171369591
  H         1.0393822387       11.6258485887       11.9600403491
  H         1.0688635107        8.3979342770       11.9221555483
  H         2.5944247071        5.5759953661        4.6008329299
  H        -0.4594440007        5.5485393267        4.6433185842
  H         4.1495996729        8.4227679592       11.9469856061
  H         4.0722833937       11.6416113946       11.9156692092
  H        -0.5113745921        8.7562249652        4.5974749335
 Ca         6.7251884360        7.1675968396        2.7907413991
 Ca        -0.2391645207       10.0310497722        9.5548502150
 Ca        -3.0972625412       10.0434607316       13.7231663212
 Ca        -1.7924621794        7.1657580238        6.9916878849
  S        -0.2270423067       10.0202583154        1.8764725689
  S         6.7297705248        7.1618207131        9.3567959700
  S        -1.7943172886        7.1802217514       14.6565660592
  S        -3.0725498420       10.0346364086        7.1766983109
  O         5.0179284539        8.9148683702        2.9130703990
  O         6.2853252697        6.0105848956       10.2066631401
  O        -1.3749710944        8.3256501726       13.6203424661
  O        -2.6332416252       11.2030071272        6.3475432953
  O         0.1873841101       11.1666931209        2.9172655519
  O         7.1681225367        8.3186924412       10.2039906142
  O         3.4250472869        6.0058138176       13.6042893321
  O        -3.5183916588        8.8995996604        6.3038333447
  O         6.4293494173        9.4566882152        0.8853656816
  O         7.8529204695        6.6434944593        8.5277971274
  O        -2.8166085533        7.7788636530       15.6256447516
  O        -4.1898264279       10.5414766289        8.0179727325
  O        -1.2262039291       10.6284638915        0.8854985884
  O         5.6041315671        7.6764398041        8.5327674051
  O         4.8523169712        6.4940948576       15.6254240798
  O        -1.9440319680        9.5019829232        7.9893695548
  O        -3.1093665153        8.5662546324        3.6720456352
  O        -4.5649906996       11.2508651117       11.0428283733
  O         6.7351627492        8.6424880033       12.8689124826
  O         8.2021955161        5.9529621796        5.5111717592
  O         5.1959896767        5.7746791057        3.6720245425
  O        -1.6049603632        8.8202650429       11.0416930063
  O        -1.5721863227       11.4177749275       12.8359407674
  O         5.2425712621        8.3860956017        5.5097415757
  H        -2.2084193348        8.7982474831        3.3089597764
  H         4.5407577033        5.8350975034       10.6748918854
  H         5.8390220825        8.3907490231       13.2314393129
  H        -0.9025239490       11.3824278302        5.8795837968
  H        -3.9400612533       11.2887187650        3.3340096972
  H        -2.4558918690        8.5071005558       10.6728562172
  H         7.6028717579        5.9347679043       13.2318013130
  H         6.0951425086        8.7012151399        5.8728154820
  H        -3.1171896985        8.8074029257        4.6168333524
  H        -4.6554892980       11.6347817109       11.9539127028
  H         6.7470867936        8.4006332128       11.9248325770
  H         8.2864039511        5.5684505613        4.6014799741
  H         5.2065873762        5.5257337608        4.6146786201
  H        -1.5275540864        8.4452743427       11.9569222037
  H        -1.5691640396       11.6507019074       11.8889691810
  H         5.1598471496        8.7695437824        4.5996641188
