200
Lattice="12.76842 0.0 0.0 0.0 14.11374 0.0 0.0 0.0 46.1721071381954" Properties=species:S:1:pos:R:3 pbc="T T F"
Ca         2.1706314000       0.0000000000       3.1957579000
Ca         4.2135786000       0.0000000000       6.7126929000
Ca         5.3627364000       3.5284350000       3.1957579000
Ca         1.0214736000       3.5284350000       6.7126929000
S          1.0214736000       0.0000000000       6.7126929000
S          5.3627364000       0.0000000000       3.1957579000
S          4.2135786000       3.5284350000       6.7126929000
S          2.1706314000       3.5284350000       3.1957579000
O          0.1915263000       5.8572021000       6.7126929000
O          6.1926837000       5.8572021000       3.1957579000
O          6.1926837000       1.1996679000       3.1957579000
O          0.1915263000       1.1996679000       6.7126929000
O          3.3836313000       2.3287671000       6.7126929000
O          3.0005787000       2.3287671000       3.1957579000
O          3.0005787000       4.7281029000       3.1957579000
O          3.3836313000       4.7281029000       6.7126929000
O          1.9152630000       0.0000000000       7.9084508000
O          4.4689470000       0.0000000000       2.0000000000
O          1.9152630000       0.0000000000       5.5169350000
O          4.4689470000       0.0000000000       4.3915158000
O          5.1073680000       3.5284350000       7.9084508000
O          1.2768420000       3.5284350000       2.0000000000
O          5.1073680000       3.5284350000       5.5169350000
O          1.2768420000       3.5284350000       4.3915158000
Ca         2.1706314000       7.0568700000       3.1957579000
Ca         4.2135786000       7.0568700000       6.7126929000
Ca         5.3627364000      10.5853050000       3.1957579000
Ca         1.0214736000      10.5853050000       6.7126929000
S          1.0214736000       7.0568700000       6.7126929000
S          5.3627364000       7.0568700000       3.1957579000
S          4.2135786000      10.5853050000       6.7126929000
S          2.1706314000      10.5853050000       3.1957579000
O          0.1915263000      12.9140721000       6.7126929000
O          6.1926837000      12.9140721000       3.1957579000
O          6.1926837000       8.2565379000       3.1957579000
O          0.1915263000       8.2565379000       6.7126929000
O          3.3836313000       9.3856371000       6.7126929000
O          3.0005787000       9.3856371000       3.1957579000
O          3.0005787000      11.7849729000       3.1957579000
O          3.3836313000      11.7849729000       6.7126929000
O          1.9152630000       7.0568700000       7.9084508000
O          4.4689470000       7.0568700000       2.0000000000
O          1.9152630000       7.0568700000       5.5169350000
O          4.4689470000       7.0568700000       4.3915158000
O          5.1073680000      10.5853050000       7.9084508000
O          1.2768420000      10.5853050000       2.0000000000
O          5.1073680000      10.5853050000       5.5169350000
O          1.2768420000      10.5853050000       4.3915158000
Ca         8.5548414000       0.0000000000       3.1957579000
Ca        10.5977886000       0.0000000000       6.7126929000
Ca        11.7469464000       3.5284350000       3.1957579000
Ca         7.4056836000       3.5284350000       6.7126929000
S          7.4056836000       0.0000000000       6.7126929000
S         11.7469464000       0.0000000000       3.1957579000
S         10.5977886000       3.5284350000       6.7126929000
S          8.5548414000       3.5284350000       3.1957579000
O          6.5757363000       5.8572021000       6.7126929000
O         12.5768937000       5.8572021000       3.1957579000
O         12.5768937000       1.1996679000       3.1957579000
O          6.5757363000       1.1996679000       6.7126929000
O          9.7678413000       2.3287671000       6.7126929000
O          9.3847887000       2.3287671000       3.1957579000
O          9.3847887000       4.7281029000       3.1957579000
O          9.7678413000       4.7281029000       6.7126929000
O          8.2994730000       0.0000000000       7.9084508000
O         10.8531570000       0.0000000000       2.0000000000
O          8.2994730000       0.0000000000       5.5169350000
O         10.8531570000       0.0000000000       4.3915158000
O         11.4915780000       3.5284350000       7.9084508000
O          7.6610520000       3.5284350000       2.0000000000
O         11.4915780000       3.5284350000       5.5169350000
O          7.6610520000       3.5284350000       4.3915158000
Ca         8.5548414000       7.0568700000       3.1957579000
Ca        10.5977886000       7.0568700000       6.7126929000
Ca        11.7469464000      10.5853050000       3.1957579000
Ca         7.4056836000      10.5853050000       6.7126929000
S          7.4056836000       7.0568700000       6.7126929000
S         11.7469464000       7.0568700000       3.1957579000
S         10.5977886000      10.5853050000       6.7126929000
S          8.5548414000      10.5853050000       3.1957579000
O          6.5757363000      12.9140721000       6.7126929000
O         12.5768937000      12.9140721000       3.1957579000
O         12.5768937000       8.2565379000       3.1957579000
O          6.5757363000       8.2565379000       6.7126929000
O          9.7678413000       9.3856371000       6.7126929000
O          9.3847887000       9.3856371000       3.1957579000
O          9.3847887000      11.7849729000       3.1957579000
O          9.7678413000      11.7849729000       6.7126929000
O          8.2994730000       7.0568700000       7.9084508000
O         10.8531570000       7.0568700000       2.0000000000
O          8.2994730000       7.0568700000       5.5169350000
O         10.8531570000       7.0568700000       4.3915158000
O         11.4915780000      10.5853050000       7.9084508000
O          7.6610520000      10.5853050000       2.0000000000
O         11.4915780000      10.5853050000       5.5169350000
O          7.6610520000      10.5853050000       4.3915158000
O          7.9253161600       3.2879736100      10.9787182500
H          8.7556422600       3.7105679100      11.1982734000
H          7.3458020500       3.5033814800      11.7094676500
O          2.0033751500      11.7732718000      12.0099557000
H          1.8717959100      11.0051280000      11.4541915000
H          1.1384046700      11.9544106100      12.3777146500
O          4.1640780900       1.1264147000      16.5196501200
H          4.8197254300       1.0253370100      17.2096803500
H          3.3302277700       1.1789192500      16.9867355000
O          1.3191990400       6.6780295500      27.7709566500
H          1.2598890100       7.4638996400      27.2277049900
H          1.8650953500       6.0767162700      27.2643489200
O          3.3992437400      11.6848570800      20.8594221600
H          3.9569500000      12.2454899000      21.3987610400
H          2.8729942100      11.1925350900      21.4894319500
O          4.2032254400       9.5603964600      11.7265091900
H          4.1590246700       9.7248076000      10.7845712400
H          5.0028698800       9.0474096500      11.8433216700
O          9.5260137600       6.0896526300      15.8403193500
H          9.7586637000       5.4512422700      15.1661249700
H         10.1689666900       5.9496593100      16.5354777700
O          7.6172044000      11.2089197400      16.0845262800
H          8.0030027300      11.6444663700      15.3244666600
H          8.3552579700      10.7753700000      16.5129459200
O         11.3163511500      10.9832817500      11.0529088900
H         12.0211780200      11.3349826400      10.5090730700
H         11.0169690800      11.7306553200      11.5706298200
O          4.0158923200       7.7074801700      26.5163266600
H          4.5887036600       8.1407108900      27.1491221600
H          3.4288107700       8.3991827600      26.2111797500
O         11.7968491200      12.0577350300      23.7440905000
H         11.3939471800      12.9246274100      23.6951062000
H         12.4658453500      12.0649924400      23.0595299100
O          7.3967943200       4.5809216400      24.4968908800
H          6.8662369900       5.1989029500      23.9940590500
H          7.2117310400       4.7944532700      25.4114332100
O          1.0427722500       1.6638005200      20.8871378500
H          1.8705533500       1.4232352200      21.3032371500
H          0.4420415200       0.9562544400      21.1210886400
O         11.2052776700       8.0335968700      22.2006589100
H         10.4940477500       8.6141770800      21.9298998500
H         11.4567103000       8.3505163000      23.0681700300
O         10.8271868800       9.7606571300      17.6254741300
H         11.0510206800       9.3190002000      16.8062858500
H         11.4705610200      10.4652671400      17.7018042500
O          5.4396016600       9.8133478200      18.4402336900
H          6.1972362300       9.7760869900      19.0240430100
H          4.6842483300       9.8285017400      19.0279781400
O          7.1581766900      10.1689911900      21.7826318000
H          7.2997708800      11.0058705200      22.2251427000
H          6.2637109600       9.9217774000      22.0172554100
O          3.0017463500       4.7800088600      12.0345071800
H          2.7926057500       4.2739118400      12.8195918000
H          3.0174566600       4.1331677100      11.3291125600
O         10.9161296500       2.8211599500      21.0564724700
H         10.0324362500       2.9423464300      20.7091517900
H         11.4921807200       2.9881432400      20.3104740900
O          4.0192489700       2.6756375100      23.3578048200
H          4.1639970200       1.8925095900      22.8267770300
H          3.0783353200       2.8390507900      23.2929246600
N          6.0123630300       3.9869830500      15.8041676600
H          7.0137811200       3.9357538900      15.6343842900
H          5.6708998000       4.8056703500      15.3067312700
H          5.5957539000       3.1749005600      15.3555610800
N          3.0938172400       6.4037842300      19.3340525200
H          3.3237595600       6.6313678600      18.3698838500
H          2.0790120300       6.3914548900      19.3996832100
H          3.4108868700       5.4510291100      19.4953396000
N          6.6214128000       4.1740099000      20.7196914200
H          7.3912548700       4.6337194000      20.2397962700
H          6.2013292900       3.5306374100      20.0534402000
H          7.0311684900       3.6072551100      21.4580533100
N          1.8156747300      11.6509521000      16.0064647800
H          1.0732750700      11.3571431800      16.6412238400
H          1.9323155400      12.6625812700      16.0647857500
H          1.5687994900      11.3916656900      15.0513610300
H          2.6883088400      11.1924182400      16.2684884900
N         11.2751819100       2.0522954900      13.5823877700
H         11.9695925400       2.7817376300      13.7439675700
H         11.1520652400       1.9163259700      12.5790161700
H         10.3867713900       2.3302423700      13.9993677300
H         11.5922984700       1.1808759700      14.0071996300
N          7.9567142700       9.9481413100      10.9794443400
H          7.7476073100       9.9532707200      11.9777669200
H          7.6978217800       9.0449302800      10.5824751800
H          8.9545651600      10.1072612400      10.8402522300
H          7.4268628200      10.6871029900      10.5172830400
N          9.9421026600      12.5188197300      20.5159264400
H          9.3272123000      12.5097099900      19.7021532300
H         10.8369953000      12.0952576000      20.2706464200
H          9.5113470100      11.9887946100      21.2735034700
H         10.0928560400      13.4815167300      20.8174026700
P          8.5010004200      10.9234217000      25.6100220100
O          9.4359344200      11.6688998300      26.5484040200
O          9.3282224500      10.0530211700      24.6458090500
O          7.6695894400      11.9368686400      24.8017639600
O          7.5395825800      10.0075882300      26.4477718500
H          6.9455855700       9.4417548200      26.9653625200
P          4.8965743600       1.9142784400      26.8133047800
O          5.2851463100       2.4738032400      28.1721071400
O          4.9873223800       0.3773025700      26.8460154400
O          5.8546856300       2.4623365900      25.7394076500
O          3.4259288300       2.3445305600      26.4712743200
H          2.5173134400       2.6103551200      26.2599561300
