     200
 i =        0, time =        0.000, E =     -2369.1257692394
 Ca        -0.0000192889       -0.0000165064        0.0000330249
 Ca         0.0000103085        0.0000022952       -0.0000487254
 Ca         0.0000681427        0.0000616818       -0.0000443284
 Ca        -0.0000082848        0.0000147190       -0.0000564959
  S        -0.0000163577        0.0000039735       -0.0001187939
  S        -0.0000181126        0.0000718384       -0.0000424854
  S        -0.0000000864       -0.0000016370       -0.0001550566
  S        -0.0000954180        0.0000421888       -0.0000321487
  O         0.0000011301       -0.0000129480        0.0000590995
  O        -0.0000764141        0.0000195191       -0.0000392111
  O        -0.0000617041       -0.0000367826       -0.0000820565
  O        -0.0000237707       -0.0000196831        0.0000133675
  O        -0.0000271241       -0.0000435476        0.0000246853
  O         0.0000219273       -0.0000327490       -0.0000570781
  O         0.0000455047        0.0000198877       -0.0000328301
  O        -0.0000009166        0.0000264451        0.0000543450
  O         0.0000406908        0.0000536844        0.0000537492
  O        -0.0000159319        0.0000064050        0.0000428625
  O        -0.0000183274       -0.0000010050        0.0000143942
  O        -0.0000055771       -0.0000192514        0.0000452115
  O         0.0000336487        0.0000186561        0.0000277967
  O         0.0000627185       -0.0000384407        0.0000771977
  O        -0.0000527084        0.0000202707        0.0000491384
  O         0.0000311436       -0.0000160740       -0.0000073780
 Ca        -0.0000349689        0.0000101150       -0.0000400067
 Ca         0.0000215353        0.0000046877       -0.0000881459
 Ca         0.0000564274       -0.0000438688        0.0000362217
 Ca        -0.0000332592       -0.0000052234       -0.0000579319
  S        -0.0000194256        0.0000032015       -0.0001815483
  S         0.0000225014       -0.0000315460       -0.0000647936
  S        -0.0000309251       -0.0000224092       -0.0001436298
  S        -0.0001115028       -0.0001002103       -0.0000093276
  O        -0.0000115920       -0.0000114277        0.0000083381
  O         0.0000101143       -0.0000314877       -0.0000585958
  O        -0.0000072867        0.0000669422       -0.0000093266
  O         0.0000075630        0.0000201706        0.0000259403
  O         0.0000029250        0.0000171301        0.0000285544
  O         0.0000392978       -0.0000050976       -0.0000548629
  O         0.0000211870        0.0000511015       -0.0000793784
  O        -0.0000051062        0.0000123874       -0.0000042122
  O         0.0000405339        0.0000120471        0.0000914793
  O        -0.0000303991       -0.0000084846       -0.0000136530
  O        -0.0000240602        0.0000390760        0.0000469360
  O        -0.0000181228       -0.0000292570        0.0001282180
  O         0.0000482495       -0.0000032994        0.0001407021
  O         0.0000192039        0.0000348292       -0.0000697948
  O        -0.0000250708        0.0000002468        0.0000261736
  O         0.0000798916        0.0000260127       -0.0000279336
 Ca         0.0000302120       -0.0000019625       -0.0000627622
 Ca        -0.0000087806        0.0000005533       -0.0000764096
 Ca        -0.0000798764        0.0000549240       -0.0001276829
 Ca         0.0000355602        0.0000106319       -0.0000950594
  S         0.0000254267        0.0000444712       -0.0001468114
  S        -0.0001697396        0.0000584965       -0.0001067635
  S        -0.0000161739        0.0000120404       -0.0001856350
  S         0.0000683961        0.0000542567       -0.0000909793
  O        -0.0000095840       -0.0000254240        0.0000508131
  O         0.0000338626       -0.0000300496       -0.0000334367
  O         0.0000239789       -0.0000105472       -0.0000146396
  O        -0.0000264683       -0.0000103963        0.0000180700
  O        -0.0000168102       -0.0000172135        0.0000562842
  O         0.0000118493       -0.0000346591        0.0000290923
  O         0.0000133144       -0.0000057274       -0.0000135797
  O         0.0000006693       -0.0000015394        0.0000261991
  O         0.0000314816       -0.0000044993        0.0001052632
  O         0.0001131003       -0.0000170412        0.0000690333
  O        -0.0000328037       -0.0000201896        0.0000475724
  O        -0.0000032763       -0.0000175828        0.0000022561
  O         0.0000420069        0.0000164759        0.0000932604
  O        -0.0000793649       -0.0000650441       -0.0000397857
  O        -0.0000032019        0.0000075835        0.0000864911
  O        -0.0000809527        0.0000645988        0.0001742126
 Ca        -0.0000069102       -0.0000140953       -0.0003040492
 Ca         0.0000028564       -0.0000110286       -0.0001133287
 Ca        -0.0000352506       -0.0000504075       -0.0001290258
 Ca         0.0000091775       -0.0000108414       -0.0000971919
  S        -0.0000086475       -0.0000066276       -0.0001938170
  S        -0.0001440779       -0.0000395899       -0.0002133237
  S        -0.0000188434       -0.0000087277       -0.0001554489
  S         0.0001333800       -0.0000666467        0.0000873969
  O        -0.0000145565       -0.0000139488        0.0000157169
  O         0.0000968087       -0.0000671546       -0.0000787475
  O         0.0000750705        0.0000899871        0.0000011356
  O        -0.0000169105        0.0000434713        0.0000418053
  O         0.0000058470        0.0000202962        0.0000354143
  O        -0.0000001960        0.0000214363       -0.0000108935
  O        -0.0000353642       -0.0000058245       -0.0000364398
  O        -0.0000154859        0.0000020165        0.0000196722
  O         0.0000400121        0.0000032674        0.0001015746
  O         0.0001093190        0.0000361255        0.0000318606
  O        -0.0000243400       -0.0000009003        0.0000970147
  O         0.0000250232        0.0000614759        0.0000909456
  O         0.0000247040        0.0000098002        0.0001294417
  O        -0.0001352814        0.0000494614       -0.0000631471
  O        -0.0000133211        0.0000052249        0.0000037663
  O        -0.0000345361        0.0000179487        0.0000895977
  O        -0.0000678639       -0.0000424238        0.0000546161
  H         0.0000459106        0.0000337241       -0.0000294838
  H         0.0000163496        0.0000102319       -0.0000121478
  O        -0.0000274240       -0.0000120968        0.0000207532
  H         0.0000181346        0.0000067033       -0.0000014938
  H         0.0000095985        0.0000108696       -0.0000175101
  O         0.0000361278        0.0000304828        0.0000505848
  H        -0.0000034470       -0.0000481400       -0.0000195952
  H        -0.0000208600        0.0000067005       -0.0000335962
  O         0.0007631161        0.0009524672        0.0003293940
  H         0.0001918079       -0.0003602588        0.0003521250
  H        -0.0009536798        0.0003395850       -0.0005907717
  O         0.0000428126       -0.0000129410        0.0000208899
  H        -0.0000339251       -0.0000472792        0.0000364385
  H        -0.0000077012        0.0000252839        0.0000004666
  O        -0.0000043285        0.0000175219        0.0000689268
  H         0.0000129763        0.0000031994       -0.0000449701
  H        -0.0000042384        0.0000046607       -0.0000240650
  O        -0.0000221095       -0.0000278499        0.0000313595
  H         0.0000239064       -0.0000215377        0.0000048261
  H        -0.0000277367        0.0000127701       -0.0000348972
  O        -0.0000293314        0.0000733309       -0.0000009618
  H         0.0000099685       -0.0000872163        0.0000270551
  H         0.0000273430        0.0000152637       -0.0000327594
  O        -0.0000116712        0.0000039421        0.0000697694
  H         0.0000253921        0.0000035762       -0.0000323721
  H        -0.0000102053       -0.0000007110       -0.0000318195
  O         0.0000440407       -0.0002572412       -0.0000392977
  H        -0.0001615042        0.0000028776       -0.0001947216
  H         0.0003524214        0.0001271045        0.0002035077
  O        -0.0000495124        0.0000201332        0.0001245984
  H        -0.0001342191       -0.0000181521        0.0001207827
  H         0.0000140241       -0.0000010878        0.0000110526
  O        -0.0000684304       -0.0000780534       -0.0002811095
  H         0.0000032391       -0.0000073087        0.0000374251
  H        -0.0000714883       -0.0000021439        0.0000937993
  O         0.0000142710        0.0001638377        0.0000957365
  H        -0.0000441008       -0.0002280388       -0.0001491181
  H         0.0000046489        0.0000363853        0.0000433280
  O         0.0001578596        0.0000703322        0.0001308263
  H        -0.0000379648        0.0000358654       -0.0000027771
  H        -0.0000897462       -0.0000593687       -0.0001453310
  O         0.0000104342        0.0000049536        0.0000818872
  H        -0.0000029662       -0.0000036153       -0.0000457374
  H        -0.0000065152       -0.0000027637       -0.0000351882
  O         0.0000026862        0.0000070481        0.0000335742
  H         0.0000054133        0.0000054986       -0.0000283735
  H        -0.0000116452       -0.0000077672       -0.0000027179
  O        -0.0000563806        0.0000260140        0.0000464760
  H        -0.0000611388        0.0000348428        0.0000461328
  H         0.0000520121       -0.0000459172        0.0000300289
  O         0.0000292355       -0.0000030284        0.0000287579
  H        -0.0000111688        0.0000083358       -0.0000015633
  H        -0.0000210046       -0.0000170459       -0.0000313828
  O        -0.0000216971        0.0000129846       -0.0000191879
  H         0.0000111423       -0.0000414331       -0.0000882256
  H        -0.0000196069       -0.0000045903        0.0000070002
  O        -0.0000602904       -0.0000165510        0.0000169548
  H         0.0000568316        0.0001463147       -0.0000551898
  H         0.0000216230        0.0000224986        0.0000213737
  N        -0.0000482738       -0.0000362111       -0.0000638706
  H         0.0000293513        0.0000094623        0.0000117617
  H        -0.0000068028        0.0000418240        0.0000549728
  H         0.0000207905       -0.0000146748        0.0000206827
  N         0.0000634142        0.0000361843       -0.0000130168
  H         0.0000157920       -0.0000219107       -0.0000189116
  H         0.0000129255       -0.0000207236       -0.0000013757
  H        -0.0000173972        0.0000068589        0.0000250680
  N        -0.0000141660       -0.0000100765        0.0000320352
  H         0.0000137170        0.0000226748        0.0000023588
  H         0.0000343870       -0.0000121623        0.0000312328
  H        -0.0000181814        0.0000129687       -0.0000509918
  N        -0.0000001976       -0.0000235413        0.0000558092
  H         0.0000008342       -0.0000012383       -0.0000134568
  H         0.0000338596       -0.0000199913       -0.0000185705
  H         0.0000078389        0.0000159909       -0.0000289984
  H         0.0000029318        0.0000108281       -0.0000104576
  N        -0.0000205503       -0.0000038138        0.0000155903
  H        -0.0000211210       -0.0000122618       -0.0000055047
  H         0.0000059809        0.0000200420       -0.0000212933
  H         0.0000024887        0.0000009125        0.0000009618
  H        -0.0000271306        0.0000217377        0.0000194124
  N        -0.0000262648        0.0000411506        0.0000143389
  H         0.0000028468        0.0000015339       -0.0000359976
  H         0.0000153499       -0.0000428937       -0.0000410837
  H        -0.0000127164        0.0000008466       -0.0000188206
  H         0.0000010957        0.0000060961       -0.0000160479
  N        -0.0000137859       -0.0000281761        0.0000466789
  H         0.0000021807       -0.0000043673       -0.0000108074
  H         0.0000093251        0.0000157674       -0.0000049032
  H         0.0000469604       -0.0000041402       -0.0000317278
  H         0.0001221080        0.0000278062        0.0000457762
  P         0.0004995014       -0.0000756869        0.0003549009
  O        -0.0002723153       -0.0009770951       -0.0006399116
  O        -0.0004884707       -0.0000022378       -0.0000604931
  O        -0.0001160142       -0.0000049014       -0.0000754133
  O         0.0001802481       -0.0002809518        0.0004017125
  H         0.0002529903        0.0000936420       -0.0000432455
  P        -0.0003396097        0.0000677653        0.0003362503
  O         0.0000452007       -0.0000121458       -0.0000344830
  O        -0.0004421367        0.0004330866        0.0002410210
  O         0.0001485671       -0.0012989615       -0.0003540394
  O         0.0005756368       -0.0001256865        0.0002962728
  H         0.0000334798       -0.0000263217        0.0001194925
