     200
 i =        0, time =        0.000, E =     -2369.1257692394
 Ca         0.0002286195       -0.0001357315       -0.0000396886
 Ca         0.0000866531       -0.0000590502       -0.0000690371
 Ca        -0.0000479621       -0.0000961320       -0.0001415992
 Ca         0.0002932100       -0.0002076337        0.0001015142
  S         0.0003052522       -0.0001187512        0.0000445304
  S         0.0001094056       -0.0001124140        0.0002186175
  S         0.0000104074       -0.0001101466        0.0001368321
  S        -0.0002302319       -0.0001844145       -0.0001200111
  O        -0.0002477597        0.0002174232       -0.0002060961
  O        -0.0000346438        0.0004580915       -0.0001428319
  O        -0.0000850376        0.0003744472       -0.0001476998
  O         0.0001758419       -0.0000716187        0.0002849649
  O         0.0000134984        0.0000859903       -0.0002663292
  O        -0.0001493174       -0.0000503922        0.0002094586
  O        -0.0000192752        0.0004062393        0.0000135354
  O         0.0004510127        0.0001375258        0.0000714973
  O        -0.0000087280       -0.0003271317        0.0002557835
  O        -0.0000630416        0.0000955154        0.0000886873
  O         0.0001398469        0.0000074549       -0.0000430689
  O        -0.0001393790        0.0002046296        0.0001136422
  O         0.0001431110       -0.0000245414        0.0004710102
  O        -0.0002453942        0.0000063960       -0.0000928771
  O         0.0003415663        0.0000080668       -0.0001247659
  O        -0.0006176680       -0.0000558006        0.0000386685
 Ca        -0.0001434899        0.0001134916       -0.0000914534
 Ca         0.0002196170        0.0001422759        0.0001849718
 Ca         0.0000830395       -0.0002178178        0.0000676113
 Ca         0.0000578047        0.0000077631        0.0000027846
  S        -0.0002583756       -0.0000367885        0.0000964989
  S        -0.0001952264        0.0000058359       -0.0000621633
  S        -0.0000063220        0.0002033959        0.0001468200
  S        -0.0001010310        0.0000945334        0.0001606451
  O         0.0004719523        0.0002568112        0.0002739684
  O         0.0000869483       -0.0002106164       -0.0001629649
  O         0.0004360583        0.0001614602       -0.0001495458
  O        -0.0002716624       -0.0002460919        0.0000381250
  O        -0.0003796318        0.0001879068       -0.0001022789
  O        -0.0000968395        0.0004036586        0.0001207485
  O         0.0000142856       -0.0000672691       -0.0000090585
  O        -0.0003265338       -0.0000117093        0.0000317789
  O         0.0000505731        0.0000295783       -0.0003607641
  O        -0.0001067966       -0.0002417072       -0.0001253894
  O        -0.0001160259       -0.0001058087       -0.0000916541
  O         0.0000695794       -0.0001423104       -0.0000209774
  O        -0.0003647329       -0.0003739007       -0.0000174390
  O        -0.0000518299       -0.0001172327       -0.0002211933
  O         0.0001464239        0.0000576021       -0.0004633313
  O         0.0001167071        0.0003311639       -0.0000018453
 Ca        -0.0002121476       -0.0000389005       -0.0000573537
 Ca         0.0000990545       -0.0000732014        0.0000427694
 Ca         0.0000893479       -0.0000106646       -0.0000104350
 Ca         0.0001699811       -0.0001478511        0.0001603023
  S         0.0000926214        0.0003325201        0.0001579477
  S         0.0000185956        0.0000158333        0.0000325656
  S        -0.0002403781       -0.0000477561       -0.0002745591
  S        -0.0001250756       -0.0001531507       -0.0000369277
  O         0.0002884390       -0.0000482878       -0.0001240636
  O         0.0004147529       -0.0001066647        0.0003014708
  O         0.0000586386       -0.0000293302        0.0003115263
  O         0.0000799940       -0.0001043732       -0.0000857852
  O        -0.0001031412        0.0001551800        0.0002431686
  O         0.0001189117       -0.0002479860        0.0000284639
  O        -0.0000337040        0.0000385493       -0.0000869555
  O         0.0002359645       -0.0001843866        0.0001767950
  O        -0.0002038641        0.0002066191       -0.0003116773
  O         0.0000339542       -0.0001919842        0.0002976591
  O        -0.0001594989        0.0001696966        0.0002812829
  O         0.0002873254        0.0001604643        0.0003609486
  O         0.0001239836        0.0000516507        0.0000384348
  O         0.0002335416        0.0000651636       -0.0005302997
  O         0.0001723618        0.0002112061        0.0005030518
  O        -0.0000111123       -0.0002120249       -0.0001197679
 Ca         0.0000946620       -0.0002551665        0.0000895072
 Ca        -0.0000864925        0.0001989751       -0.0001191629
 Ca        -0.0001155020       -0.0000902448       -0.0000715909
 Ca        -0.0001061874       -0.0002660634       -0.0000580088
  S        -0.0001487807       -0.0002393304        0.0002888310
  S        -0.0000894877        0.0000099506       -0.0002373339
  S         0.0000663875       -0.0000527355       -0.0001925591
  S         0.0000355589        0.0003230145       -0.0000923800
  O        -0.0001082039        0.0001911320        0.0004340641
  O        -0.0004311849        0.0000896375       -0.0002281801
  O        -0.0000272993       -0.0003979567       -0.0000126607
  O        -0.0001328471        0.0002612616        0.0001888852
  O        -0.0002254310       -0.0000934900       -0.0001230875
  O        -0.0000827474        0.0001070762        0.0002149005
  O        -0.0000212518        0.0003537288       -0.0000394124
  O         0.0001958982       -0.0001815418        0.0001327612
  O         0.0003867074        0.0002493268       -0.0002409630
  O        -0.0000538117        0.0001283936       -0.0000627533
  O        -0.0001441149       -0.0000089614       -0.0002427183
  O         0.0001138004        0.0000333005        0.0000122925
  O        -0.0000763461        0.0000036987       -0.0004469751
  O        -0.0000702094        0.0001463483       -0.0002180809
  O        -0.0002299951        0.0000458165        0.0002959200
  O         0.0000894446        0.0000504451       -0.0000533240
  O         0.0001835866        0.0001069535       -0.0003364973
  H         0.0003646255        0.0006448576       -0.0007831699
  H        -0.0000543311        0.0005505585        0.0000050085
  O         0.0000041409       -0.0002143799        0.0000390242
  H        -0.0009817643       -0.0007594219       -0.0003808043
  H         0.0009867597       -0.0007063930       -0.0003334998
  O         0.0000643946       -0.0002508977       -0.0000884716
  H         0.0003687941       -0.0003236143       -0.0000780923
  H         0.0024895550        0.0008581600        0.0000419983
  O        -0.0003761710        0.0001138662        0.0003267467
  H         0.0008966186       -0.0018433974        0.0012537519
  H        -0.0014265589        0.0009139768       -0.0001390513
  O        -0.0000313661        0.0000064716        0.0001746770
  H         0.0010877875       -0.0004070379        0.0010240318
  H         0.0009752931       -0.0011855907       -0.0004388297
  O         0.0003255725        0.0003064630        0.0001700068
  H        -0.0024536438       -0.0006005750       -0.0000122162
  H         0.0003592432       -0.0001959032        0.0008809937
  O        -0.0005001682        0.0002454630       -0.0004921389
  H         0.0007366181       -0.0001606111       -0.0012745731
  H         0.0000087120       -0.0009173880       -0.0003012413
  O         0.0001679397        0.0001879552        0.0000526231
  H        -0.0000311488        0.0006245119       -0.0015119015
  H         0.0012829362       -0.0008001533        0.0002931143
  O         0.0000980747       -0.0001181457        0.0001374344
  H        -0.0000887999       -0.0008797396        0.0003982799
  H         0.0001204253       -0.0008641644       -0.0001621277
  O         0.0001092025        0.0004065464       -0.0001604867
  H        -0.0007350090        0.0002468594       -0.0005391116
  H         0.0010600222       -0.0004180860        0.0010659789
  O        -0.0002117702       -0.0003240502       -0.0002549547
  H         0.0004334096       -0.0002677243        0.0001927630
  H         0.0009878920       -0.0013089333       -0.0009406772
  O        -0.0001018508       -0.0002610788        0.0001513925
  H        -0.0009653260        0.0013020158        0.0001483597
  H        -0.0000881819       -0.0003103561       -0.0000173381
  O         0.0004493177        0.0002359918       -0.0002449267
  H        -0.0002895029        0.0009337822        0.0008649717
  H        -0.0002086823        0.0001929294       -0.0001615606
  O        -0.0002161589       -0.0001225635        0.0002090984
  H        -0.0001751687        0.0005844880       -0.0000287994
  H         0.0005026260        0.0013954208        0.0001420445
  O        -0.0000204217        0.0000551195        0.0000578040
  H         0.0014923531        0.0006278807        0.0007724132
  H         0.0005532940        0.0002011107        0.0018942752
  O        -0.0000487182        0.0000976773       -0.0001105422
  H         0.0015298391        0.0004896609        0.0000425890
  H         0.0006510353       -0.0001448596       -0.0009915252
  O        -0.0003396743       -0.0001204505       -0.0001590086
  H        -0.0007649704        0.0000863547       -0.0003257795
  H         0.0000346636        0.0001470288        0.0003197836
  O        -0.0003550001       -0.0001735205       -0.0001659913
  H         0.0005351260       -0.0003591729        0.0008954082
  H         0.0001068158       -0.0005559874       -0.0001448338
  O         0.0002189514        0.0003564933       -0.0004727196
  H         0.0009468952        0.0006254239        0.0001915870
  H        -0.0004377323       -0.0008681065       -0.0002323919
  O        -0.0002584319       -0.0003174156       -0.0001207029
  H        -0.0004776632       -0.0010672749        0.0015455477
  H        -0.0004382721       -0.0018347224        0.0011995509
  N         0.0000096640        0.0003363772       -0.0001950969
  H        -0.0006121213       -0.0011947976       -0.0000171072
  H         0.0000521920       -0.0022681656       -0.0002609006
  H         0.0004859349       -0.0009053567        0.0001570345
  N         0.0005764285        0.0000130084        0.0002043842
  H        -0.0005428647        0.0008161102        0.0010210748
  H         0.0000168187        0.0006943889       -0.0007174524
  H        -0.0009536013        0.0008736434        0.0004975027
  N        -0.0003133355       -0.0000434989       -0.0002612695
  H        -0.0011011446       -0.0009590355       -0.0012704952
  H         0.0010478786        0.0000000310       -0.0000391568
  H         0.0001236498       -0.0000995075        0.0001766606
  N        -0.0001102206        0.0000372566       -0.0002836009
  H        -0.0010162309       -0.0006341917       -0.0000014776
  H         0.0003760601       -0.0004656468       -0.0009951595
  H        -0.0013304247        0.0000643659        0.0011063636
  H        -0.0004584453        0.0024950431       -0.0000946641
  N        -0.0000447817       -0.0001143281        0.0002361411
  H         0.0012166179        0.0008081685       -0.0009211861
  H        -0.0009275955       -0.0014277079       -0.0001062798
  H         0.0018211874        0.0002660162        0.0011968007
  H         0.0001042379        0.0009539935        0.0000660294
  N        -0.0001770344        0.0001986987       -0.0002549241
  H        -0.0004347063        0.0007286208        0.0002550062
  H        -0.0006459974        0.0006647262       -0.0005911646
  H         0.0010492365        0.0000118861       -0.0002683409
  H         0.0002986883        0.0001175405       -0.0002855082
  N        -0.0003890382       -0.0001799800       -0.0001092838
  H         0.0003935292        0.0003974211       -0.0004291196
  H        -0.0008056605        0.0010991549        0.0003361605
  H         0.0034878877       -0.0008639932       -0.0001687443
  H         0.0012580890       -0.0006176455        0.0011947783
  P         0.0001983032        0.0000962795        0.0000517483
  O        -0.0000519749        0.0000563491        0.0002464916
  O         0.0003028739        0.0003079836       -0.0002796602
  O        -0.0000668874        0.0002473007        0.0000030537
  O        -0.0002224327        0.0000467338        0.0001210803
  H         0.0002673313        0.0007380449       -0.0021071436
  P        -0.0003506060        0.0000463298        0.0002664790
  O        -0.0000713301        0.0000102872       -0.0002941195
  O         0.0004103488        0.0001124563       -0.0001699232
  O         0.0000076414       -0.0004998103        0.0003415922
  O         0.0001603288       -0.0000090555        0.0005244793
  H        -0.0002761005        0.0004507483       -0.0006911176
