464
Lattice="24.0688 0.0 0.0 -24.185854652055536 25.348880266190136 0.0 0.0 0.0 36.8296146567733" Properties=species:S:1:pos:R:3:spacegroup_kinds:I:1:tags:I:1 pbc="T T T"
Ca       2.82412792       4.24467000       4.03992704        0        1
Ca      -3.22233574      10.58189007       7.50447704        0        1
Ca      -2.88265524       8.42977013       4.03992704        0        1
Ca       3.16380842       2.09255007       7.50447704        0        1
Ca      -9.44900454      10.59709940       4.35312236        1        1
Ca      -3.40254087       4.25987933       7.81767236        1        1
Ca       9.39047721       2.07734074       4.35312236        1        1
Ca       3.34401355       8.41456080       7.81767236        1        1
Ca       6.01720000       0.00000000       5.48949476        2        1
Ca      -0.02926366       6.33722007       2.02494476        2        1
Ca       0.00000000       0.00000000       2.00000000        3        1
Ca      -6.04646366       6.33722007       5.46455000        3        1
S        2.68825366       1.09253674       4.15217846        4        1
S       -3.35821000       7.42975681       7.61672846        4        1
S       -2.74678099      11.58190339       4.15217846        4        1
S        3.29968267       5.24468333       7.61672846        4        1
S       -0.03017706       3.14706349       2.01039365        5        1
S       -6.07664072       9.48428355       5.47494365        5        1
S       -0.02835027       9.52737665       2.01039365        5        1
S        6.01811339       3.19015658       5.47494365        5        1
S        2.66661448       7.34230317       4.30323284        6        1
S        8.71307814       1.00508310       7.76778284        6        1
S       -2.72514181       5.33213696       4.30323284        6        1
S       -8.77160547      11.66935703       7.76778284        6        1
O        3.67211461       0.16983750       4.67671133        7        1
O       -2.37434905       6.50705756       8.14126133        7        1
O       -3.73064194      12.50460264       4.67671133        7        1
O        2.31582172       6.16738257       8.14126133        7        1
O        1.50150462       0.34474477       3.79394399        8        1
O       -4.54495905       6.68196484       7.25849399        8        1
O       -1.56003194      12.32969536       3.79394399        8        1
O        4.48643172       5.99247529       7.25849399        8        1
O        3.22265629       1.85807292       3.01234151        9        1
O       -2.82380737       8.19529299       6.47689151        9        1
O       -3.28118362      10.81636721       3.01234151        9        1
O        2.76528004       4.47914714       6.47689151        9        1
O        2.33699832       2.10268962       5.19085055       10        1
O       -3.70946535       8.43990968       8.65540055       10        1
O       -2.39552564      10.57175052       5.19085055       10        1
O        3.65093802       4.23453045       8.65540055       10        1
O       -0.78508206       2.18000370       2.82872036       11        1
O       -6.83154572       8.51722377       6.29327036       11        1
O        0.72655473      10.49443643       2.82872036       11        1
O        6.77301840       4.15721636       6.29327036       11        1
O        6.93554518       2.31942254       4.66423895       12        1
O        0.88908152       8.65664261       8.12878895       12        1
O       -6.99407251      10.35501759       4.66423895       12        1
O       -0.94760884       4.01779752       8.12878895       12        1
O        0.76475752       4.04568129       2.87306660       13        1
O       -5.28170615      10.38290136       6.33761660       13        1
O       -0.82328484       8.62875884       2.87306660       13        1
O        5.22317882       2.29153878       6.33761660       13        1
O        2.83127788       8.42977013       3.30959990       14        1
O        8.87774154       2.09255007       6.77414990       14        1
O       -2.88980520       4.24467000       3.30959990       14        1
O       -8.93626886      10.58189007       6.77414990       14        1
O        2.43986583       7.97222284       5.58442343       15        1
O        8.48632949       1.63500278       2.11987343       15        1
O       -2.49839316       4.70221729       5.58442343       15        1
O       -8.54485682      11.03943736       2.11987343       15        1
O        3.86195897       6.48931335       4.29976829       16        1
O        9.90842263       0.15209328       7.76431829       16        1
O       -3.92048630       6.18512678       4.29976829       16        1
O       -9.96694996      12.52234685       7.76431829       16        1
O        1.52968054       6.49184824       3.97756514       17        1
O        7.57614421       0.15462817       7.44211514       17        1
O       -1.58820787       6.18259190       3.97756514       17        1
O       -7.63467153      12.51981196       7.44211514       17        1
O        5.11050226       4.01906497       4.58940467       18        1
O       -0.93596140      10.35628503       8.05395467       18        1
O       -5.16902959       8.65537517       4.58940467       18        1
O        0.87743407       2.31815510       8.05395467       18        1
O        6.01720000       0.00000000       3.09826235       19        1
O       -0.02926366       6.33722007       6.56281235       19        1
O        0.56270546      10.53372719       5.51928989       20        1
O        6.60916912       4.19650713       2.05473989       20        1
O       -0.62123279       2.14071294       5.51928989       20        1
O       -6.66769645       8.47793301       2.05473989       20        1
H        0.36146983      10.32966871       6.16854656       21        1
H        6.40793349       3.99244864       2.70399656       21        1
H       -0.41999716       2.34477142       6.16854656       21        1
H       -6.46646082       8.68199149       2.70399656       21        1
H       -0.05897332      10.16490099       5.26083446       22        1
H        5.98749035       3.82768092       8.72538446       22        1
H        0.00044599       2.50953915       5.26083446       22        1
H       -6.04601767       8.84675921       8.72538446       22        1
H        6.41334024       0.21546548       2.68320926       23        1
H        0.36687657       6.55268555       6.14775926       23        1
H       -6.47186756      12.45897465       2.68320926       23        1
H       -0.42540390       6.12175458       6.14775926       23        1
Ca      -9.26879941      16.91911013       4.03992704        0        1
Ca     -15.31526307      23.25633020       7.50447704        0        1
Ca     -14.97558257      21.10421027       4.03992704        0        1
Ca      -8.92911891      14.76699020       7.50447704        0        1
Ca     -21.54193186      23.27153953       4.35312236        1        1
Ca     -15.49546820      16.93431946       7.81767236        1        1
Ca      -2.70245011      14.75178087       4.35312236        1        1
Ca      -8.74891378      21.08900094       7.81767236        1        1
Ca      -6.07572733      12.67444013       5.48949476        2        1
Ca     -12.12219099      19.01166020       2.02494476        2        1
Ca     -12.09292733      12.67444013       2.00000000        3        1
Ca     -18.13939099      19.01166020       5.46455000        3        1
S       -9.40467366      13.76697687       4.15217846        4        1
S      -15.45113732      20.10419694       7.61672846        4        1
S      -14.83970832      24.25634353       4.15217846        4        1
S       -8.79324465      17.91912346       7.61672846        4        1
S      -12.12310438      15.82150362       2.01039365        5        1
S      -18.16956804      22.15872368       5.47494365        5        1
S      -12.12127760      22.20181678       2.01039365        5        1
S       -6.07481393      15.86459671       5.47494365        5        1
S       -9.42631285      20.01674330       4.30323284        6        1
S       -3.37984918      13.67952324       7.76778284        6        1
S      -14.81806913      18.00657710       4.30323284        6        1
S      -20.86453280      24.34379716       7.76778284        6        1
O       -8.42081271      12.84427763       4.67671133        7        1
O      -14.46727638      19.18149770       8.14126133        7        1
O      -15.82356927      25.17904277       4.67671133        7        1
O       -9.77710560      18.84182270       8.14126133        7        1
O      -10.59142271      13.01918490       3.79394399        8        1
O      -16.63788637      19.35640497       7.25849399        8        1
O      -13.65295927      25.00413549       3.79394399        8        1
O       -7.60649561      18.66691543       7.25849399        8        1
O       -8.87027103      14.53251306       3.01234151        9        1
O      -14.91673470      20.86973312       6.47689151        9        1
O      -15.37411095      23.49080734       3.01234151        9        1
O       -9.32764728      17.15358728       6.47689151        9        1
O       -9.75592901      14.77712975       5.19085055       10        1
O      -15.80239267      21.11434982       8.65540055       10        1
O      -14.48845297      23.24619065       5.19085055       10        1
O       -8.44198931      16.90897058       8.65540055       10        1
O      -12.87800939      14.85444384       2.82872036       11        1
O      -18.92447305      21.19166390       6.29327036       11        1
O      -11.36637259      23.16887656       2.82872036       11        1
O       -5.31990893      16.83165650       6.29327036       11        1
O       -5.15738215      14.99386268       4.66423895       12        1
O      -11.20384581      21.33108274       8.12878895       12        1
O      -19.08699983      23.02945772       4.66423895       12        1
O      -13.04053617      16.69223766       8.12878895       12        1
O      -11.32816981      16.72012142       2.87306660       13        1
O      -17.37463347      23.05734149       6.33761660       13        1
O      -12.91621217      21.30319898       2.87306660       13        1
O       -6.86974851      14.96597891       6.33761660       13        1
O       -9.26164945      21.10421027       3.30959990       14        1
O       -3.21518579      14.76699020       6.77414990       14        1
O      -14.98273253      16.91911013       3.30959990       14        1
O      -21.02919619      23.25633020       6.77414990       14        1
O       -9.65306149      20.64666298       5.58442343       15        1
O       -3.60659783      14.30944291       2.11987343       15        1
O      -14.59132048      17.37665742       5.58442343       15        1
O      -20.63778415      23.71387749       2.11987343       15        1
O       -8.23096836      19.16375348       4.29976829       16        1
O       -2.18450469      12.82653341       7.76431829       16        1
O      -16.01341362      18.85956692       4.29976829       16        1
O      -22.05987728      25.19678698       7.76431829       16        1
O      -10.56324678      19.16628837       3.97756514       17        1
O       -4.51678312      12.82906830       7.44211514       17        1
O      -13.68113520      18.85703203       3.97756514       17        1
O      -19.72759886      25.19425210       7.44211514       17        1
O       -6.98242506      16.69350510       4.58940467       18        1
O      -13.02888872      23.03072517       8.05395467       18        1
O      -17.26195692      21.32981530       4.58940467       18        1
O      -11.21549325      14.99259523       8.05395467       18        1
O       -6.07572733      12.67444013       3.09826235       19        1
O      -12.12219099      19.01166020       6.56281235       19        1
O      -11.53022187      23.20816733       5.51928989       20        1
O       -5.48375820      16.87094726       2.05473989       20        1
O      -12.71416011      14.81515307       5.51928989       20        1
O      -18.76062377      21.15237314       2.05473989       20        1
H      -11.73145750      23.00410884       6.16854656       21        1
H       -5.68499383      16.66688878       2.70399656       21        1
H      -12.51292448      15.01921156       6.16854656       21        1
H      -18.55938814      21.35643162       2.70399656       21        1
H      -12.15190064      22.83934112       5.26083446       22        1
H       -6.10543698      16.50212105       8.72538446       22        1
H      -12.09248134      15.18397928       5.26083446       22        1
H      -18.13894500      21.52119935       8.72538446       22        1
H       -5.67958709      12.88990562       2.68320926       23        1
H      -11.72605075      19.22712568       6.14775926       23        1
H      -18.56479489      25.13341478       2.68320926       23        1
H      -12.51833122      18.79619472       6.14775926       23        1
Ca      14.85852792       4.24467000       4.03992704        0        1
Ca       8.81206426      10.58189007       7.50447704        0        1
Ca       9.15174476       8.42977013       4.03992704        0        1
Ca      15.19820842       2.09255007       7.50447704        0        1
Ca       2.58539546      10.59709940       4.35312236        1        1
Ca       8.63185913       4.25987933       7.81767236        1        1
Ca      21.42487721       2.07734074       4.35312236        1        1
Ca      15.37841355       8.41456080       7.81767236        1        1
Ca      18.05160000       0.00000000       5.48949476        2        1
Ca      12.00513634       6.33722007       2.02494476        2        1
Ca      12.03440000       0.00000000       2.00000000        3        1
Ca       5.98793634       6.33722007       5.46455000        3        1
S       14.72265366       1.09253674       4.15217846        4        1
S        8.67619000       7.42975681       7.61672846        4        1
S        9.28761901      11.58190339       4.15217846        4        1
S       15.33408267       5.24468333       7.61672846        4        1
S       12.00422294       3.14706349       2.01039365        5        1
S        5.95775928       9.48428355       5.47494365        5        1
S       12.00604973       9.52737665       2.01039365        5        1
S       18.05251339       3.19015658       5.47494365        5        1
S       14.70101448       7.34230317       4.30323284        6        1
S       20.74747814       1.00508310       7.76778284        6        1
S        9.30925819       5.33213696       4.30323284        6        1
S        3.26279453      11.66935703       7.76778284        6        1
O       15.70651461       0.16983750       4.67671133        7        1
O        9.66005095       6.50705756       8.14126133        7        1
O        8.30375806      12.50460264       4.67671133        7        1
O       14.35022172       6.16738257       8.14126133        7        1
O       13.53590462       0.34474477       3.79394399        8        1
O        7.48944095       6.68196484       7.25849399        8        1
O       10.47436806      12.32969536       3.79394399        8        1
O       16.52083172       5.99247529       7.25849399        8        1
O       15.25705629       1.85807292       3.01234151        9        1
O        9.21059263       8.19529299       6.47689151        9        1
O        8.75321638      10.81636721       3.01234151        9        1
O       14.79968004       4.47914714       6.47689151        9        1
O       14.37139832       2.10268962       5.19085055       10        1
O        8.32493465       8.43990968       8.65540055       10        1
O        9.63887436      10.57175052       5.19085055       10        1
O       15.68533802       4.23453045       8.65540055       10        1
O       11.24931794       2.18000370       2.82872036       11        1
O        5.20285428       8.51722377       6.29327036       11        1
O       12.76095473      10.49443643       2.82872036       11        1
O       18.80741840       4.15721636       6.29327036       11        1
O       18.96994518       2.31942254       4.66423895       12        1
O       12.92348152       8.65664261       8.12878895       12        1
O        5.04032749      10.35501759       4.66423895       12        1
O       11.08679116       4.01779752       8.12878895       12        1
O       12.79915752       4.04568129       2.87306660       13        1
O        6.75269385      10.38290136       6.33761660       13        1
O       11.21111516       8.62875884       2.87306660       13        1
O       17.25757882       2.29153878       6.33761660       13        1
O       14.86567788       8.42977013       3.30959990       14        1
O       20.91214154       2.09255007       6.77414990       14        1
O        9.14459480       4.24467000       3.30959990       14        1
O        3.09813114      10.58189007       6.77414990       14        1
O       14.47426583       7.97222284       5.58442343       15        1
O       20.52072949       1.63500278       2.11987343       15        1
O        9.53600684       4.70221729       5.58442343       15        1
O        3.48954318      11.03943736       2.11987343       15        1
O       15.89635897       6.48931335       4.29976829       16        1
O       21.94282263       0.15209328       7.76431829       16        1
O        8.11391370       6.18512678       4.29976829       16        1
O        2.06745004      12.52234685       7.76431829       16        1
O       13.56408054       6.49184824       3.97756514       17        1
O       19.61054421       0.15462817       7.44211514       17        1
O       10.44619213       6.18259190       3.97756514       17        1
O        4.39972847      12.51981196       7.44211514       17        1
O       17.14490226       4.01906497       4.58940467       18        1
O       11.09843860      10.35628503       8.05395467       18        1
O        6.86537041       8.65537517       4.58940467       18        1
O       12.91183407       2.31815510       8.05395467       18        1
O       18.05160000       0.00000000       3.09826235       19        1
O       12.00513634       6.33722007       6.56281235       19        1
O       12.59710546      10.53372719       5.51928989       20        1
O       18.64356912       4.19650713       2.05473989       20        1
O       11.41316721       2.14071294       5.51928989       20        1
O        5.36670355       8.47793301       2.05473989       20        1
H       12.39586983      10.32966871       6.16854656       21        1
H       18.44233349       3.99244864       2.70399656       21        1
H       11.61440284       2.34477142       6.16854656       21        1
H        5.56793918       8.68199149       2.70399656       21        1
H       11.97542668      10.16490099       5.26083446       22        1
H       18.02189035       3.82768092       8.72538446       22        1
H       12.03484599       2.50953915       5.26083446       22        1
H        5.98838233       8.84675921       8.72538446       22        1
H       18.44774024       0.21546548       2.68320926       23        1
H       12.40127657       6.55268555       6.14775926       23        1
H        5.56253244      12.45897465       2.68320926       23        1
H       11.60899610       6.12175458       6.14775926       23        1
Ca       2.76560059      16.91911013       4.03992704        0        1
Ca      -3.28086307      23.25633020       7.50447704        0        1
Ca      -2.94118257      21.10421027       4.03992704        0        1
Ca       3.10528109      14.76699020       7.50447704        0        1
Ca      -9.50753186      23.27153953       4.35312236        1        1
Ca      -3.46106820      16.93431946       7.81767236        1        1
Ca       9.33194989      14.75178087       4.35312236        1        1
Ca       3.28548622      21.08900094       7.81767236        1        1
Ca       5.95867267      12.67444013       5.48949476        2        1
Ca      -0.08779099      19.01166020       2.02494476        2        1
Ca      -0.05852733      12.67444013       2.00000000        3        1
Ca      -6.10499099      19.01166020       5.46455000        3        1
S        2.62972634      13.76697687       4.15217846        4        1
S       -3.41673732      20.10419694       7.61672846        4        1
S       -2.80530832      24.25634353       4.15217846        4        1
S        3.24115535      17.91912346       7.61672846        4        1
S       -0.08870438      15.82150362       2.01039365        5        1
S       -6.13516804      22.15872368       5.47494365        5        1
S       -0.08687760      22.20181678       2.01039365        5        1
S        5.95958607      15.86459671       5.47494365        5        1
S        2.60808715      20.01674330       4.30323284        6        1
S        8.65455082      13.67952324       7.76778284        6        1
S       -2.78366913      18.00657710       4.30323284        6        1
S       -8.83013280      24.34379716       7.76778284        6        1
O        3.61358729      12.84427763       4.67671133        7        1
O       -2.43287638      19.18149770       8.14126133        7        1
O       -3.78916927      25.17904277       4.67671133        7        1
O        2.25729440      18.84182270       8.14126133        7        1
O        1.44297729      13.01918490       3.79394399        8        1
O       -4.60348637      19.35640497       7.25849399        8        1
O       -1.61855927      25.00413549       3.79394399        8        1
O        4.42790439      18.66691543       7.25849399        8        1
O        3.16412897      14.53251306       3.01234151        9        1
O       -2.88233470      20.86973312       6.47689151        9        1
O       -3.33971095      23.49080734       3.01234151        9        1
O        2.70675272      17.15358728       6.47689151        9        1
O        2.27847099      14.77712975       5.19085055       10        1
O       -3.76799267      21.11434982       8.65540055       10        1
O       -2.45405297      23.24619065       5.19085055       10        1
O        3.59241069      16.90897058       8.65540055       10        1
O       -0.84360939      14.85444384       2.82872036       11        1
O       -6.89007305      21.19166390       6.29327036       11        1
O        0.66802741      23.16887656       2.82872036       11        1
O        6.71449107      16.83165650       6.29327036       11        1
O        6.87701785      14.99386268       4.66423895       12        1
O        0.83055419      21.33108274       8.12878895       12        1
O       -7.05259983      23.02945772       4.66423895       12        1
O       -1.00613617      16.69223766       8.12878895       12        1
O        0.70623019      16.72012142       2.87306660       13        1
O       -5.34023347      23.05734149       6.33761660       13        1
O       -0.88181217      21.30319898       2.87306660       13        1
O        5.16465149      14.96597891       6.33761660       13        1
O        2.77275055      21.10421027       3.30959990       14        1
O        8.81921421      14.76699020       6.77414990       14        1
O       -2.94833253      16.91911013       3.30959990       14        1
O       -8.99479619      23.25633020       6.77414990       14        1
O        2.38133851      20.64666298       5.58442343       15        1
O        8.42780217      14.30944291       2.11987343       15        1
O       -2.55692048      17.37665742       5.58442343       15        1
O       -8.60338415      23.71387749       2.11987343       15        1
O        3.80343164      19.16375348       4.29976829       16        1
O        9.84989531      12.82653341       7.76431829       16        1
O       -3.97901362      18.85956692       4.29976829       16        1
O      -10.02547728      25.19678698       7.76431829       16        1
O        1.47115322      19.16628837       3.97756514       17        1
O        7.51761688      12.82906830       7.44211514       17        1
O       -1.64673520      18.85703203       3.97756514       17        1
O       -7.69319886      25.19425210       7.44211514       17        1
O        5.05197494      16.69350510       4.58940467       18        1
O       -0.99448872      23.03072517       8.05395467       18        1
O       -5.22755692      21.32981530       4.58940467       18        1
O        0.81890675      14.99259523       8.05395467       18        1
O        5.95867267      12.67444013       3.09826235       19        1
O       -0.08779099      19.01166020       6.56281235       19        1
O        0.50417813      23.20816733       5.51928989       20        1
O        6.55064180      16.87094726       2.05473989       20        1
O       -0.67976011      14.81515307       5.51928989       20        1
O       -6.72622377      21.15237314       2.05473989       20        1
H        0.30294250      23.00410884       6.16854656       21        1
H        6.34940617      16.66688878       2.70399656       21        1
H       -0.47852448      15.01921156       6.16854656       21        1
H       -6.52498814      21.35643162       2.70399656       21        1
H       -0.11750064      22.83934112       5.26083446       22        1
H        5.92896302      16.50212105       8.72538446       22        1
H       -0.05808134      15.18397928       5.26083446       22        1
H       -6.10454500      21.52119935       8.72538446       22        1
H        6.35481291      12.88990562       2.68320926       23        1
H        0.30834925      19.22712568       6.14775926       23        1
H       -6.53039489      25.13341478       2.68320926       23        1
H       -0.48393122      18.79619472       6.14775926       23        1
O        9.01507279      11.72210233      20.42324978        0        0
H        8.22694929      12.23190010      20.61086483        0        0
H        9.71215835      12.17426553      20.89848868        0        0
O       -9.77697020      12.36894060      20.73477547        0        0
H       -9.05781298      12.50272783      21.35214546        0        0
H      -10.56829896      12.44609557      21.26776491        0        0
O        8.32801933       8.13736997      16.30722669        0        0
H        7.67164341       8.76740732      16.60464127        0        0
H        9.09992071       8.32480504      16.84133174        0        0
O       -1.10875384      12.29362572      22.83319829        0        0
H       -0.21590924      12.10541157      23.12239682        0        0
H       -1.05975183      12.27793259      21.87738221        0        0
O       -8.48707583      19.56717410      13.54430773        0        0
H       -8.00539735      20.00264251      14.24757506        0        0
H       -8.97384068      18.86948193      13.98307586        0        0
O       12.57339385      11.00926716      15.18080327        0        0
H       12.65433949      11.17907268      14.24226945        0        0
H      -11.07992785      11.76398675      15.59794590        0        0
O        3.31305573       2.17270030      16.39599703        0        0
H        3.89571383       1.85750752      17.08693472        0        0
H        2.43464008       1.94442377      16.70014766        0        0
O       18.28246796       2.43479586      14.55802277        0        0
H       18.47180257       1.68157813      15.11752906        0        0
H       17.39746163       2.70181819      14.80640697        0        0
O       -1.50379478       3.62455203      18.16816603        0        0
H       -1.80834664       3.45731628      17.27625112        0        0
H       -1.05681714       2.81782501      18.42435805        0        0
O        8.78230396      15.38380393      13.22094941        0        0
H        9.55511048      15.15954605      13.73932217        0        0
H        8.04739361      15.26753436      13.82312879        0        0
O      -15.03866956      22.19633122      25.53665883        0        0
H      -15.70422241      22.55408906      26.12426462        0        0
H      -15.53137044      21.66527634      24.91099246        0        0
O       16.62582422       5.01551044      18.63645079        0        0
H       16.04278730       5.63624969      18.19943526        0        0
H       17.26734940       4.77691206      17.96731097        0        0
O       -6.48003758      13.78824420      16.29269595        0        0
H       -5.63468401      13.69071842      16.73098569        0        0
H       -7.12046250      13.78956052      17.00409319        0        0
O        1.29287446      20.64762277      16.33430481        0        0
H        1.27644550      20.29877246      17.22552050        0        0
H        0.54977690      21.24992146      16.29860976        0        0
O       -7.77976257      22.77043994      18.41904852        0        0
H       -6.91743934      22.35624861      18.45185138        0        0
H       -8.06047146      22.81302849      19.33317136        0        0
O      -11.29310229      16.11824763      16.53521461        0        0
H      -10.48230830      16.28122480      17.01717247        0        0
H      -11.98425020      16.20609706      17.19159018        0        0
O       -1.71044435      17.90046533      18.57500380        0        0
H       -1.60414511      17.34984457      19.35072868        0        0
H       -1.34669859      17.37940389      17.85917153        0        0
O       -2.12193855       3.21086950      26.74458735        0        0
H       -1.78408939       3.05134917      25.86331381        0        0
H       -2.52170363       4.07916855      26.69482313        0        0
O        6.23266988      15.33717557      17.97459050        0        0
H        7.03730073      15.62440284      18.40621712        0        0
H        5.58674002      15.28793972      18.67927645        0        0
O        3.11384795      12.02899428      19.62995494        0        0
H        2.40049276      12.32149837      19.06268291        0        0
H        2.86674314      12.33405751      20.50294262        0        0
N       -3.34810221      16.27319080      23.76147368        0        0
H       -2.91500428      16.45689041      22.85982539        0        0
H       -2.79817703      15.54420887      24.20919752        0        0
H       -3.23229570      17.11473776      24.32064858        0        0
N       11.50696167       6.14756858      24.77346533        0        0
H       12.50041170       6.33414051      24.66149678        0        0
H       11.01112200       6.91883928      24.33349542        0        0
H       11.30036472       5.31493934      24.22726459        0        0
N        8.43723055      15.04160358      23.94515673        0        0
H        7.68100752      15.48053588      24.46453536        0        0
H      -14.85749826      15.70119087      23.93827276        0        0
H        8.74028823      14.23765555      24.48931904        0        0
N       -3.93192631       7.28075481      16.03431741        0        0
H       -3.24679363       7.97713206      16.32766348        0        0
H       -3.70521276       6.95559359      15.09449235        0        0
H       -4.86254006       7.69831684      16.03436239        0        0
H       -3.91315880       6.49197673      16.68075142        0        0
N        9.67421937       1.17606584      26.11479330        0        0
H       10.31685969       1.83363510      26.55639953        0        0
H       10.20668394       0.46340339      25.61580060        0        0
H        9.07528456       1.67552198      25.45735840        0        0
H        9.09804927       0.73170287      26.82961466        0        0
N      -14.38809959      23.72513104      14.19533456        0        0
H      -13.63074765      24.31443763      13.84959510        0        0
H      -14.00663641      22.83615409      14.51876279        0        0
H      -15.05663821      23.55501579      13.44399116        0        0
H      -14.85837609      24.19491665      14.96898919        0        0
N       16.33036301       2.87692117      25.16876481        0        0
H       16.99279830       3.43341011      25.70904209        0        0
H       16.69333714       1.93027943      25.05687557        0        0
H       16.19903543       3.30143151      24.25064497        0        0
H       15.43628117       2.84256362      25.65849660        0        0
P        1.94168826      14.31410146      25.04997703        0        0
O        2.60610109      15.60340402      25.50456967        0        0
O        2.35804174      14.00568735      23.59975963        0        0
O        0.41150745      14.47199501      25.12220112        0        0
O        2.39094500      13.13584039      25.98526802        0        0
H        2.66851127      12.40787018      26.56312297        0        0
P        4.13861428       4.45582707      23.47065173        0        0
O        4.93877953       4.96260761      24.65947849        0        0
O        5.01768531       4.49310177      22.20675113        0        0
O        2.90354564       5.35210229      23.26353786        0        0
O        3.67506045       2.98064014      23.74238942        0        0
H        3.38866094       2.06921892      23.91027831        0        0
