488
Lattice="25.501 0.0 0.0 0.0 23.969 0.0 0.0 0.0 43.86101947971821" Properties=species:S:1:pos:R:3 pbc="T T F"
S          3.1111220000      11.9725155000       2.0485044000
S          9.4863720000       5.9802655000       5.5131044000
S          9.6393780000       0.0119845000       2.0485044000
S          3.2641280000       6.0042345000       5.5131044000
S          5.1639525000       8.6048710000       3.1294596000
S         11.5392025000       2.6126210000       6.5940596000
S          7.5865475000       3.3796290000       3.1294596000
S          1.2112975000       9.3718790000       6.5940596000
S          1.1602955000       3.3077220000       3.1225304000
S          7.5355455000       9.2999720000       6.5871304000
S         11.5902045000       8.6767780000       3.1225304000
S          5.2149545000       2.6845280000       6.5871304000
Ca         6.3752500000       0.0000000000       2.0000000000
Ca         0.0000000000       5.9922500000       5.4646000000
Ca         1.7978205000       8.6647935000       2.9631588000
Ca         8.1730705000       2.6725435000       6.4277588000
Ca        10.9526795000       3.3197065000       2.9631588000
Ca         4.5774295000       9.3119565000       6.4277588000
Ca         4.3479205000       3.1039855000       3.3096188000
Ca        10.7231705000       9.0962355000       6.7742188000
Ca         8.4025795000       8.8805145000       3.3096188000
Ca         2.0273295000       2.8882645000       6.7742188000
Ca         0.0000000000       0.0000000000       2.0000000000
Ca         6.3752500000       5.9922500000       5.4646000000
O          3.8379005000       1.0426515000       2.7552828000
O         10.2131505000       7.0349015000       6.2198828000
O          8.9125995000      10.9418485000       2.7552828000
O          2.5373495000       4.9495985000       6.2198828000
O          2.2568385000       1.0666205000       8.3194304000
O          8.6320885000       7.0588705000       4.8548304000
O         10.4936615000      10.9178795000       8.3194304000
O          4.1184115000       4.9256295000       4.8548304000
O          1.9890780000      11.3972595000       2.7622120000
O          8.3643280000       5.4050095000       6.2268120000
O         10.7614220000       0.5872405000       2.7622120000
O          4.3861720000       6.5794905000       6.2268120000
O          4.0036570000      11.1935230000       7.9660412000
O         10.3789070000       5.2012730000       4.5014412000
O          8.7468430000       0.7909770000       7.9660412000
O          2.3715930000       6.7832270000       4.5014412000
O          4.0674095000       8.7726540000       4.1341936000
O         10.4426595000       2.7804040000       7.5987936000
O          8.6830905000       3.2118460000       4.1341936000
O          2.3078405000       9.2040960000       7.5987936000
O          6.0437370000       7.4423745000       3.4828488000
O         12.4189870000       1.4501245000       6.9474488000
O          6.7067630000       4.5421255000       3.4828488000
O          0.3315130000      10.5343755000       6.9474488000
O          6.2477450000       9.6355380000       3.0185924000
O         12.6229950000       3.6432880000       6.4831924000
O          6.5027550000       2.3489620000       3.0185924000
O          0.1275050000       8.3412120000       6.4831924000
O          4.5901800000       8.3531965000       8.6866780000
O         10.9654300000       2.3609465000       5.2220780000
O          8.1603200000       3.6313035000       8.6866780000
O          1.7850700000       9.6235535000       5.2220780000
O          2.0528305000       2.7804040000       4.2173440000
O          8.4280805000       8.7726540000       7.6819440000
O         10.6976695000       9.2040960000       4.2173440000
O          4.3224195000       3.2118460000       7.6819440000
O          0.3187625000       4.5061720000       3.3789108000
O          6.6940125000      10.4984220000       6.8435108000
O         12.4317375000       7.4783280000       3.3789108000
O          6.0564875000       1.4860780000       6.8435108000
O          0.1530060000       2.2291170000       2.8315040000
O          6.5282560000       8.2213670000       6.2961040000
O         12.5974940000       9.7553830000       2.8315040000
O          6.2222440000       3.7631330000       6.2961040000
O          2.0783315000       3.5354275000       8.8737664000
O          8.4535815000       9.5276775000       5.4091664000
O         10.6721685000       8.4490725000       8.8737664000
O          4.2969185000       2.4568225000       5.4091664000
O          4.1949145000       5.4529475000       2.1663008000
O         10.5701645000      11.4451975000       5.6309008000
O          8.5555855000       6.5315525000       2.1663008000
O          2.1803355000       0.5393025000       5.6309008000
O          2.1293335000       6.6633820000       8.9014832000
O          8.5045835000       0.6711320000       5.4368832000
O         10.6211665000       5.3211180000       8.9014832000
O          4.2459165000      11.3133680000       5.4368832000
H          4.8706910000       6.1720175000       2.2148052000
H         11.2459410000       0.1797675000       5.6794052000
H          7.8798090000       5.8124825000       2.2148052000
H          1.5045590000      11.8047325000       5.6794052000
H          3.6721440000       5.6207305000       8.2709260000
H         10.0473940000      11.6129805000       4.8063260000
H          9.0783560000       6.3637695000       8.2709260000
H          2.7031060000       0.3715195000       4.8063260000
H          2.4353455000       5.9922500000       2.6028404000
H          8.8105955000       0.0000000000       6.0674404000
H         10.3151545000       5.9922500000       2.6028404000
H          3.9399045000       0.0000000000       6.0674404000
H          2.7031060000       6.5675060000       8.1254128000
H          9.0783560000       0.5752560000       4.6608128000
H         10.0473940000       5.4169940000       8.1254128000
H          3.6721440000      11.4092440000       4.6608128000
S          3.1111220000      23.9570155000       2.0485044000
S          9.4863720000      17.9647655000       5.5131044000
S          9.6393780000      11.9964845000       2.0485044000
S          3.2641280000      17.9887345000       5.5131044000
S          5.1639525000      20.5893710000       3.1294596000
S         11.5392025000      14.5971210000       6.5940596000
S          7.5865475000      15.3641290000       3.1294596000
S          1.2112975000      21.3563790000       6.5940596000
S          1.1602955000      15.2922220000       3.1225304000
S          7.5355455000      21.2844720000       6.5871304000
S         11.5902045000      20.6612780000       3.1225304000
S          5.2149545000      14.6690280000       6.5871304000
Ca         6.3752500000      11.9845000000       2.0000000000
Ca         0.0000000000      17.9767500000       5.4646000000
Ca         1.7978205000      20.6492935000       2.9631588000
Ca         8.1730705000      14.6570435000       6.4277588000
Ca        10.9526795000      15.3042065000       2.9631588000
Ca         4.5774295000      21.2964565000       6.4277588000
Ca         4.3479205000      15.0884855000       3.3096188000
Ca        10.7231705000      21.0807355000       6.7742188000
Ca         8.4025795000      20.8650145000       3.3096188000
Ca         2.0273295000      14.8727645000       6.7742188000
Ca         0.0000000000      11.9845000000       2.0000000000
Ca         6.3752500000      17.9767500000       5.4646000000
O          3.8379005000      13.0271515000       2.7552828000
O         10.2131505000      19.0194015000       6.2198828000
O          8.9125995000      22.9263485000       2.7552828000
O          2.5373495000      16.9340985000       6.2198828000
O          2.2568385000      13.0511205000       8.3194304000
O          8.6320885000      19.0433705000       4.8548304000
O         10.4936615000      22.9023795000       8.3194304000
O          4.1184115000      16.9101295000       4.8548304000
O          1.9890780000      23.3817595000       2.7622120000
O          8.3643280000      17.3895095000       6.2268120000
O         10.7614220000      12.5717405000       2.7622120000
O          4.3861720000      18.5639905000       6.2268120000
O          4.0036570000      23.1780230000       7.9660412000
O         10.3789070000      17.1857730000       4.5014412000
O          8.7468430000      12.7754770000       7.9660412000
O          2.3715930000      18.7677270000       4.5014412000
O          4.0674095000      20.7571540000       4.1341936000
O         10.4426595000      14.7649040000       7.5987936000
O          8.6830905000      15.1963460000       4.1341936000
O          2.3078405000      21.1885960000       7.5987936000
O          6.0437370000      19.4268745000       3.4828488000
O         12.4189870000      13.4346245000       6.9474488000
O          6.7067630000      16.5266255000       3.4828488000
O          0.3315130000      22.5188755000       6.9474488000
O          6.2477450000      21.6200380000       3.0185924000
O         12.6229950000      15.6277880000       6.4831924000
O          6.5027550000      14.3334620000       3.0185924000
O          0.1275050000      20.3257120000       6.4831924000
O          4.5901800000      20.3376965000       8.6866780000
O         10.9654300000      14.3454465000       5.2220780000
O          8.1603200000      15.6158035000       8.6866780000
O          1.7850700000      21.6080535000       5.2220780000
O          2.0528305000      14.7649040000       4.2173440000
O          8.4280805000      20.7571540000       7.6819440000
O         10.6976695000      21.1885960000       4.2173440000
O          4.3224195000      15.1963460000       7.6819440000
O          0.3187625000      16.4906720000       3.3789108000
O          6.6940125000      22.4829220000       6.8435108000
O         12.4317375000      19.4628280000       3.3789108000
O          6.0564875000      13.4705780000       6.8435108000
O          0.1530060000      14.2136170000       2.8315040000
O          6.5282560000      20.2058670000       6.2961040000
O         12.5974940000      21.7398830000       2.8315040000
O          6.2222440000      15.7476330000       6.2961040000
O          2.0783315000      15.5199275000       8.8737664000
O          8.4535815000      21.5121775000       5.4091664000
O         10.6721685000      20.4335725000       8.8737664000
O          4.2969185000      14.4413225000       5.4091664000
O          4.1949145000      17.4374475000       2.1663008000
O         10.5701645000      23.4296975000       5.6309008000
O          8.5555855000      18.5160525000       2.1663008000
O          2.1803355000      12.5238025000       5.6309008000
O          2.1293335000      18.6478820000       8.9014832000
O          8.5045835000      12.6556320000       5.4368832000
O         10.6211665000      17.3056180000       8.9014832000
O          4.2459165000      23.2978680000       5.4368832000
H          4.8706910000      18.1565175000       2.2148052000
H         11.2459410000      12.1642675000       5.6794052000
H          7.8798090000      17.7969825000       2.2148052000
H          1.5045590000      23.7892325000       5.6794052000
H          3.6721440000      17.6052305000       8.2709260000
H         10.0473940000      23.5974805000       4.8063260000
H          9.0783560000      18.3482695000       8.2709260000
H          2.7031060000      12.3560195000       4.8063260000
H          2.4353455000      17.9767500000       2.6028404000
H          8.8105955000      11.9845000000       6.0674404000
H         10.3151545000      17.9767500000       2.6028404000
H          3.9399045000      11.9845000000       6.0674404000
H          2.7031060000      18.5520060000       8.1254128000
H          9.0783560000      12.5597560000       4.6608128000
H         10.0473940000      17.4014940000       8.1254128000
H          3.6721440000      23.3937440000       4.6608128000
S         15.8616220000      11.9725155000       2.0485044000
S         22.2368720000       5.9802655000       5.5131044000
S         22.3898780000       0.0119845000       2.0485044000
S         16.0146280000       6.0042345000       5.5131044000
S         17.9144525000       8.6048710000       3.1294596000
S         24.2897025000       2.6126210000       6.5940596000
S         20.3370475000       3.3796290000       3.1294596000
S         13.9617975000       9.3718790000       6.5940596000
S         13.9107955000       3.3077220000       3.1225304000
S         20.2860455000       9.2999720000       6.5871304000
S         24.3407045000       8.6767780000       3.1225304000
S         17.9654545000       2.6845280000       6.5871304000
Ca        19.1257500000       0.0000000000       2.0000000000
Ca        12.7505000000       5.9922500000       5.4646000000
Ca        14.5483205000       8.6647935000       2.9631588000
Ca        20.9235705000       2.6725435000       6.4277588000
Ca        23.7031795000       3.3197065000       2.9631588000
Ca        17.3279295000       9.3119565000       6.4277588000
Ca        17.0984205000       3.1039855000       3.3096188000
Ca        23.4736705000       9.0962355000       6.7742188000
Ca        21.1530795000       8.8805145000       3.3096188000
Ca        14.7778295000       2.8882645000       6.7742188000
Ca        12.7505000000       0.0000000000       2.0000000000
Ca        19.1257500000       5.9922500000       5.4646000000
O         16.5884005000       1.0426515000       2.7552828000
O         22.9636505000       7.0349015000       6.2198828000
O         21.6630995000      10.9418485000       2.7552828000
O         15.2878495000       4.9495985000       6.2198828000
O         15.0073385000       1.0666205000       8.3194304000
O         21.3825885000       7.0588705000       4.8548304000
O         23.2441615000      10.9178795000       8.3194304000
O         16.8689115000       4.9256295000       4.8548304000
O         14.7395780000      11.3972595000       2.7622120000
O         21.1148280000       5.4050095000       6.2268120000
O         23.5119220000       0.5872405000       2.7622120000
O         17.1366720000       6.5794905000       6.2268120000
O         16.7541570000      11.1935230000       7.9660412000
O         23.1294070000       5.2012730000       4.5014412000
O         21.4973430000       0.7909770000       7.9660412000
O         15.1220930000       6.7832270000       4.5014412000
O         16.8179095000       8.7726540000       4.1341936000
O         23.1931595000       2.7804040000       7.5987936000
O         21.4335905000       3.2118460000       4.1341936000
O         15.0583405000       9.2040960000       7.5987936000
O         18.7942370000       7.4423745000       3.4828488000
O         25.1694870000       1.4501245000       6.9474488000
O         19.4572630000       4.5421255000       3.4828488000
O         13.0820130000      10.5343755000       6.9474488000
O         18.9982450000       9.6355380000       3.0185924000
O         25.3734950000       3.6432880000       6.4831924000
O         19.2532550000       2.3489620000       3.0185924000
O         12.8780050000       8.3412120000       6.4831924000
O         17.3406800000       8.3531965000       8.6866780000
O         23.7159300000       2.3609465000       5.2220780000
O         20.9108200000       3.6313035000       8.6866780000
O         14.5355700000       9.6235535000       5.2220780000
O         14.8033305000       2.7804040000       4.2173440000
O         21.1785805000       8.7726540000       7.6819440000
O         23.4481695000       9.2040960000       4.2173440000
O         17.0729195000       3.2118460000       7.6819440000
O         13.0692625000       4.5061720000       3.3789108000
O         19.4445125000      10.4984220000       6.8435108000
O         25.1822375000       7.4783280000       3.3789108000
O         18.8069875000       1.4860780000       6.8435108000
O         12.9035060000       2.2291170000       2.8315040000
O         19.2787560000       8.2213670000       6.2961040000
O         25.3479940000       9.7553830000       2.8315040000
O         18.9727440000       3.7631330000       6.2961040000
O         14.8288315000       3.5354275000       8.8737664000
O         21.2040815000       9.5276775000       5.4091664000
O         23.4226685000       8.4490725000       8.8737664000
O         17.0474185000       2.4568225000       5.4091664000
O         16.9454145000       5.4529475000       2.1663008000
O         23.3206645000      11.4451975000       5.6309008000
O         21.3060855000       6.5315525000       2.1663008000
O         14.9308355000       0.5393025000       5.6309008000
O         14.8798335000       6.6633820000       8.9014832000
O         21.2550835000       0.6711320000       5.4368832000
O         23.3716665000       5.3211180000       8.9014832000
O         16.9964165000      11.3133680000       5.4368832000
H         17.6211910000       6.1720175000       2.2148052000
H         23.9964410000       0.1797675000       5.6794052000
H         20.6303090000       5.8124825000       2.2148052000
H         14.2550590000      11.8047325000       5.6794052000
H         16.4226440000       5.6207305000       8.2709260000
H         22.7978940000      11.6129805000       4.8063260000
H         21.8288560000       6.3637695000       8.2709260000
H         15.4536060000       0.3715195000       4.8063260000
H         15.1858455000       5.9922500000       2.6028404000
H         21.5610955000       0.0000000000       6.0674404000
H         23.0656545000       5.9922500000       2.6028404000
H         16.6904045000       0.0000000000       6.0674404000
H         15.4536060000       6.5675060000       8.1254128000
H         21.8288560000       0.5752560000       4.6608128000
H         22.7978940000       5.4169940000       8.1254128000
H         16.4226440000      11.4092440000       4.6608128000
S         15.8616220000      23.9570155000       2.0485044000
S         22.2368720000      17.9647655000       5.5131044000
S         22.3898780000      11.9964845000       2.0485044000
S         16.0146280000      17.9887345000       5.5131044000
S         17.9144525000      20.5893710000       3.1294596000
S         24.2897025000      14.5971210000       6.5940596000
S         20.3370475000      15.3641290000       3.1294596000
S         13.9617975000      21.3563790000       6.5940596000
S         13.9107955000      15.2922220000       3.1225304000
S         20.2860455000      21.2844720000       6.5871304000
S         24.3407045000      20.6612780000       3.1225304000
S         17.9654545000      14.6690280000       6.5871304000
Ca        19.1257500000      11.9845000000       2.0000000000
Ca        12.7505000000      17.9767500000       5.4646000000
Ca        14.5483205000      20.6492935000       2.9631588000
Ca        20.9235705000      14.6570435000       6.4277588000
Ca        23.7031795000      15.3042065000       2.9631588000
Ca        17.3279295000      21.2964565000       6.4277588000
Ca        17.0984205000      15.0884855000       3.3096188000
Ca        23.4736705000      21.0807355000       6.7742188000
Ca        21.1530795000      20.8650145000       3.3096188000
Ca        14.7778295000      14.8727645000       6.7742188000
Ca        12.7505000000      11.9845000000       2.0000000000
Ca        19.1257500000      17.9767500000       5.4646000000
O         16.5884005000      13.0271515000       2.7552828000
O         22.9636505000      19.0194015000       6.2198828000
O         21.6630995000      22.9263485000       2.7552828000
O         15.2878495000      16.9340985000       6.2198828000
O         15.0073385000      13.0511205000       8.3194304000
O         21.3825885000      19.0433705000       4.8548304000
O         23.2441615000      22.9023795000       8.3194304000
O         16.8689115000      16.9101295000       4.8548304000
O         14.7395780000      23.3817595000       2.7622120000
O         21.1148280000      17.3895095000       6.2268120000
O         23.5119220000      12.5717405000       2.7622120000
O         17.1366720000      18.5639905000       6.2268120000
O         16.7541570000      23.1780230000       7.9660412000
O         23.1294070000      17.1857730000       4.5014412000
O         21.4973430000      12.7754770000       7.9660412000
O         15.1220930000      18.7677270000       4.5014412000
O         16.8179095000      20.7571540000       4.1341936000
O         23.1931595000      14.7649040000       7.5987936000
O         21.4335905000      15.1963460000       4.1341936000
O         15.0583405000      21.1885960000       7.5987936000
O         18.7942370000      19.4268745000       3.4828488000
O         25.1694870000      13.4346245000       6.9474488000
O         19.4572630000      16.5266255000       3.4828488000
O         13.0820130000      22.5188755000       6.9474488000
O         18.9982450000      21.6200380000       3.0185924000
O         25.3734950000      15.6277880000       6.4831924000
O         19.2532550000      14.3334620000       3.0185924000
O         12.8780050000      20.3257120000       6.4831924000
O         17.3406800000      20.3376965000       8.6866780000
O         23.7159300000      14.3454465000       5.2220780000
O         20.9108200000      15.6158035000       8.6866780000
O         14.5355700000      21.6080535000       5.2220780000
O         14.8033305000      14.7649040000       4.2173440000
O         21.1785805000      20.7571540000       7.6819440000
O         23.4481695000      21.1885960000       4.2173440000
O         17.0729195000      15.1963460000       7.6819440000
O         13.0692625000      16.4906720000       3.3789108000
O         19.4445125000      22.4829220000       6.8435108000
O         25.1822375000      19.4628280000       3.3789108000
O         18.8069875000      13.4705780000       6.8435108000
O         12.9035060000      14.2136170000       2.8315040000
O         19.2787560000      20.2058670000       6.2961040000
O         25.3479940000      21.7398830000       2.8315040000
O         18.9727440000      15.7476330000       6.2961040000
O         14.8288315000      15.5199275000       8.8737664000
O         21.2040815000      21.5121775000       5.4091664000
O         23.4226685000      20.4335725000       8.8737664000
O         17.0474185000      14.4413225000       5.4091664000
O         16.9454145000      17.4374475000       2.1663008000
O         23.3206645000      23.4296975000       5.6309008000
O         21.3060855000      18.5160525000       2.1663008000
O         14.9308355000      12.5238025000       5.6309008000
O         14.8798335000      18.6478820000       8.9014832000
O         21.2550835000      12.6556320000       5.4368832000
O         23.3716665000      17.3056180000       8.9014832000
O         16.9964165000      23.2978680000       5.4368832000
H         17.6211910000      18.1565175000       2.2148052000
H         23.9964410000      12.1642675000       5.6794052000
H         20.6303090000      17.7969825000       2.2148052000
H         14.2550590000      23.7892325000       5.6794052000
H         16.4226440000      17.6052305000       8.2709260000
H         22.7978940000      23.5974805000       4.8063260000
H         21.8288560000      18.3482695000       8.2709260000
H         15.4536060000      12.3560195000       4.8063260000
H         15.1858455000      17.9767500000       2.6028404000
H         21.5610955000      11.9845000000       6.0674404000
H         23.0656545000      17.9767500000       2.6028404000
H         16.6904045000      11.9845000000       6.0674404000
H         15.4536060000      18.5520060000       8.1254128000
H         21.8288560000      12.5597560000       4.6608128000
H         22.7978940000      17.4014940000       8.1254128000
H         16.4226440000      23.3937440000       4.6608128000
O          8.3917478500      16.7496209100      20.7954264500
H          9.1390227700      17.3115829700      20.5904613800
H          8.4212152100      16.0598443500      20.1324243300
O          2.8994674100       9.0032451300      18.6105318200
H          3.6703998100       9.0123470700      19.1778167900
H          2.1594731800       9.1016903100      19.2096552800
O          6.7554896000       7.2604466700      25.2750193700
H          6.9530802400       7.9719004700      24.6659025700
H          5.7993241900       7.2214375900      25.2964163500
O         16.2506119300       6.4052655700      24.1796093300
H         16.6837920700       6.1773536400      23.3570262300
H         15.8386446800       5.5906719000      24.4676231900
O         13.8682874900      13.5392284000      22.9251185500
H         14.1865596400      12.8063083900      23.4521507500
H         14.2691559400      14.3123705000      23.3223434300
O         14.2454765000      21.6147787000      16.2710254700
H         14.9321625200      21.5530593900      16.9350170900
H         13.9868740400      22.5363564800      16.2781672400
O         22.8975446800       9.4884886800      15.6037531800
H         22.0056916500       9.7290926200      15.3528752200
H         23.0748135500       8.6834737400      15.1171747900
O          5.8000632500       9.5977714500      11.0277386600
H          6.2407327000       9.9952190000      11.7787897300
H          4.8711234100       9.6146425300      11.2579950200
O          6.9155776600       4.3170831700      15.0800962600
H          7.2347834100       4.0737346000      14.2111192800
H          7.6678248700       4.1863468100      15.6573864700
O          1.4293100100      22.0447648100      21.6056763200
H          1.7710209600      22.3587088000      20.7684758400
H          2.1600595700      22.1447004500      22.2157990900
O         18.8280914700       5.4488658000      17.8169418300
H         18.8772969300       5.2965084400      18.7606567700
H         18.0060315200       5.0375481800      17.5499828400
O         16.4946371200      18.5936841400      17.1041582000
H         17.3017174800      18.0846909400      17.0281381300
H         15.9172625100      18.2297239100      16.4330372400
O         20.1802842800      14.1687863200      17.3673906800
H         20.3289185300      14.3087867500      18.3025588900
H         19.8158308800      13.2854242500      17.3119199900
O          3.0252701500      13.0877871500      13.1416802000
H          2.9612829200      13.9720439000      12.7808097600
H          2.9297991100      13.2067421800      14.0866494200
O         16.3075581200       1.0308019800      25.3304351600
H         16.8317057400       0.6796827000      24.6105627000
H         16.9306090200       1.5273094900      25.8610194800
O         20.6457202900      17.4014802400      19.4884598200
H         21.4891122400      17.1801545000      19.8833481100
H         19.9960429500      17.0589912100      20.1023429200
O         13.8127080100       2.6447995700      24.5352113500
H         13.7132322900       1.9776689300      25.2143822600
H         13.9513301000       2.1477279300      23.7290255500
O          8.4672679600      15.2128554500      23.8787563500
H          8.4109271800      14.9500941100      24.7974587200
H          7.5934835900      15.0433154400      23.5266357700
O          7.5221702300      15.3831895900      15.8451196600
H          8.1200129900      14.6914334700      16.1284733900
H          7.0799579800      15.6615918500      16.6470999200
O         15.5640639000      21.9189827200      13.0352439500
H         15.6498241000      22.5044872000      13.7876145700
H         15.4213967100      21.0539290400      13.4193793900
N          1.9334012200      19.6345656600      12.8587491900
H          2.4849540100      19.6010327200      12.0049611200
H          2.3800931700      19.0069065300      13.5226763900
H          2.0278413600      20.5752653500      13.2335213200
N         22.1886568800      21.4791623500      14.1771127400
H         22.5874569400      22.2898406200      14.6440691200
H         22.2417098100      21.6594181800      13.1776217600
H         22.8077040000      20.6952201700      14.3681737900
N         15.9638309500      18.4367942100      21.4278417500
H         15.9032469000      17.5877670400      21.9844129000
H         15.4258249300      18.2724552700      20.5805925300
H         15.4796735100      19.1646834400      21.9475126400
N         21.6971633800       3.4250865800      15.9453919600
H         21.1212781400       4.0100923200      15.3399793100
H         21.0983627500       2.9139419700      16.5939048700
H         22.3438803100       4.0130447000      16.4711889300
H         22.2251323300       2.7632673300      15.3764947200
N         21.1622278200      18.6783519700      24.6158655900
H         21.6215997700      19.2935768400      25.2873384200
H         21.8632660100      18.2543544700      24.0082706800
H         20.5063688900      19.2193859700      24.0523664400
H         20.6576766000      17.9460906100      25.1154868100
N         11.3790856600       7.9422214900      19.6379751000
H         10.9621307400       8.6040800600      20.2925679800
H         11.0341526500       7.0033381600      19.8377732800
H         12.3941168500       7.9597587400      19.7369909400
H         11.1259424000       8.2017090100      18.6845682000
N         15.4640926600       8.6276505700      17.4190124100
H         15.7306982900       9.6078395800      17.5114837400
H         16.3026129000       8.0547562600      17.3237448100
H         14.8772249600       8.5114021300      16.5928934100
H         14.9458344700       8.3366043100      18.2479276900
P          2.8408163100       4.6144160300      15.3206192500
O          3.9266757900       5.6708682900      15.1972586500
O          2.1043939000       4.4756671800      13.9752454000
O          1.8393980300       5.0327190600      16.4132234700
O          3.4909325200       3.2382120200      15.7057314700
H          3.8925966800       2.3879458400      15.9436670400
P          2.2938898500      17.9977988700      17.7443844000
O          3.3437838900      18.5365960400      18.7024136800
O          2.8455945700      16.7525449300      17.0256601700
O          1.9452582900      19.0785524400      16.7041787700
O          1.0024306800      17.6089830200      18.5480357200
H          0.2045227800      17.3687592200      19.0445591500
