 DBCSR| CPU Multiplication driver                                           XSMM (U)
 DBCSR| Multrec recursion limit                                              512 (U)
 DBCSR| Multiplication stack size                                           1000 (D)
 DBCSR| Maximum elements for images                                    UNLIMITED (U)
 DBCSR| Multiplicative factor virtual images                                   1 (U)
 DBCSR| Use multiplication densification                                       T (D)
 DBCSR| Multiplication size stacks                                             3 (U)
 DBCSR| Use memory pool for CPU allocation                                     F (U)
 DBCSR| Number of 3D layers                                               SINGLE (U)
 DBCSR| Use MPI memory allocation                                              F (U)
 DBCSR| Use RMA algorithm                                                      F (U)
 DBCSR| Use Communication thread                                               T (U)
 DBCSR| Communication thread load                                             87 (D)
 DBCSR| MPI: My process id                                                     0
 DBCSR| MPI: Number of processes                                             192
 DBCSR| OMP: Current number of threads                                         1
 DBCSR| OMP: Max number of threads                                             1
 DBCSR| Split modifier for TAS multiplication algorithm                  1.0E+00 (U)


  **** **** ******  **  PROGRAM STARTED AT               2026-08-23 23:00:34.515
 ***** ** ***  *** **   PROGRAM STARTED ON                                 n0523
 **    ****   ******    PROGRAM STARTED BY                              tangsiqi
 ***** **    ** ** **   PROGRAM PROCESS ID                               3182862
  **** **  *******  **  PROGRAM STARTED IN /scratch/tangsiqi/liyi_folder/AI_phos
                                           phogypsum/2.CP2K_GeoOpt/2.2.2CSO-0.58
                                           3H2O+NH4

 CP2K| version string:                                       CP2K version 2026.2
 CP2K| source code revision number:                                  git:c92cc08
 CP2K| cp2kflags: omp libint fftw3 libxc elpa parallel scalapack mpi_f08 cosma l
 CP2K|            ibxs libxsmm plumed2 spglib libdftd4 dftd4_v4_2 s_dftd3 mctc-l
 CP2K|            lib tblite libvori libbqb mimic hdf5 trexio libsmeagol greenx
 CP2K| is freely available from                            https://www.cp2k.org/
 CP2K| Program compiled at                                   2026-08-15 22:43:53
 CP2K| Program compiled on                                                 n0529
 CP2K| Program compiled for                                               x86_64
 CP2K| Data directory path          /scratch/tangsiqi/CP2K_pkg/cp2k-v202602/data
 CP2K| Input file name                                               geo_opt.inp

 GLOBAL| Force Environment number                                              1
 GLOBAL| Basis set file name                                    BASIS_MOLOPT_UZH
 GLOBAL| Potential file name                                       POTENTIAL_UZH
 GLOBAL| MM Potential file name                                     MM_POTENTIAL
 GLOBAL| Coordinate file name                          2.2.2CSO-0.583H2O+NH4.xyz
 GLOBAL| Method name                                                        CP2K
 GLOBAL| Project name                                     gypsum_slab_nh4_geoopt
 GLOBAL| Run type                                                        GEO_OPT
 GLOBAL| FFT library                                                       FFTW3
 GLOBAL| Diagonalization library                                            ELPA
 GLOBAL| Cholesky decomposition library                                ScaLAPACK
 GLOBAL| DGEMM library                                                      BLAS
 GLOBAL| Minimum number of eigenvectors for ELPA usage                        64
 GLOBAL| Orthonormality check for eigenvectors                          DISABLED
 GLOBAL| Matrix multiplication library                                     COSMA
 GLOBAL| All-to-all communication in single precision                          F
 GLOBAL| FFTs using library dependent lengths                                  T
 GLOBAL| Grid backend                                                       AUTO
 GLOBAL| Global print level                                                  LOW
 GLOBAL| MPI I/O enabled                                                       T
 GLOBAL| Total number of message passing processes                           192
 GLOBAL| Number of distributed systems (nodes)                                 1
 GLOBAL| Number of threads for this process                                    1
 GLOBAL| This output is from process                                           0
 GLOBAL| OpenMP stack size per thread (OMP_STACKSIZE)                       128M
 GLOBAL| CPU model name                          AMD EPYC 9A14 96-Core Processor
 GLOBAL| CPUID                                                              1003

 MEMORY| system memory details [Kb]
 MEMORY|                        rank 0           min           max       average
 MEMORY| MemTotal            791724228     791724228     791724228     791724228
 MEMORY| MemFree             649939116     649924784     649939620     649937546
 MEMORY| Buffers                385320        385320        385320        385320
 MEMORY| Cached              101513388     101513388     101513388     101513388
 MEMORY| Slab                  3852236       3852224       3852240       3852235
 MEMORY| SReclaimable          2127416       2127416       2127416       2127416
 MEMORY| MemLikelyFree       753965240     753950908     753965744     753963670


 GENERATE|  Preliminary Number of Bonds generated:                             0
 GENERATE|  Achieved consistency in connectivity generation.

 *******************************************************************************
 *******************************************************************************
 **                                                                           **
 **     #####                         ##              ##                      **
 **    ##   ##            ##          ##              ##                      **
 **   ##     ##                       ##            ######                    **
 **   ##     ##  ##   ##  ##   #####  ##  ##   ####   ##    #####    #####    **
 **   ##     ##  ##   ##  ##  ##      ## ##   ##      ##   ##   ##  ##   ##   **
 **   ##  ## ##  ##   ##  ##  ##      ####     ###    ##   ######   ######    **
 **    ##  ###   ##   ##  ##  ##      ## ##      ##   ##   ##       ##        **
 **     #######   #####   ##   #####  ##  ##  ####    ##    #####   ##        **
 **           ##                                                    ##        **
 **                                                                           **
 **                                                ... make the atoms dance   **
 **                                                                           **
 **            Copyright (C) by CP2K developers group (2000-2026)             **
 **                      J. Chem. Phys. 152, 194103 (2020)                    **
 **                                                                           **
 *******************************************************************************


 TOTAL NUMBERS AND MAXIMUM NUMBERS

  Total number of            - Atomic kinds:                                   6
                             - Atoms:                                        488
                             - Shell sets:                                   488
                             - Shells:                                      2619
                             - Primitive Cartesian functions:               2438
                             - Cartesian basis functions:                   7011
                             - Spherical basis functions:                   6523

  Maximum angular momentum of- Orbital basis functions:                        2
                             - Local part of the GTH pseudopotential:          2
                             - Non-local part of the GTH pseudopotential:      3


 SCF PARAMETERS         Density guess:                                    ATOMIC
                        --------------------------------------------------------
                        max_scf:                                             200
                        max_scf_history:                                       0
                        max_diis:                                              4
                        --------------------------------------------------------
                        eps_scf:                                        1.50E-06
                        eps_scf_history:                                0.00E+00
                        eps_diis:                                       0.00E+00
                        eps_eigval:                                     1.00E-05
                        --------------------------------------------------------
                        level_shift [a.u.]:                             0.000000
                        --------------------------------------------------------
                        Outer loop SCF in use 
                        No variables optimised in outer loop
                        eps_scf                                         1.50E-06
                        max_scf                                               30
                        No outer loop optimization
                        step_size                                       5.00E-01

 BFGS| Use rational function optimization for step estimation:                NO
 BFGS| Use model Hessian for initial guess:                                  YES
 BFGS| Restart Hessian:                                                       NO
 BFGS| Trust radius:                                                       0.378

 *******************************************************************************
 ***                     STARTING GEOMETRY OPTIMIZATION                      ***
 ***                                   BFGS                                  ***
 *******************************************************************************

 Extrapolation method: initial_guess

 Number of electrons:                                                       2456
 Number of occupied orbitals:                                               1228
 Number of molecular orbitals:                                              1228

 Number of orbital functions:                                               6523
 Number of independent orbital functions:                                   6523


 SCF WAVEFUNCTION OPTIMIZATION

  ----------------------------------- OT ---------------------------------------
  Minimizer      : CG                  : conjugate gradient
  Preconditioner : FULL_ALL            : diagonalization, state selective
  Precond_solver : DEFAULT
  Line search    : 2PNT                : 2 energies, one gradient
  stepsize       :    0.15000000                  energy_gap     :    0.00100000
  eps_taylor     :   0.10000E-15                  max_taylor     :             4
  ----------------------------------- OT ---------------------------------------

  Step     Update method      Time    Convergence         Total energy    Change
  ------------------------------------------------------------------------------
     1 OT CG       0.15E+00   15.6     0.03868527     -6153.0093186816 -6.15E+03
     - OT LS       0.55E-01    1.6                    -5506.3438824495
     2 OT CG       0.55E-01    2.9     0.12838659     -5618.8537994356  5.34E+02
     - OT LS       0.28E-01    1.4                    -5601.8377284628
     3 OT CG       0.28E-01    2.8     0.08114160     -6101.2691097849 -4.82E+02
     - OT LS       0.13E-01    1.4                    -6092.2296271242
     4 OT CG       0.13E-01    2.6     0.05192617     -6183.7113775781 -8.24E+01
     - OT LS       0.10E-01    1.4                    -6280.5858434140
     5 OT CG       0.10E-01    2.5     0.01405550     -6288.8704947889 -1.05E+02
     - OT LS       0.40E-01    1.4                    -6303.4750549185
     6 OT CG       0.40E-01    2.5     0.00896748     -6328.5431313908 -3.97E+01
     - OT LS       0.89E-01    1.4                    -6351.3859898837
     7 OT CG       0.89E-01    2.4     0.01208954     -6366.3204387915 -3.78E+01
     - OT LS       0.24E-01    1.4                    -6248.3249504241
     8 OT CG       0.24E-01    2.4     0.00756787     -6385.4210966180 -1.91E+01
     - OT LS       0.61E-01    1.3                    -6394.2974054211
     9 OT CG       0.61E-01    2.4     0.00876534     -6399.0597027671 -1.36E+01
     - OT LS       0.35E-01    1.3                    -6403.7396721444
    10 OT CG       0.35E-01    2.4     0.00554857     -6407.5049151212 -8.45E+00
     - OT LS       0.12E+00    1.4                    -6414.3633274448
    11 OT CG       0.12E+00    2.4     0.00605478     -6418.1577669784 -1.07E+01
     - OT LS       0.39E-01    1.4                    -6406.9502752863
    12 OT CG       0.39E-01    2.4     0.00514097     -6421.0501930289 -2.89E+00
     - OT LS       0.52E-01    1.3                    -6426.1929415125
    13 OT CG       0.52E-01    2.3     0.00290594     -6426.7729482239 -5.72E+00
     - OT LS       0.11E+00    1.3                    -6429.6594024400
    14 OT CG       0.11E+00    2.3     0.00261286     -6430.6046033586 -3.83E+00
     - OT LS       0.82E-01    1.3                    -6432.3762424597
    15 OT CG       0.82E-01    2.3     0.00276001     -6432.6043029306 -2.00E+00
     - OT LS       0.56E-01    1.3                    -6433.9389399382
    16 OT CG       0.56E-01    2.3     0.00212112     -6434.2626481032 -1.66E+00
     - OT LS       0.91E-01    1.3                    -6435.6628666398
    17 OT CG       0.91E-01    2.3     0.00194211     -6435.9017847806 -1.64E+00
     - OT LS       0.65E-01    1.3                    -6436.7293007367
    18 OT CG       0.65E-01    2.3     0.00177390     -6436.8946455863 -9.93E-01
     - OT LS       0.84E-01    1.3                    -6437.8925786587
    19 OT CG       0.84E-01    2.3     0.00170285     -6437.9368529387 -1.04E+00
     - OT LS       0.60E-01    1.4                    -6438.5096773557
    20 OT CG       0.60E-01    2.3     0.00135303     -6438.6146090326 -6.78E-01
     - OT LS       0.73E-01    1.3                    -6439.1320237034
    21 OT CG       0.73E-01    2.3     0.00118851     -6439.1518660879 -5.37E-01
     - OT LS       0.70E-01    1.3                    -6439.5589984304
    22 OT CG       0.70E-01    2.3     0.00109031     -6439.5593484645 -4.07E-01
     - OT LS       0.76E-01    1.3                    -6439.9185265083
    23 OT CG       0.76E-01    2.3     0.00095634     -6439.9197471234 -3.60E-01
     - OT LS       0.76E-01    1.3                    -6440.1969977458
    24 OT CG       0.76E-01    2.3     0.00097076     -6440.1969985420 -2.77E-01
     - OT LS       0.67E-01    1.3                    -6440.4416688530
    25 OT CG       0.67E-01    2.3     0.00080006     -6440.4469915463 -2.50E-01
     - OT LS       0.81E-01    1.3                    -6440.6490840057
    26 OT CG       0.81E-01    2.3     0.00079679     -6440.6565707672 -2.10E-01
     - OT LS       0.68E-01    1.3                    -6440.8252923951
    27 OT CG       0.68E-01    2.3     0.00072354     -6440.8316671322 -1.75E-01
     - OT LS       0.80E-01    1.3                    -6440.9963385795
    28 OT CG       0.80E-01    2.3     0.00067250     -6440.9998579010 -1.68E-01
     - OT LS       0.67E-01    1.3                    -6441.1177958097
    29 OT CG       0.67E-01    2.3     0.00065538     -6441.1220308172 -1.22E-01
     - OT LS       0.80E-01    1.3                    -6441.2558536326
    30 OT CG       0.80E-01    2.3     0.00062380     -6441.2590756094 -1.37E-01
     - OT LS       0.73E-01    1.3                    -6441.3721124078
    31 OT CG       0.73E-01    2.3     0.00061801     -6441.3729700761 -1.14E-01
     - OT LS       0.72E-01    1.3                    -6441.4842153979
    32 OT CG       0.72E-01    2.3     0.00055503     -6441.4842151957 -1.11E-01
     - OT LS       0.79E-01    1.3                    -6441.5812274801
    33 OT CG       0.79E-01    2.3     0.00055592     -6441.5818651798 -9.76E-02
     - OT LS       0.69E-01    1.3                    -6441.6659160786
    34 OT CG       0.69E-01    2.3     0.00049808     -6441.6676013795 -8.57E-02
     - OT LS       0.81E-01    1.3                    -6441.7466099613
    35 OT CG       0.81E-01    2.3     0.00050430     -6441.7484408392 -8.08E-02
     - OT LS       0.70E-01    1.3                    -6441.8174498653
    36 OT CG       0.70E-01    2.3     0.00046672     -6441.8194132418 -7.10E-02
     - OT LS       0.79E-01    1.3                    -6441.8876626950
    37 OT CG       0.79E-01    2.3     0.00045152     -6441.8887091049 -6.93E-02
     - OT LS       0.72E-01    1.3                    -6441.9476379561
    38 OT CG       0.72E-01    2.2     0.00043130     -6441.9481406003 -5.94E-02
     - OT LS       0.77E-01    1.3                    -6442.0052896422
    39 OT CG       0.77E-01    2.3     0.00040585     -6442.0054712965 -5.73E-02
     - OT LS       0.73E-01    1.3                    -6442.0537698105
    40 OT CG       0.73E-01    2.3     0.00039172     -6442.0538760889 -4.84E-02
     - OT LS       0.73E-01    1.3                    -6442.0988016939
    41 OT CG       0.73E-01    2.3     0.00036728     -6442.0988020405 -4.49E-02
     - OT LS       0.75E-01    1.3                    -6442.1392064135
    42 OT CG       0.75E-01    2.3     0.00035529     -6442.1392291799 -4.04E-02
     - OT LS       0.75E-01    1.3                    -6442.1772471416
    43 OT CG       0.75E-01    2.2     0.00034055     -6442.1772477432 -3.80E-02
     - OT LS       0.77E-01    1.3                    -6442.2130177430
    44 OT CG       0.77E-01    2.3     0.00033064     -6442.2130401699 -3.58E-02
     - OT LS       0.77E-01    1.3                    -6442.2468547853
    45 OT CG       0.77E-01    2.2     0.00032058     -6442.2468554007 -3.38E-02
     - OT LS       0.75E-01    1.3                    -6442.2778091696
    46 OT CG       0.75E-01    2.2     0.00030704     -6442.2778258862 -3.10E-02
     - OT LS       0.76E-01    1.3                    -6442.3065098331
    47 OT CG       0.76E-01    2.2     0.00029072     -6442.3065140985 -2.87E-02
     - OT LS       0.75E-01    1.3                    -6442.3319485707
    48 OT CG       0.75E-01    2.2     0.00028025     -6442.3319503648 -2.54E-02
     - OT LS       0.76E-01    1.3                    -6442.3558745503
    49 OT CG       0.76E-01    2.2     0.00026636     -6442.3558789280 -2.39E-02
     - OT LS       0.76E-01    1.3                    -6442.3774897368
    50 OT CG       0.76E-01    2.2     0.00026229     -6442.3774896934 -2.16E-02
     - OT LS       0.74E-01    1.3                    -6442.3979179416
    51 OT CG       0.74E-01    2.3     0.00025123     -6442.3979283981 -2.04E-02
     - OT LS       0.75E-01    1.3                    -6442.4170538356
    52 OT CG       0.75E-01    2.2     0.00024584     -6442.4170633440 -1.91E-02
     - OT LS       0.72E-01    1.3                    -6442.4345716375
    53 OT CG       0.72E-01    2.2     0.00023315     -6442.4346041982 -1.75E-02
     - OT LS       0.77E-01    1.3                    -6442.4513513517
    54 OT CG       0.77E-01    2.2     0.00022809     -6442.4514173515 -1.68E-02
     - OT LS       0.75E-01    1.3                    -6442.4669573887
    55 OT CG       0.75E-01    2.2     0.00022036     -6442.4669747045 -1.56E-02
     - OT LS       0.78E-01    1.3                    -6442.4820682326
    56 OT CG       0.78E-01    2.2     0.00021628     -6442.4820934083 -1.51E-02
     - OT LS       0.77E-01    1.3                    -6442.4965452699
    57 OT CG       0.77E-01    2.2     0.00021264     -6442.4965457727 -1.45E-02
     - OT LS       0.77E-01    1.3                    -6442.5104863320
    58 OT CG       0.77E-01    2.2     0.00020508     -6442.5104862030 -1.39E-02
     - OT LS       0.77E-01    1.3                    -6442.5235509499
    59 OT CG       0.77E-01    2.2     0.00020042     -6442.5235519696 -1.31E-02
     - OT LS       0.77E-01    1.3                    -6442.5359870415
    60 OT CG       0.77E-01    2.3     0.00019556     -6442.5359869860 -1.24E-02
     - OT LS       0.76E-01    1.3                    -6442.5476922538
    61 OT CG       0.76E-01    2.3     0.00019032     -6442.5476930999 -1.17E-02
     - OT LS       0.77E-01    1.3                    -6442.5588632008
    62 OT CG       0.77E-01    2.2     0.00018797     -6442.5588642884 -1.12E-02
     - OT LS       0.76E-01    1.3                    -6442.5696073646
    63 OT CG       0.76E-01    2.2     0.00018312     -6442.5696091023 -1.07E-02
     - OT LS       0.76E-01    1.3                    -6442.5798472956
    64 OT CG       0.76E-01    2.3     0.00017834     -6442.5798475050 -1.02E-02
     - OT LS       0.76E-01    1.3                    -6442.5895021005
    65 OT CG       0.76E-01    2.2     0.00017449     -6442.5895023569 -9.65E-03
     - OT LS       0.77E-01    1.3                    -6442.5989213658
    66 OT CG       0.77E-01    2.3     0.00017048     -6442.5989251987 -9.42E-03
     - OT LS       0.76E-01    1.3                    -6442.6078329348
    67 OT CG       0.76E-01    2.2     0.00016811     -6442.6078334872 -8.91E-03
     - OT LS       0.77E-01    1.3                    -6442.6165870073
    68 OT CG       0.77E-01    2.2     0.00016519     -6442.6165883106 -8.75E-03
     - OT LS       0.77E-01    1.3                    -6442.6249944826
    69 OT CG       0.77E-01    2.2     0.00016196     -6442.6249945718 -8.41E-03
     - OT LS       0.75E-01    1.3                    -6442.6329499274
    70 OT CG       0.75E-01    2.2     0.00015699     -6442.6329513967 -7.96E-03
     - OT LS       0.76E-01    1.3                    -6442.6405058367
    71 OT CG       0.76E-01    2.2     0.00015390     -6442.6405069903 -7.56E-03
     - OT LS       0.75E-01    1.3                    -6442.6476202467
    72 OT CG       0.75E-01    2.2     0.00014932     -6442.6476225181 -7.12E-03
     - OT LS       0.76E-01    1.3                    -6442.6543865266
    73 OT CG       0.76E-01    2.2     0.00014578     -6442.6543875339 -6.77E-03
     - OT LS       0.76E-01    1.3                    -6442.6608963874
    74 OT CG       0.76E-01    2.2     0.00014233     -6442.6608971467 -6.51E-03
     - OT LS       0.76E-01    1.3                    -6442.6670734673
    75 OT CG       0.76E-01    2.3     0.00013813     -6442.6670735215 -6.18E-03
     - OT LS       0.77E-01    1.3                    -6442.6729697643
    76 OT CG       0.77E-01    2.2     0.00013513     -6442.6729710654 -5.90E-03
     - OT LS       0.77E-01    1.3                    -6442.6786368433
    77 OT CG       0.77E-01    2.2     0.00013283     -6442.6786370372 -5.67E-03
     - OT LS       0.77E-01    1.3                    -6442.6841117898
    78 OT CG       0.77E-01    2.2     0.00012981     -6442.6841118237 -5.47E-03
     - OT LS       0.78E-01    1.3                    -6442.6893774986
    79 OT CG       0.78E-01    2.2     0.00012816     -6442.6893779264 -5.27E-03
     - OT LS       0.77E-01    1.3                    -6442.6944456828
    80 OT CG       0.77E-01    2.2     0.00012473     -6442.6944462463 -5.07E-03
     - OT LS       0.77E-01    1.3                    -6442.6992855953
    81 OT CG       0.77E-01    2.2     0.00012228     -6442.6992860039 -4.84E-03
     - OT LS       0.77E-01    1.3                    -6442.7038962840
    82 OT CG       0.77E-01    2.2     0.00012009     -6442.7038964538 -4.61E-03
     - OT LS       0.77E-01    1.3                    -6442.7083489344
    83 OT CG       0.77E-01    2.2     0.00011779     -6442.7083490290 -4.45E-03
     - OT LS       0.76E-01    1.3                    -6442.7125755639
    84 OT CG       0.76E-01    2.2     0.00011559     -6442.7125760090 -4.23E-03
     - OT LS       0.77E-01    1.3                    -6442.7166791098
    85 OT CG       0.77E-01    2.2     0.00011315     -6442.7166794975 -4.10E-03
     - OT LS       0.77E-01    1.3                    -6442.7206232955
    86 OT CG       0.77E-01    2.2     0.00011117     -6442.7206233313 -3.94E-03
     - OT LS       0.77E-01    1.3                    -6442.7244277205
    87 OT CG       0.77E-01    2.2     0.00010957     -6442.7244277025 -3.80E-03
     - OT LS       0.77E-01    1.3                    -6442.7281393393
    88 OT CG       0.77E-01    2.2     0.00010845     -6442.7281394834 -3.71E-03
     - OT LS       0.76E-01    1.3                    -6442.7317395524
    89 OT CG       0.76E-01    2.2     0.00010687     -6442.7317397208 -3.60E-03
     - OT LS       0.77E-01    1.3                    -6442.7352478337
    90 OT CG       0.77E-01    2.2     0.00010513     -6442.7352479446 -3.51E-03
     - OT LS       0.77E-01    1.3                    -6442.7386607165
    91 OT CG       0.77E-01    2.2     0.00010330     -6442.7386608523 -3.41E-03
     - OT LS       0.76E-01    1.3                    -6442.7419452666
    92 OT CG       0.76E-01    2.2     0.00010115     -6442.7419452313 -3.28E-03
     - OT LS       0.77E-01    1.3                    -6442.7451367610
    93 OT CG       0.77E-01    2.2     0.00009980     -6442.7451375586 -3.19E-03
     - OT LS       0.77E-01    1.3                    -6442.7482140428
    94 OT CG       0.77E-01    2.2     0.00009825     -6442.7482141718 -3.08E-03
     - OT LS       0.77E-01    1.3                    -6442.7511925356
    95 OT CG       0.77E-01    2.2     0.00009620     -6442.7511925379 -2.98E-03
     - OT LS       0.77E-01    1.3                    -6442.7540693427
    96 OT CG       0.77E-01    2.2     0.00009471     -6442.7540696001 -2.88E-03
     - OT LS       0.78E-01    1.3                    -6442.7568673629
    97 OT CG       0.78E-01    2.2     0.00009277     -6442.7568673979 -2.80E-03
     - OT LS       0.78E-01    1.3                    -6442.7595762625
    98 OT CG       0.78E-01    2.2     0.00009175     -6442.7595765554 -2.71E-03
     - OT LS       0.78E-01    1.3                    -6442.7622003117
    99 OT CG       0.78E-01    2.2     0.00009054     -6442.7622004399 -2.62E-03
     - OT LS       0.77E-01    1.3                    -6442.7647418152
   100 OT CG       0.77E-01    2.2     0.00008914     -6442.7647418194 -2.54E-03
     - OT LS       0.76E-01    1.3                    -6442.7671754609
   101 OT CG       0.76E-01    2.2     0.00008758     -6442.7671756638 -2.43E-03
     - OT LS       0.76E-01    1.3                    -6442.7695281674
   102 OT CG       0.76E-01    2.2     0.00008575     -6442.7695281469 -2.35E-03
     - OT LS       0.77E-01    1.3                    -6442.7717977006
   103 OT CG       0.77E-01    2.2     0.00008412     -6442.7717977850 -2.27E-03
     - OT LS       0.77E-01    1.3                    -6442.7739894935
   104 OT CG       0.77E-01    2.2     0.00008268     -6442.7739895444 -2.19E-03
     - OT LS       0.77E-01    1.3                    -6442.7761077198
   105 OT CG       0.77E-01    2.2     0.00008136     -6442.7761077568 -2.12E-03
     - OT LS       0.76E-01    1.3                    -6442.7781371402
   106 OT CG       0.76E-01    2.2     0.00008008     -6442.7781372166 -2.03E-03
     - OT LS       0.76E-01    1.3                    -6442.7800947067
   107 OT CG       0.76E-01    2.2     0.00007862     -6442.7800946978 -1.96E-03
     - OT LS       0.76E-01    1.3                    -6442.7819856324
   108 OT CG       0.76E-01    2.2     0.00007734     -6442.7819856327 -1.89E-03
     - OT LS       0.76E-01    1.3                    -6442.7838234164
   109 OT CG       0.76E-01    2.2     0.00007600     -6442.7838234574 -1.84E-03
     - OT LS       0.77E-01    1.3                    -6442.7856190804
   110 OT CG       0.77E-01    2.2     0.00007496     -6442.7856194601 -1.80E-03
     - OT LS       0.77E-01    1.3                    -6442.7873594799
   111 OT CG       0.77E-01    2.2     0.00007363     -6442.7873594784 -1.74E-03
     - OT LS       0.78E-01    1.3                    -6442.7890455480
   112 OT CG       0.78E-01    2.2     0.00007235     -6442.7890456485 -1.69E-03
     - OT LS       0.78E-01    1.3                    -6442.7906788626
   113 OT CG       0.78E-01    2.2     0.00007122     -6442.7906788851 -1.63E-03
     - OT LS       0.78E-01    1.3                    -6442.7922660951
   114 OT CG       0.78E-01    2.2     0.00006996     -6442.7922660921 -1.59E-03
     - OT LS       0.78E-01    1.3                    -6442.7938053820
   115 OT CG       0.78E-01    2.2     0.00006903     -6442.7938054334 -1.54E-03
     - OT LS       0.78E-01    1.3                    -6442.7952956120
   116 OT CG       0.78E-01    2.2     0.00006817     -6442.7952956167 -1.49E-03
     - OT LS       0.77E-01    1.3                    -6442.7967350596
   117 OT CG       0.77E-01    2.2     0.00006733     -6442.7967351086 -1.44E-03
     - OT LS       0.77E-01    1.3                    -6442.7981317676
   118 OT CG       0.77E-01    2.2     0.00006644     -6442.7981317705 -1.40E-03
     - OT LS       0.77E-01    1.3                    -6442.7994946659
   119 OT CG       0.77E-01    2.2     0.00006549     -6442.7994946653 -1.36E-03
     - OT LS       0.77E-01    1.3                    -6442.8008240778
   120 OT CG       0.77E-01    2.2     0.00006459     -6442.8008240964 -1.33E-03
     - OT LS       0.77E-01    1.3                    -6442.8021150511
   121 OT CG       0.77E-01    2.2     0.00006388     -6442.8021150486 -1.29E-03
     - OT LS       0.77E-01    1.3                    -6442.8033687425
   122 OT CG       0.77E-01    2.2     0.00006296     -6442.8033687600 -1.25E-03
     - OT LS       0.77E-01    1.3                    -6442.8045833469
   123 OT CG       0.77E-01    2.2     0.00006206     -6442.8045833448 -1.21E-03
