     488
 i =        1, E =     -6444.3727215692
  S         3.1125802834       11.9711635634        2.0398819949
  S         9.4789702697        5.9929094369        5.5034380375
  S         9.6375153203        0.0133240248        2.0393228997
  S         3.2717937783        5.9922530222        5.5038541690
  S         5.1634456361        8.6057760940        3.1171753962
  S        11.5455843237        2.6093301667        6.5915969072
  S         7.5875058679        3.3792242787        3.1176289615
  S         1.2049499757        9.3750846882        6.5914699710
  S         1.1674310579        3.3078525265        3.1110572279
  S         7.5344468980        9.2975362761        6.5887676313
  S        11.5828798039        8.6763410982        3.1107088997
  S         5.2159297076        2.6869462660        6.5886847226
 Ca         6.3751776201       -0.0000045928        2.0385160314
 Ca        -0.0000000383        5.9923838569        5.4671460010
 Ca         1.8061759252        8.6650355149        2.9862438770
 Ca         8.1779485302        2.6707808320        6.4418057835
 Ca        10.9446800847        3.3197635072        2.9860638424
 Ca         4.5725175133        9.3144306568        6.4414959291
 Ca         4.3474544374        3.1160495908        3.3152539212
 Ca        10.7236015010        9.1033676568        6.7717162220
 Ca         8.4024998860        8.8684899098        3.3155337363
 Ca         2.0270181057        2.8809611434        6.7713440443
 Ca         0.0000144754       -0.0000142337        2.0244251165
 Ca         6.3751205054        5.9925554220        5.4626797421
  O         3.8451142612        1.0424568065        2.7450010208
  O        10.2289529919        7.0209535662        6.2276621601
  O         8.9064291351       10.9410324071        2.7448075873
  O         2.5218064932        4.9642107850        6.2279821054
  O         2.2612760225        1.0721344486        8.3210288455
  O         8.6191219099        7.0614238117        4.8396815346
  O        10.4895523476       10.9120937990        8.3211736380
  O         4.1308420812        4.9234051448        4.8397770651
  O         1.9935805323       11.3894869106        2.7594403871
  O         8.3783415052        5.3919481878        6.2329874910
  O        10.7564925076        0.5956769721        2.7582884060
  O         4.3725702495        6.5926740008        6.2337206594
  O         3.9990538928       11.1953855411        7.9723824143
  O        10.3821567305        5.2048255870        4.5106173457
  O         8.7517508445        0.7879955443        7.9711238893
  O         2.3688320943        6.7797915770        4.5104293868
  O         4.0774018935        8.7764786785        4.1343999070
  O        10.4462470188        2.7836997719        7.5912326765
  O         8.6740265909        3.2072499420        4.1342557922
  O         2.3043590687        9.2014043412        7.5911710395
  O         6.0420916650        7.4401151952        3.4670590822
  O        12.4189778573        1.4430948104        6.9468868966
  O         6.7080602258        4.5448089985        3.4661635481
  O         0.3323968006       10.5417695310        6.9471793975
  O         6.2437410699        9.6459685215        3.0244776539
  O        12.6163799581        3.6549203731        6.4790103825
  O         6.5072549275        2.3391072157        3.0250825498
  O         0.1340564948        8.3296911125        6.4777648308
  O         4.5861652314        8.3561738985        8.6829077941
  O        10.9654601636        2.3647121341        5.2209305045
  O         8.1628989448        3.6279664346        8.6820777706
  O         1.7848101250        9.6194026439        5.2206831817
  O         2.0454812133        2.7873004273        4.2210750794
  O         8.4279958433        8.7742489563        7.6833799159
  O        10.7059630532        9.1972542339        4.2213981378
  O         4.3230801777        3.2100032275        7.6838766983
  O         0.3153841826        4.4989217463        3.3792849352
  O         6.6955482025       10.4970475635        6.8462256703
  O        12.4353467647        7.4854889402        3.3783702805
  O         6.0542299321        1.4870937689        6.8459882118
  O         0.1553079166        2.2309163660        2.8150412695
  O         6.5283725959        8.2183860530        6.2916585470
  O        12.5948405609        9.7532961631        2.8146355122
  O         6.2218838693        3.7661804830        6.2917805964
  O         2.0796647854        3.5246386661        8.8724346135
  O         8.4516247202        9.5336825790        5.4117776296
  O        10.6722745803        8.4589839090        8.8733971256
  O         4.2991411776        2.4512589899        5.4114153853
  O         4.1792352634        5.4558500937        2.1604905861
  O        10.5785802640       11.4391693338        5.6311119100
  O         8.5706965945        6.5281520988        2.1600595487
  O         2.1719535066        0.5448678454        5.6311495437
  O         2.1421188020        6.6499796013        8.9051261744
  O         8.4938389329        0.6699722244        5.4322869600
  O        10.6051918590        5.3350170025        8.9049247114
  O         4.2578630743       11.3159914545        5.4314012964
  H         4.8618836274        6.1681438240        2.2210206857
  H        11.2456805019        0.1799153834        5.6822065624
  H         7.8881846255        5.8159113553        2.2210792864
  H         1.5047580601       11.8045167989        5.6821818116
  H         3.6591491756        5.6231217195        8.2821267981
  H        10.0574919571       11.6061271485        4.8076801198
  H         9.0912619490        6.3614485535        8.2819650120
  H         2.6930396044        0.3783484223        4.8076277199
  H         2.4593839090        5.9862951514        2.6031064160
  H         8.8083974601        0.0043906105        6.0658579320
  H        10.2911071968        5.9982108967        2.6030910484
  H         3.9421719409       -0.0046484830        6.0656424439
  H         2.7022828811        6.5757503726        8.1156416356
  H         9.0752169594        0.5809849955        4.6620044162
  H        10.0470467705        5.4088109145        8.1142956605
  H         3.6751905826       11.4035433755        4.6618865294
  S         3.1130234752       23.9558743672        2.0396518025
  S         9.4791072233       17.9771544216        5.5033587643
  S         9.6372203089       11.9974522029        2.0394240679
  S         3.2713881017       17.9763465308        5.5034477262
  S         5.1631176827       20.5901803173        3.1172639391
  S        11.5456108789       14.5936203273        6.5915133199
  S         7.5876047435       15.3632419836        3.1173481803
  S         1.2044089905       21.3593159255        6.5903820880
  S         1.1673694000       15.2930001127        3.1111899043
  S         7.5344026878       21.2820722114        6.5888194595
  S        11.5832008900       20.6605945332        3.1106509556
  S         5.2161831070       14.6713028402        6.5883538906
 Ca         6.3750508003       11.9845085068        2.0385138779
 Ca        -0.0000005176       17.9766025182        5.4671550348
 Ca         1.8059566067       20.6493592148        2.9860191061
 Ca         8.1780082943       14.6548389755        6.4415864765
 Ca        10.9449274276       15.3038830535        2.9861340941
 Ca         4.5720458557       21.2981570501        6.4417245211
 Ca         4.3478126060       15.1001357473        3.3153171382
 Ca        10.7236225871       21.0880551820        6.7717157362
 Ca         8.4021399810       20.8531135328        3.3154238386
 Ca         2.0268056672       14.8653988031        6.7710877707
 Ca         0.0000630785       11.9844827897        2.0244163975
 Ca         6.3751385676       17.9763614112        5.4627009073
  O         3.8437323845       13.0268625704        2.7459296353
  O        10.2291166781       19.0051148697        6.2275948074
  O         8.9066215568       22.9264248339        2.7453420694
  O         2.5219227673       16.9480530369        6.2277940455
  O         2.2608191233       13.0559347746        8.3210522121
  O         8.6191931424       19.0456555858        4.8396276246
  O        10.4896690297       22.8974767389        8.3215419706
  O         4.1302799973       16.9073678519        4.8392432004
  O         1.9938026104       23.3746003801        2.7591729964
  O         8.3787499271       17.3762132190        6.2333564557
  O        10.7564141218       12.5790110500        2.7586675789
  O         4.3723373447       18.5770399015        6.2327975905
  O         3.9989259183       23.1808974934        7.9708320881
  O        10.3830182265       17.1890717981        4.5111499164
  O         8.7517678016       12.7737023394        7.9714961480
  O         2.3672977981       18.7644832697        4.5113531713
  O         4.0775019471       20.7617237666        4.1348323073
  O        10.4458769542       14.7677034667        7.5907068665
  O         8.6742074450       15.1929902175        4.1341489714
  O         2.3050959939       21.1856544421        7.5884479741
  O         6.0418083886       19.4243705383        3.4666543284
  O        12.4192823877       13.4275391443        6.9466965603
  O         6.7078377674       16.5283291824        3.4664182372
  O         0.3317447385       22.5257563919        6.9465852441
  O         6.2435300096       21.6301813472        3.0247678143
  O        12.6163785239       15.6391327504        6.4788939333
  O         6.5079227748       14.3224452135        3.0247198326
  O         0.1335232937       20.3138445928        6.4773081105
  O         4.5864822892       20.3408950810        8.6822851755
  O        10.9655166742       14.3507097465        5.2205776876
  O         8.1633811989       15.6126175273        8.6819437978
  O         1.7844537632       21.6028290896        5.2195753183
  O         2.0450077284       14.7714948890        4.2210944589
  O         8.4274280850       20.7593572638        7.6841497046
  O        10.7063618615       21.1822703142        4.2210108746
  O         4.3226607266       15.1947571494        7.6826685543
  O         0.3156257546       16.4843107840        3.3795643893
  O         6.6953213910       22.4814783866        6.8458743628
  O        12.4349277443       19.4694178806        3.3793528507
  O         6.0545780219       13.4717261126        6.8465062886
  O         0.1549837670       14.2164453431        2.8148388231
  O         6.5277713245       20.2034868702        6.2915356931
  O        12.5957081337       21.7371295415        2.8148400002
  O         6.2223468572       15.7504624766        6.2918544487
  O         2.0806179464       15.5098318901        8.8709749467
  O         8.4519553039       21.5175226085        5.4120220209
  O        10.6723087251       20.4445699688        8.8735747288
  O         4.2987097382       14.4355527326        5.4116450056
  O         4.1789393226       17.4411055641        2.1598589146
  O        10.5786489676       23.4231065944        5.6315731908
  O         8.5706219535       18.5132929412        2.1598862777
  O         2.1720581543       12.5300805656        5.6313719223
  O         2.1423314438       18.6338733055        8.9036820355
  O         8.4934363232       12.6539209928        5.4320638131
  O        10.6044757576       17.3192227357        8.9050297659
  O         4.2573943759       23.2989851809        5.4320898957
  H         4.8620737002       18.1528340830        2.2210144494
  H        11.2458733449       12.1646430383        5.6822215862
  H         7.8884259443       17.8006666186        2.2209989310
  H         1.5044291162       23.7886617096        5.6822187515
  H         3.6591538456       17.6076324121        8.2819306594
  H        10.0577248086       23.5905571214        4.8079869148
  H         9.0913479963       18.3458710079        8.2820129693
  H         2.6929201959       12.3628842005        4.8077777929
  H         2.4593802021       17.9708002162        2.6031388428
  H         8.8084810636       11.9887715999        6.0659288891
  H        10.2911200752       17.9827111251        2.6031220388
  H         3.9420747676       11.9801429593        6.0659418036
  H         2.7031039996       18.5602834623        8.1148352906
  H         9.0752657065       12.5654545162        4.6619657365
  H        10.0469043714       17.3933152258        8.1140334491
  H         3.6754016079       23.3880152897        4.6621649093
  S        15.8637468241       11.9715143004        2.0395425581
  S        22.2296279396        5.9926418255        5.5034192082
  S        22.3879384722        0.0131443367        2.0397213046
  S        16.0219059669        5.9918469815        5.5033759065
  S        17.9133861220        8.6057536561        3.1172834656
  S        24.2964982777        2.6097174908        6.5908553396
  S        20.3377989146        3.3788741438        3.1171388440
  S        13.9553717328        9.3753888214        6.5914341985
  S        13.9177792298        3.3084060971        3.1106906137
  S        20.2849434562        9.2976034650        6.5885112100
  S        24.3336611414        8.6759627079        3.1111921519
  S        17.9667047151        2.6868950725        6.5886759740
 Ca        19.1258168384       -0.0000013357        2.0389152748
 Ca        12.7504894040        5.9928444958        5.4670784794
 Ca        14.5560688477        8.6651204078        2.9860666029
 Ca        20.9290909688        2.6708911851        6.4418088846
 Ca        23.6950642318        3.3196350162        2.9859953665
 Ca        17.3229130383        9.3140467365        6.4417331115
 Ca        17.0988735760        3.1159012888        3.3155379526
 Ca        23.4741667716        9.1035153704        6.7715402623
 Ca        21.1531813566        8.8688096854        3.3153128667
 Ca        14.7773976513        2.8809877440        6.7717743474
 Ca        12.7505218994       -0.0000163618        2.0245814975
 Ca        19.1258394857        5.9926510958        5.4625450162
  O        16.5944140709        1.0426128124        2.7452263348
  O        22.9790993345        7.0209685559        6.2277183147
  O        21.6572522084       10.9420810438        2.7457589655
  O        15.2718393721        4.9639005467        6.2275716903
  O        15.0113116054        1.0716019080        8.3213785494
  O        21.3707326178        7.0616081503        4.8392069409
  O        23.2400496364       10.9129670284        8.3215968038
  O        16.8818581609        4.9233631895        4.8396829161
  O        14.7445859757       11.3900050881        2.7588758985
  O        21.1286658521        5.3920359441        6.2328453538
  O        23.5072289684        0.5943930358        2.7591380219
  O        17.1222193825        6.5927612553        6.2334869179
  O        16.7493107980       11.1952864197        7.9715818128
  O        23.1335743922        5.2046116123        4.5110804133
  O        21.5019291867        0.7882058953        7.9710282266
  O        15.1180196648        6.7799037175        4.5111098037
  O        16.8268023539        8.7760099189        4.1341086961
  O        23.1962345337        2.7832983536        7.5894616864
  O        21.4236281202        3.2072639932        4.1344406159
  O        15.0550184291        9.2012826658        7.5907274670
  O        18.7931672673        7.4406746402        3.4663404425
  O        25.1692687592        1.4432398097        6.9466717610
  O        19.4591777334        4.5446234122        3.4668907194
  O        13.0816777065       10.5414373378        6.9466556964
  O        18.9930728530        9.6465351721        3.0245274722
  O        25.3674174654        3.6551784476        6.4779195429
  O        19.2574337128        2.3388120303        3.0248475107
  O        12.8846226554        8.3298600559        6.4787079122
  O        17.3379829411        8.3563537983        8.6821926051
  O        23.7164642183        2.3661787813        5.2200397256
  O        20.9140073185        3.6280787433        8.6822916570
  O        14.5354969483        9.6182894288        5.2205082568
  O        14.7946274223        2.7867111141        4.2210336310
  O        21.1779145916        8.7744915166        7.6835637551
  O        23.4559200500        9.1975385632        4.2209706480
  O        17.0735852014        3.2096911907        7.6838777025
  O        13.0660604845        4.4995828977        3.3794124878
  O        19.4464743608       10.4972312249        6.8461906594
  O        25.1853917291        7.4846897449        3.3797906675
  O        18.8057058128        1.4874950353        6.8460162953
  O        12.9053179890        2.2319021593        2.8145766530
  O        19.2787531603        8.2185211006        6.2918120455
  O        25.3460445826        9.7525610587        2.8150009477
  O        18.9732970869        3.7655704040        6.2916171185
  O        14.8286500829        3.5245217486        8.8736214637
  O        21.2023297719        9.5333669008        5.4117268707
  O        23.4204363364        8.4591142390        8.8723361918
  O        17.0490208901        2.4514445170        5.4120095746
  O        16.9303626077        5.4557117432        2.1602604268
  O        23.3289417798       11.4389525625        5.6313015047
  O        21.3220593532        6.5279039894        2.1604481442
  O        14.9224751779        0.5457909641        5.6318935870
  O        14.8965760415        6.6496872196        8.9056084750
  O        21.2436260549        0.6699287369        5.4319816563
  O        23.3583733076        5.3352464002        8.9044348272
  O        17.0075378975       11.3151573537        5.4320499859
  H        17.6125757108        6.1683372818        2.2210966385
  H        23.9965641174        0.1803447230        5.6822109007
  H        20.6389155755        5.8161574540        2.2211046278
  H        14.2551231565       11.8043432923        5.6822115387
  H        16.4096145224        5.6230804956        8.2816875950
  H        22.8080507829       11.6061132268        4.8077804396
  H        21.8419583176        6.3613434444        8.2817028194
  H        15.4431895706        0.3784864409        4.8082037498
  H        15.2099004377        5.9862741049        2.6030827085
  H        21.5587943877        0.0046914842        6.0656875191
  H        23.0416043514        5.9982139832        2.6030995000
  H        16.6925679589       -0.0045224775        6.0657047630
  H        15.4538774448        6.5757365098        8.1143849355
  H        21.8255865310        0.5810106273        4.6621010905
  H        22.7981615310        5.4086507615        8.1151010080
  H        16.4257653000       11.4035448244        4.6619739092
  S        15.8634264563       23.9556198471        2.0394516329
  S        22.2291822489       17.9767356893        5.5039114211
  S        22.3882835687       11.9978712682        2.0397322990
  S        16.0220316366       17.9761053665        5.5034581013
  S        17.9134554778       20.5897329942        3.1175631014
  S        24.2960638802       14.5939100169        6.5915203048
  S        20.3375798967       15.3632219230        3.1170004958
  S        13.9553724724       21.3596675337        6.5912401656
  S        13.9181223990       15.2926803502        3.1106199205
  S        20.2850178916       21.2820693328        6.5886149860
  S        24.3335209526       20.6611894349        3.1109026485
  S        17.9664746437       14.6714708781        6.5887199266
 Ca        19.1259533654       11.9844926540        2.0389091912
 Ca        12.7505044970       17.9761415752        5.4671207537
 Ca        14.5563374139       20.6492544157        2.9858856053
 Ca        20.9288699499       14.6546471491        6.4414519869
 Ca        23.6948212684       15.3039637870        2.9860112341
 Ca        17.3229702599       21.2983237242        6.4417425542
 Ca        17.0984612882       15.1005289646        3.3154212712
 Ca        23.4740103563       21.0880298100        6.7713942323
 Ca        21.1535586356       20.8529604788        3.3152306481
 Ca        14.7773386777       14.8656363465        6.7717909698
 Ca        12.7505085668       11.9844913242        2.0247006561
 Ca        19.1258814193       17.9764804795        5.4625519620
  O        16.5946053087       13.0279965038        2.7447528858
  O        22.9792104052       19.0048060562        6.2279461878
  O        21.6558658332       22.9265078616        2.7449937368
  O        15.2720155200       16.9480292205        6.2275990118
  O        15.0114620193       13.0569043969        8.3212193176
  O        21.3701517618       19.0456346659        4.8398874305
  O        23.2397368372       22.8967910584        8.3207447353
  O        16.8819424105       16.9075812829        4.8397928722
  O        14.7445149815       23.3733193537        2.7585686044
  O        21.1283901236       17.3763753040        6.2338120261
  O        23.5074981267       12.5795983243        2.7588831241
  O        17.1226419456       18.5770366138        6.2330841791
  O        16.7493384902       23.1810853553        7.9717230927
  O        23.1321483499       17.1891900376        4.5104930779
  O        21.5019551124       12.7737144633        7.9713284161
  O        15.1189038637       18.7641516304        4.5105411500
  O        16.8270682392       20.7617575952        4.1343422156
  O        23.1968251848       14.7676700473        7.5913649142
  O        21.4235507187       15.1925190209        4.1343076193
  O        15.0550100945       21.1852672193        7.5904810745
  O        18.7929237974       19.4242915706        3.4665181190
  O        25.1686685209       13.4272300417        6.9471738846
  O        19.4589141864       16.5288365690        3.4669891200
  O        13.0820180633       22.5259619324        6.9464190307
  O        18.9937137486       21.6298177956        3.0246850695
  O        25.3669936483       15.6392306817        6.4774431130
  O        19.2572577059       14.3230484715        3.0244382573
  O        12.8845754037       20.3140886464        6.4785750433
  O        17.3381036938       20.3410104135        8.6823386556
  O        23.7161814242       14.3495702831        5.2207417398
  O        20.9138246849       15.6126885610        8.6819657302
  O        14.5354770096       21.6042785559        5.2205708880
  O        14.7950438108       14.7717498274        4.2212981741
  O        21.1779478714       20.7589930009        7.6837215419
  O        23.4555529893       21.1816386655        4.2210466522
  O        17.0732188845       15.1946352176        7.6836800497
  O        13.0656515686       16.4834788179        3.3785132489
  O        19.4467347125       22.4818978598        6.8460717280
  O        25.1855934309       19.4700369619        3.3786627885
  O        18.8055218268       13.4720575272        6.8460865947
  O        12.9061649600       14.2157237610        2.8145369815
  O        19.2790622606       20.2028219059        6.2917576108
  O        25.3457104121       21.7381410419        2.8152245532
  O        18.9726929940       15.7505728143        6.2918321164
  O        14.8288649307       15.5099440994        8.8735906551
  O        21.2018936099       21.5177378842        5.4114254022
  O        23.4211937535       20.4443696850        8.8724256025
  O        17.0492905814       14.4353966483        5.4117302147
  O        16.9303106235       17.4408314279        2.1601111854
  O        23.3290065393       23.4241349024        5.6313869326
  O        21.3217732085       18.5131513257        2.1606687586
  O        14.9224428842       12.5298519499        5.6311899232
  O        14.8959641214       18.6339354438        8.9050509505
  O        21.2431070842       12.6531076716        5.4318549635
  O        23.3591640172       17.3192522163        8.9046630173
  O        17.0072857650       23.2990126400        5.4320393606
  H        17.6128127644       18.1530866606        2.2210958553
  H        23.9962277427       12.1644751738        5.6821991274
  H        20.6391131576       17.8008592176        2.2210390834
  H        14.2553261361       23.7890987366        5.6822234958
  H        16.4095951306       17.6076507698        8.2819200550
  H        22.8080352530       23.5906485279        4.8076791963
  H        21.8419352979       18.3458253035        8.2819564463
  H        15.4434705782       12.3628656656        4.8076583832
  H        15.2098951151       17.9707821938        2.6031126235
  H        21.5590624474       11.9886915289        6.0660270576
  H        23.0416175215       17.9827078712        2.6031298902
  H        16.6925038272       11.9802006374        6.0659730477
  H        15.4539471110       18.5602085485        8.1142672622
  H        21.8256582065       12.5654794808        4.6621300604
  H        22.7985224311       17.3931138860        8.1155444171
  H        16.4256554729       23.3880747001        4.6619085497
  O         8.3964214584       16.7487883229       20.7992100138
  H         9.1405850257       17.3129185930       20.5888251655
  H         8.4209415121       16.0613387466       20.1326560713
  O         2.9005382913        9.0114002199       18.6096417668
  H         3.6713352155        9.0123031319       19.1777626644
  H         2.1591098837        9.1017304579       19.2090625885
  O         6.7452945662        7.1800250096       25.0750193700
  H         6.9764336812        8.0543569491       24.6877348396
  H         5.7865627568        7.2202260778       25.2198182685
  O        16.1931208358        6.4045069120       24.0264404860
  H        16.7310278579        6.1498745643       23.2788626323
  H        15.8516932918        5.6142404118       24.5149843380
  O        13.8856426564       13.5351172701       22.8845668635
  H        14.1751731817       12.8285572860       23.4704157405
  H        14.2592563025       14.2972387437       23.3332648902
  O        14.2465972985       21.6164613128       16.2719285277
  H        14.9339727792       21.5523060406       16.9354572742
  H        13.9859008154       22.5378027975       16.2768460193
  O        22.8968740848        9.4888034605       15.6086073486
  H        22.0066233740        9.7297203292       15.3509468561
  H        23.0755437464        8.6864769119       15.1166282735
  O         5.8018029615        9.5979987557       11.0270567011
  H         6.2412155634        9.9961391514       11.7789845999
  H         4.8717161202        9.6143872512       11.2560210712
  O         6.9146004454        4.3178609298       15.0804903249
  H         7.2338798001        4.0741068936       14.2110024566
  H         7.6683310387        4.1858560286       15.6561624598
  O         1.4295015517       22.0450834534       21.6052938945
  H         1.7713766427       22.3573774339       20.7670743147
  H         2.1610750794       22.1444313293       22.2148578786
  O        18.8310013541        5.4519083336       17.8148893155
  H        18.8770575679        5.2970801607       18.7590168798
  H        18.0083461658        5.0383895559       17.5500827774
  O        16.4949176021       18.5894948696       17.1070502860
  H        17.3038155785       18.0838387200       17.0264637460
  H        15.9178015735       18.2304226331       16.4322421868
  O        20.1747572146       14.1725180932       17.3688101485
  H        20.3296679106       14.3092272277       18.3036833556
  H        19.8166695734       13.2860162114       17.3109388393
  O         3.0223081866       13.0869306691       13.1425361364
  H         2.9612581103       13.9713807610       12.7801642312
  H         2.9295132367       13.2078022262       14.0877204055
  O        16.2727331740        1.1158669253       25.1573559110
  H        16.9044083264        0.6314871740       24.6060662086
  H        16.8893297697        1.4943520151       25.8267257686
  O        20.6456427927       17.4063677967       19.4892359233
  H        21.4896005378       17.1797809718       19.8813124483
  H        19.9955786441       17.0588427733       20.1008201327
  O        13.8438117905        2.6833152771       24.7008102880
  H        13.7015604062        1.8942173801       25.2280482071
  H        13.9379183709        2.1944562316       23.8633679806
  O         8.4678073169       15.2143703515       23.9234850746
  H         8.4117510793       14.9485410663       24.8417801398
  H         7.5963686058       15.0451812439       23.5599248343
  O         7.5253646856       15.3862439047       15.8473808615
  H         8.1203925043       14.6903900934       16.1279120821
  H         7.0780020292       15.6624009641       16.6476862879
  O        15.5581421735       21.9208204068       13.0334983360
  H        15.6493967305       22.5037553288       13.7876871821
  H        15.4210473837       21.0547400064       13.4187441062
  N         1.9367299730       19.6347477049       12.8590497299
  H         2.4837045068       19.6005765941       12.0025061502
  H         2.3793182942       19.0057030364       13.5240545059
  H         2.0268708458       20.5757104425       13.2336224044
  N        22.1862725764       21.4788322388       14.1787133491
  H        22.5891113683       22.2890022553       14.6426474615
  H        22.2421415342       21.6587353216       13.1792561872
  H        22.8079922575       20.6965112102       14.3670269403
  N        15.9651483478       18.4369411694       21.4275238324
  H        15.9015184125       17.5880365682       21.9833855466
  H        15.4268787861       18.2727890783       20.5805347712
  H        15.4787563056       19.1635399710       21.9464227621
  N        21.6974806772        3.4247107383       15.9450862599
  H        21.1218272487        4.0099055644       15.3392525372
  H        21.0980968894        2.9138059579       16.5932583285
  H        22.3445899334        4.0132356713       16.4700822773
  H        22.2257098443        2.7634385461       15.3752689278
  N        21.1553985837       18.6734239471       24.7473074552
  H        21.6760852798       19.3661684786       25.2859343052
  H        21.8192742447       18.2821287483       24.0601808841
  H        20.5466263075       19.1871092475       24.0873689493
  H        20.6141798054       17.8828182194       25.1107243719
  N        11.3797486599        7.9419325742       19.6386732987
  H        10.9607011336        8.6047621369       20.2926156314
  H        11.0329335796        7.0024766283       19.8372527352
  H        12.3985103330        7.9605868649       19.7334852694
  H        11.1267742284        8.2015842955       18.6843764674
  N        15.4643100927        8.6272467821       17.4194305662
  H        15.7306099559        9.6080986240       17.5103554068
  H        16.3038092458        8.0550113662       17.3221756190
  H        14.8772050405        8.5117273997       16.5928094403
  H        14.9411298100        8.3364557577       18.2491113486
  P         2.8405780660        4.6146092384       15.3200957504
  O         3.9317367994        5.6655320380       15.1996111763
  O         2.1047836807        4.4706494692       13.9758376955
  O         1.8407252322        5.0258076562       16.4156826615
  O         3.4865321898        3.2378826685       15.7085227871
  H         3.8922710262        2.3902893423       15.9411896798
  P         2.2945548244       17.9986734729       17.7440538009
  O         3.3373068218       18.5394636095       18.7085546843
  O         2.8393798078       16.7513161852       17.0256760227
  O         1.9414892435       19.0772348796       16.7043729926
  O         1.0041641438       17.6069467606       18.5498568791
  H         0.2056587943       17.3688636964       19.0422584890
