     488
Lattice="25.5010000000        0.0000000000        0.0000000000        0.0000000000       23.9690000000        0.0000000000        0.0000000000        0.0000000000       43.8610194797" Properties=species:S:1:pos:R:3 pbc="T T F" Converged=F
  S         3.1247481925       11.9796930624        1.9764717120
  S         9.5703883521        5.9515655878        5.4645298657
  S         9.6359697322        0.0804765413        1.9749292791
  S         3.1631852529        5.9939692427        5.4618541577
  S         5.2306746774        8.6664085791        2.9388566187
  S        11.6654652909        2.7737279220        6.4718838449
  S         7.5154355864        3.3651918403        2.9359121619
  S         1.0854849703        9.1895611032        6.4058987584
  S         1.0553292122        3.4275233828        2.9360652814
  S         7.5652177304        9.1530079998        6.4988261991
  S        11.7034442387        8.5332132892        2.9421393378
  S         5.2240231469        2.8112123615        6.4766394242
 Ca         6.9400817809        0.0265790577        2.9738124943
 Ca        -0.0323003431        5.9234425638        5.1459271717
 Ca         1.9537492124        8.5912028422        2.9772612996
 Ca         8.3859299163        2.6939092361        6.5015745060
 Ca        10.8047605414        3.4190223470        2.9775547786
 Ca         4.3848869790        9.2748836986        6.5559128916
 Ca         4.3056098134        3.4076193518        2.9746240407
 Ca        10.7121322253        9.1745834287        6.5064823490
 Ca         8.3949682946        8.5194365136        2.9754790616
 Ca         2.0531801291        2.7006213167        6.4623759874
 Ca        -0.1952475089       -0.0449022498        2.9750426342
 Ca         6.3559134693        5.9994917530        5.2063626934
  O         3.2789106016        1.3363423044        2.9413696881
  O        10.4137741829        6.8200677097        6.3073491674
  O         9.4405382786       10.5403590571        2.9403458419
  O         2.3058856460        5.1294572974        6.2975381630
  O         2.1816504910        1.2994250979        8.4509003422
  O         8.6247494859        6.7264768715        4.5503035385
  O        10.6141712610       10.5582470079        8.6065869233
  O         4.0980138071        5.2107893560        4.5472048509
  O         2.4774483684       10.8665644446        2.9380783859
  O         8.6811765970        5.1023824907        6.2861776749
  O        10.3207265706        1.1613273674        2.9382115974
  O         4.0759269671        6.8340302941        6.2795898817
  O         3.9047278173       10.6043988814        8.6055100378
  O        10.5025386256        5.1893478913        4.5639022714
  O         8.5575439181        1.4559254297        8.5983784236
  O         2.2369349847        6.7633804444        4.5613714497
  O         4.4829924485        8.7544178948        4.2443085079
  O        10.6324745586        3.0600736033        7.4860994075
  O         8.2947226600        3.2695835536        4.2266966052
  O         2.1239747678        8.8738197163        7.4097345389
  O         6.1241298505        7.3770105903        2.9516132450
  O        12.5834161771        1.6643730295        6.8627773458
  O         6.5987870539        4.6403147532        2.9528282623
  O         0.1893659756       10.3007676283        6.7878543524
  O         6.3558680309        9.8031836418        2.9435630691
  O        12.5499730723        3.9593047294        6.2176187083
  O         6.4085999301        2.2137465662        2.9440423550
  O         0.1907186392        8.0132432272        6.1390775185
  O         4.3763470020        9.4586677000        8.9190897121
  O        10.9116305569        2.3773642518        5.2089187151
  O         8.0353917552        2.5780010276        8.8520935894
  O         1.8475284094        9.5790826690        5.1377621794
  O         1.8155535532        3.4536755952        4.2467035126
  O         8.5302291650        8.8149671157        7.5609010052
  O        10.9856334784        8.4960730654        4.2780126568
  O         4.2525058172        3.2148067822        7.5027575577
  O        -0.0369426894        4.5567857497        2.9542754901
  O         6.6736190523       10.3084613495        6.8485718182
  O        12.7655705594        7.3799142726        2.9521634667
  O         6.1023459102        1.6599212142        6.8514724771
  O         0.1206509989        2.1481198289        2.9435420941
  O         6.5933378603        8.0253363190        6.2243746983
  O        12.6659867713        9.7973488064        2.9431716385
  O         6.1938798964        3.9191566432        6.1434669869
  O         1.7171939803        2.4132865003        8.8449837272
  O         8.3752458666        9.4762869628        5.2650441862
  O        11.0847703946        9.4519443827        8.9905446041
  O         4.3997939538        2.4447948427        5.2462368845
  O         3.9734724832        5.7529745645        1.8342720780
  O        10.8007971921       11.6441661825        5.6484253896
  O         8.8139435653        6.1928033322        1.8347378974
  O         1.5982994019        0.3634830880        5.3569103974
  O         3.2352634227        6.7900935736        9.2370537841
  O         8.0646878013        0.3828978047        5.2789161884
  O         9.8755787296        5.2392221338        9.3059355169
  O         4.8165659456       11.6602423223        5.2662498809
  H         4.8751191145        6.1400188451        1.8898438521
  H        11.9019117575       -0.6128691991        5.8369991807
  H         7.9157973341        5.7943625547        1.8880725416
  H         0.7897300701       12.2285620090        5.9401670462
  H         3.5083647147        6.2027144736        8.5197992799
  H        10.7698155397       12.5200535995        5.2028215593
  H         9.5570205190        5.8376237389        8.6177656615
  H         1.9836977993       -0.5163248111        5.1709106614
  H         3.7768014321        5.8129695519        2.8480208092
  H         7.5994475005       -0.1959974693        5.9365940203
  H         9.0083203543        6.1378936585        2.8490274177
  H         5.4803311179        0.1055644798        6.1141123222
  H         2.6095706702        7.3889996919        8.8022133835
  H         8.8550150086       -0.1430868352        5.0551999289
  H        10.3486621147        4.5591721725        8.8039942067
  H         4.1019264045       12.3087726603        5.1141505787
  S         3.5195754001       23.7905221766        2.9462128480
  S         9.6989990884       17.7623020630        5.8479317025
  S         9.2001962067       12.0465159160        2.9525288885
  S         3.1929080669       18.0107909269        5.4654942722
  S         5.2091994669       20.6817293830        2.9333859114
  S        11.6677657109       14.5769111996        6.4311296530
  S         7.5921342198       15.2522595981        2.9444026716
  S         1.1820927197       21.2113528002        6.4722707725
  S         1.2104979374       15.4146271325        2.9355577133
  S         7.5400800853       21.2483266276        6.5022927381
  S        11.5351059433       20.4893093547        2.9467499743
  S         5.1405191457       14.7677162592        6.5280212333
 Ca         5.7757724356       11.9934059273        2.9715795592
 Ca         0.0247014150       17.9631798671        5.1385868437
 Ca         1.9833621348       20.6126572801        2.9778763413
 Ca         8.2845079718       14.5632179890        6.6662613430
 Ca        10.7948797273       15.2089651930        2.9804819866
 Ca         4.3629791764       21.3916527438        6.4330523501
 Ca         4.3162791871       15.3695617459        2.9754562256
 Ca        10.6709404449       20.9591445625        6.6316615309
 Ca         8.4515698865       20.7021533154        2.9780441124
 Ca         2.0056650216       14.7222896889        6.5129750757
 Ca         0.3932509201       11.9619062295        2.9701739215
 Ca         6.2820783742       18.0483063355        5.3752662771
  O         3.7615768107       13.1086168490        2.9403838952
  O        10.7071591111       18.5826990356        6.5991330249
  O         8.9602849920       22.9433129135        2.9383079045
  O         2.3131509904       17.1544687284        6.2920928817
  O         2.0907903241       13.4262099129        8.6034715678
  O         8.5461880439       18.6014345637        5.4311218753
  O        10.5352156273       22.4842878481        8.6638101538
  O         4.1490893914       17.2333867936        4.5600655483
  O         2.1502714643       23.0306326728        2.9376124921
  O         9.1854330715       16.6684671130        6.6893949565
  O        10.5684114738       12.8003492504        2.9399395673
  O         4.0922203527       18.8566662198        6.2919765276
  O         4.1342062638       21.9483102789        9.4034373714
  O        10.4664174304       17.2258583111        4.6404090883
  O         8.4161943169       13.4858344732        8.8513493243
  O         2.2864624861       18.7873414507        4.5594776081
  O         4.4124150351       20.7769092328        4.2198087738
  O        10.6484216818       14.5458484234        7.4899565927
  O         8.3656731705       15.1275685257        4.2428529441
  O         2.2250471219       20.9158338121        7.4846516069
  O         6.1134663920       19.4075244844        2.9544105445
  O        12.6901475946       13.5149737319        6.6874990521
  O         6.7569092363       16.5793507101        2.9546728137
  O         0.2834418256       22.3243870606        6.8518922416
  O         6.2873210738       21.8352409535        2.9443110716
  O        12.4440305027       15.8595123035        6.3179976295
  O         6.4383101340       14.1652374405        2.9443638516
  O         0.2780195340       20.0354455399        6.2169798314
  O         4.8612249606       21.1436352890        8.7805923969
  O        10.9549478875       14.3109596068        5.1231146284
  O         8.1125644776       14.6872386861        9.0877966520
  O         1.9634035849       21.5741890700        5.2094294207
  O         1.9713614644       15.3830747077        4.2439344239
  O         8.4677400431       20.8277615056        7.5626924463
  O        10.7994818221       20.4805703730        4.2809022844
  O         4.1678672025       15.1652183402        7.5585686250
  O         0.1886806032       16.5912387428        2.9546572807
  O         6.7667342047       22.4795486401        6.8466775789
  O        12.5838350166       19.3271543245        2.9521835890
  O         5.9693001875       13.5903475721        6.9221302814
  O         0.2131672943       14.1881579030        2.9415809731
  O         6.4794085114       20.2024631681        6.2199106014
  O        12.5017803583       21.7356580617        2.9417793112
  O         6.1370903991       15.8741172402        6.2242765605
  O         1.6381929211       14.5896346659        8.8498182270
  O         8.3752205936       21.5043110517        5.2637541743
  O        10.9241201343       21.3250173734        9.0022681735
  O         4.3413722102       14.4249558077        5.2792779759
  O         4.0588096909       17.7041603180        1.8353247159
  O        11.2353211421       23.6004893846        5.1596044809
  O         8.7687141489       18.4537551771        2.9269890146
  O         1.4754304104       12.3056721142        5.2458520662
  O         2.3491494532       18.8040619633        9.4697857718
  O         8.2041163928       12.3687923804        5.8851889871
  O        10.2002790761       16.6169683717        9.4110857821
  O         4.8821796117       23.6741893823        5.4411290257
  H         4.9528109284       18.1114852612        1.8887463877
  H        11.4445700462       11.8176670818        6.3609575425
  H         8.0430828673       17.7667398576        2.9513391920
  H         0.9986002944       24.1107783001        6.0937822731
  H         2.6776518459       18.0844494243        8.9172794420
  H        11.0405716544       24.5538276886        5.3162195019
  H         9.9135885695       17.1229381961        8.6387896957
  H         1.8440048766       11.3884717713        5.2257367640
  H         3.8581549823       17.7869933520        2.8468175108
  H         7.5941726968       11.7434800964        6.3427592286
  H         9.6322116863       18.0053689000        3.0022256791
  H         5.3507034740       12.1342981308        5.9506752366
  H         2.2235139307       19.5354698793        8.8456456733
  H         9.0609187939       11.8933869133        5.8696557245
  H        10.6014654018       15.8387836518        8.9954283810
  H         4.3240693523       24.4534813983        5.2508912048
  S        15.8954105208       12.0228203922        1.9671598514
  S        22.4071577214        5.9057296146        5.8531739211
  S        22.4215072918       -0.1174063903        1.9636349155
  S        15.8862130453        6.1498103496        5.8837764228
  S        17.8768423414        8.6000779160        2.9409838495
  S        24.3703287365        2.6708290637        6.4878954823
  S        20.3792634455        3.3642812450        2.9375909700
  S        13.8425836955        9.2966086479        6.5068160422
  S        13.9617647040        3.4095530795        2.9453237960
  S        20.1842994073        9.2767670622        6.5554509648
  S        24.2950171825        8.5787419268        2.9386752737
  S        18.0265408211        2.6374574593        6.5155914472
 Ca        19.7399101548       -0.0306431187        2.9698452957
 Ca        12.8282996985        6.0191305122        5.1455388961
 Ca        14.8189153612        8.6575995092        2.9814460546
 Ca        21.2645853850        2.5589217339        6.4971641251
 Ca        23.4520552495        3.2161945313        2.9804806182
 Ca        17.0335321799        9.4242456632        6.5069288479
 Ca        17.1141364289        3.1380858505        2.9791367476
 Ca        23.3520397983        9.0805142506        6.5502973881
 Ca        21.0841118293        8.7505949567        2.9814487428
 Ca        14.8605965365        2.8890735988        6.5972271619
 Ca        12.4231621760        0.0268106451        2.9739582617
 Ca        19.3073628536        5.9306188444        5.7847330917
  O        16.7266432486        0.8583895359        2.9401288695
  O        23.4410668492        6.5725400009        6.7050257808
  O        21.5628984921       11.0090479101        2.9411106161
  O        14.9094890113        5.2621314403        6.6046239476
  O        14.9682452521        1.3890268474        8.5896055705
  O        21.4187110669        6.9184769192        5.4062821401
  O        23.4035345495       10.3916337196        8.6828428141
  O        17.0681984046        5.3663412561        5.4393527846
  O        15.2620102167       10.9149152414        2.9371372921
  O        21.5847502521        4.8778957594        6.5533159675
  O        23.1324990769        0.9414679879        2.9392917370
  O        16.3367716632        7.2391164763        6.7598519801
  O        17.0161938173       10.6343465248        8.6208689447
  O        23.1871934902        5.2902701213        4.7069925492
  O        21.2625086567        1.4559146209        8.6138670247
  O        15.0959357348        6.6674757401        4.6896923823
  O        17.1104527339        8.6746253848        4.2409731040
  O        23.4296068393        2.9263636521        7.5898856442
  O        21.1663090218        3.2667367449        4.2283215660
  O        14.7713060253        9.2746161134        7.6446215905
  O        18.8249881705        7.3771421951        2.9523716644
  O        25.2382840916        1.4926035163        6.7666921623
  O        19.4756458136        4.6238296217        2.9552123934
  O        12.8257296835       10.3726080262        6.6230061791
  O        18.9178645494        9.7987469472        2.9417272827
  O        25.2970536114        3.8272837731        6.2264308125
  O        19.3029321990        2.2004789943        2.9428957145
  O        13.0668828164        8.0237392596        6.3112561003
  O        17.3737770712        9.4601700863        8.9214859946
  O        23.5174467357        2.3838305423        5.2624023922
  O        20.9017774621        2.6491276129        8.8463289347
  O        14.7008307643        9.5666086366        5.2649624865
  O        14.7166319769        3.3678571805        4.2694025007
  O        21.1132765248        8.8814752886        7.6323488060
  O        23.5123777431        8.5986593967        4.2409726558
  O        17.0910974563        3.0615925992        7.5676297473
  O        12.9931806670        4.6328776140        2.9527436087
  O        19.3647352199       10.4715303550        6.9166251399
  O        25.3014588346        7.3848663151        2.9533497338
  O        18.7920672565        1.4055475329        6.9026924076
  O        12.9181517960        2.2210926713        2.9422653212
  O        19.1556063001        8.1941972561        6.2351726229
  O        25.3005217153        9.8046516416        2.9439804096
  O        19.0895980741        3.6739381502        6.2303449913
  O        14.5039601527        2.4948472815        8.9957142838
  O        21.0147601055        9.5694845642        5.3284976742
  O        23.7905769536        9.2113963588        8.9259382412
  O        17.2041603987        2.3836507167        5.2693412203
  O        16.7928456077        5.3829381565        2.9282437997
  O        23.4982830257       11.5752331132        5.7588865006
  O        21.4380117201        6.5016348827        2.9275972959
  O        14.3014993241        0.4323106791        5.2774604758
  O        14.8149244907        6.5465194163        9.3256893524
  O        20.6640948412        0.2241724947        5.2410195834
  O        23.4774413634        5.3213895382        9.4821883048
  O        17.4494157186       11.6610737988        5.2632032450
  H        17.5379079726        6.0432438997        2.9595038929
  H        24.3929437602        0.1042306094        5.9764518481
  H        20.6918782070        5.8330170705        2.9489997968
  H        13.6338494728       12.3595986824        5.7935016556
  H        14.9255850402        6.0099323062        8.5304626702
  H        23.5770392555       12.3307164337        5.1474553048
  H        23.4068711243        5.9385896433        8.7415157458
  H        14.4202265854       -0.5385619509        5.3094624845
  H        15.9431762095        5.8570624388        3.0011900679
  H        19.9522027280        0.1974958611        5.9160349832
  H        22.2947418640        6.0409963694        2.9965532673
  H        17.8169216773        0.0868383465        6.2719692439
  H        14.8113627232        7.4442719680        8.9646433882
  H        21.0250751172       -0.6997269852        5.2868353277
  H        23.4967386553        4.4645501727        9.0311081437
  H        16.6980752124       12.2450573352        5.0449045428
  S        16.3065675324       23.3551550205        2.9503227308
  S        22.3381545710       17.9054049917        5.4601817382
  S        21.9811319009       12.4818423841        2.9504548625
  S        15.9374363899       18.0154788139        5.4574532741
  S        17.9886115004       20.6096449457        2.9363843135
  S        24.3619775320       14.7295882251        6.4331857635
  S        20.3036524249       15.3050614493        2.9386122329
  S        13.8490900036       21.1578054698        6.4209949850
  S        13.8780029483       15.4349578846        2.9423289621
  S        20.3416511148       21.1497999761        6.5226874249
  S        24.3665746324       20.4770554723        2.9359906090
  S        17.8801057298       14.7774758583        6.5025700240
 Ca        18.5606073489       11.9969819351        2.9726093049
 Ca        12.7425518276       17.8889531392        5.1585451365
 Ca        14.6160389234       20.5617478819        2.9765944405
 Ca        21.0149674186       14.6599699330        6.5714704872
 Ca        23.6142435899       15.3235339155        2.9769364954
 Ca        17.1971689409       21.2667563567        6.5196183527
 Ca        17.0535476306       15.3757726037        2.9750212611
 Ca        23.5133180396       21.2483993219        6.4886266886
 Ca        21.2361463971       20.5368711459        2.9744078272
 Ca        14.7881506043       14.8019804810        6.5778038112
 Ca        13.1462685737       11.9654436454        2.9699784141
 Ca        19.1480119538       17.9529534678        5.2166384918
  O        16.5509120968       13.1286794803        2.9389953778
  O        23.2006544529       18.7686855403        6.2956896135
  O        21.7287309427       22.7800722025        2.9395274076
  O        15.0772259787       17.1494093582        6.2961705808
  O        14.8856283436       13.4255445745        8.6746743634
  O        21.4049934003       18.6855177970        4.5407210607
  O        23.3308042262       22.5120147896        8.6024412086
  O        16.8796594908       17.2352876104        4.5494568371
  O        14.7784859143       23.1102316032        2.9373106757
  O        21.4235809844       17.0751039579        6.2823762917
  O        23.5210654632       12.7136012657        2.9425272154
  O        16.8218144769       18.8603710936        6.2868349369
  O        17.0883879360       22.6507048804        8.5361300323
  O        23.2691081573       17.1333415764        4.5624314920
  O        21.2750327036       13.4872020500        8.6886177605
  O        15.0046254599       18.7742797719        4.5578431493
  O        17.2047838173       20.6978260655        4.2306988228
  O        23.2791081301       14.9934840029        7.4023812471
  O        21.0831706565       15.2161932577        4.2348817856
  O        14.9311606007       20.9907643152        7.4125795200
  O        18.8987438169       19.3312518324        2.9535095554
  O        25.2300985679       13.5909205147        6.8467161290
  O        19.3864354731       16.5825183623        2.9535250384
  O        12.8890648072       22.2428181185        6.7790384041
  O        19.0771740904       21.7596006636        2.9452064245
  O        25.2894359951       15.9154408943        6.2849429055
  O        19.2129314526       14.1586551879        2.9447651657
  O        13.0135411896       19.9155506868        6.2893770062
  O        17.4679064776       21.4812016089        8.8573223530
  O        23.6958087517       14.3940475150        5.1185689719
  O        20.7338707156       14.6025484170        8.9348852999
  O        14.5278891414       21.5166757813        5.1143202171
  O        14.5968194650       15.4359081160        4.2776083442
  O        21.3166925925       20.7624834714        7.5542362825
  O        23.6026180658       20.5223711544        4.2434815036
  O        16.9426979635       15.1700140374        7.5655662429
  O        12.8183408195       16.5845842545        2.9523625075
  O        19.4732061339       22.3068153805        6.8579531803
  O        25.3915668299       19.3048801424        2.9549036941
  O        18.6836235773       13.5729917532        6.8440536435
  O        12.9151554179       14.1759783080        2.9407399678
  O        19.3838909063       20.0231767783        6.2050075728
  O        25.3767319585       21.6936423389        2.9427241622
  O        18.8980640204       15.8642232690        6.2157798310
  O        14.4945212627       14.5872676068        8.9972700178
  O        21.1659715495       21.5102327197        5.2745049375
  O        23.8703346647       21.3952981860        8.8507005053
  O        17.0434479586       14.4906303619        5.2684183353
  O        16.6927273551       17.7164443271        1.8353307830
  O        23.9152911220       23.5051509971        5.3247427300
  O        21.4548426386       18.2131981639        1.8330147999
  O        14.3223097152       12.2587745464        5.1030671552
  O        15.2214706460       18.7253294283        9.2322235830
  O        20.8374062721       12.4527178618        5.6823706507
  O        22.6671795759       17.1856130793        9.1627979187
  O        17.2406335003       23.5066283431        5.6839091854
  H        17.5929972011       18.1093927833        1.8808622218
  H        24.0088725130       11.9020467809        6.5250190744
  H        20.5512181979       17.8292902215        1.8918631736
  H        13.6076528364       24.5808060670        5.9488801784
  H        15.6056267767       18.0809854551        8.6250855005
  H        23.2358486744       24.1063615089        4.9728232520
  H        22.3916343439       17.8021705519        8.4726538917
  H        14.5937816333       11.3101295930        5.1788905993
  H        16.5042917115       17.7884608325        2.8495553518
  H        20.2270303462       11.8864845501        6.2133894001
  H        21.6551337507       18.1294989293        2.8465529070
  H        17.9492884263       12.1994436979        5.9303255489
  H        14.9953689927       19.4678914165        8.6520328163
  H        21.6641925971       11.9312195592        5.6951339218
  H        23.0785274383       16.4643778157        8.6638943014
  H        16.4713477869       24.0821697237        5.5448065003
  O         8.6579819149       17.0988372173       20.9132318883
  H         8.2459592800       16.9542020021       20.0525959651
  H         8.4130487051       16.3119501333       21.4274637779
  O         2.8329752679        9.7592705623       18.5763849126
  H         2.8261779953       10.4365139807       17.8888404239
  H         2.7378420433        8.9396190248       18.0738152838
  O         6.7029635999        7.2032847225       24.8835647862
  H         7.7602819646        7.8303999403       24.8813526387
  H         5.5219717996        7.5543598072       24.8813527366
  O        16.5960358625        5.8951771374       22.4133778332
  H        16.6554195158        6.4683357392       21.6440490001
  H        16.5600412862        6.2513273855       24.8688266814
  O        14.3378038921       13.1562760221       22.4095090135
  H        14.6023237752       13.2524225239       24.8688076732
  H        14.9026489690       13.3452531558       21.6553101937
  O        14.4900864160       21.7043512688       15.9389137102
  H        14.8139198658       21.8067651150       15.0236535796
  H        13.5711036564       21.4493820303       15.7988963631
  O        23.0762077916        9.5195604798       15.7045047113
  H        22.9395707297        9.8206238097       14.7983347020
  H        23.7362558357        8.8220509068       15.6081097842
  O         5.8339732854        9.6105595600       11.3235895560
  H         6.4719565277       10.1225931903       10.8102000271
  H         5.1733289796        9.3514266189       10.6655575829
  O         6.6252669376        3.9620632632       15.0677703930
  H         6.1144293772        4.7316834917       14.7839282845
  H         6.8109994133        3.5039521123       14.2395486963
  O         1.3775701376       21.0557508294       21.4606903728
  H         1.3664562921       20.8803876185       20.5036253769
  H         1.7687436331       20.1852210155       21.7282523863
  O        18.6985369141        4.7636834171       17.6981293773
  H        17.9537857533        5.3331034965       17.4743704619
  H        19.1803754169        4.6795409951       16.8671379440
  O        16.5911788610       18.8928215258       17.7778786578
  H        17.2464537006       18.5577040699       17.1551589314
  H        16.0950711888       19.5420782337       17.2573283730
  O        20.1618292686       14.2867220520       17.7011867179
  H        20.9639447854       13.9813345174       17.2594123675
  H        19.5182728177       14.3414412301       16.9843383073
  O         2.9983514450       13.0721955713       13.1483915845
  H         3.4436221338       12.4829162370       12.5257712048
  H         2.5446865797       13.7018516730       12.5759759396
  O        20.2633386149        0.7052392847       24.8837377478
  H        20.1909598996       -0.4678757252       24.8817386300
  H        21.3163090336        1.2314416778       24.8817721051
  O        20.6450984194       17.1790102770       19.6082404130
  H        21.1532612268       17.7147489480       18.9880615585
  H        20.4700768655       16.3705051393       19.1020366078
  O         9.8625583730       -1.9917506465       24.8832833560
  H         8.8711878688       -2.7822307045       24.8812972649
  H        19.2845583617        1.3531378458       24.8816311518
  O         8.0951099001       14.7737671650       23.6733049729
  H         8.8045759204       14.6738311684       24.8496439034
  H         7.3630760294       14.8984191137       24.8500025819
  O         7.4414583555       15.5759156614       15.7837105091
  H         7.8308148613       15.5146438319       14.9037744457
  H         6.4929918030       15.5836623150       15.6078189541
  O        15.1387263348       21.8667055325       13.1545008107
  H        15.1960741445       21.1181118992       12.5475370875
  H        15.1459327356       22.6420617882       12.5806303161
