     488
Lattice="25.5010000000        0.0000000000        0.0000000000        0.0000000000       23.9690000000        0.0000000000        0.0000000000        0.0000000000       43.8610194797" Properties=species:S:1:pos:R:3 pbc="T T F" Converged=F
  S         3.2223050871       11.9394111469        1.9434819807
  S         9.5839317576        5.9667182547        5.4664590105
  S         9.5558750294        0.0037773926        2.0930428601
  S         3.1846900527        5.9805342733        5.4341621470
  S         5.2064599974        8.5837843300        2.9806191316
  S        11.5771172532        2.7736997841        6.4095177813
  S         7.6441852583        3.4027757430        2.7909084183
  S         1.1573103109        9.1998464439        6.4147570791
  S         1.0713686217        3.4254949021        2.9943154214
  S         7.5742778411        9.1835474779        6.5237043173
  S        11.6347872128        8.5774056327        2.8986193811
  S         5.1685348299        2.8131412192        6.4526804036
 Ca         6.3799578206        0.0259958299        2.9542270313
 Ca        -0.0493124655        6.0014088648        5.2076855435
 Ca         1.9804112966        8.5929633677        2.9772033508
 Ca         8.3114711888        2.6671613979        6.5027924371
 Ca        10.7328120295        3.3489457036        2.9751990081
 Ca         4.4203163002        9.2970708048        6.5041703501
 Ca         4.3170609921        3.3335808796        2.9980212203
 Ca        10.7663978468        9.2580853519        6.5292528581
 Ca         8.4577247520        8.6677921056        2.9679172437
 Ca         1.9892575776        2.7098764738        6.4281844360
 Ca        -0.0455906097       -0.0381384904        2.9632331868
 Ca         6.3594908074        6.0075070330        5.1749014230
  O         4.1027270106        0.9409829016        2.9495057720
  O        10.4677271813        6.8267114092        6.2813616656
  O         8.7134676294       11.0370308986        2.9229240807
  O         2.3012861805        5.1447676649        6.2816057797
  O         2.1884312168        1.2951276347        8.4528277624
  O         8.6323697409        6.7457165934        4.5614887172
  O        10.6149007080       10.5672311676        8.6172206800
  O         4.1298642364        5.1889854183        4.5515340806
  O         2.4507665152       10.9072701885        2.9028917828
  O         8.6867956974        5.1236350175        6.2910105919
  O        10.5052680858        0.9175919303        2.9559368431
  O         4.0653655154        6.8368611919        6.3006876844
  O         3.9022695320       10.5556436320        8.5819223875
  O        10.4918866594        5.2011180860        4.5443224807
  O         8.5533615664        1.4777813832        8.6641151318
  O         2.1998275633        6.7689213118        4.6030307601
  O         4.4119138258        8.6827283094        4.2525153101
  O        10.5318371373        3.0669599313        7.4081302242
  O         8.3240266863        3.2780856839        4.1973915000
  O         2.2125246164        8.9579652593        7.4162400587
  O         6.1114018633        7.2925173576        2.9523452544
  O        12.4428552506        1.6190155959        6.7864156795
  O         6.7630680364        4.6630900663        2.9020242299
  O         0.2936333271       10.3582411246        6.7898024273
  O         6.2934297631        9.7309267210        2.9185016091
  O        12.5264908390        3.9314739422        6.2253363523
  O         6.4962310895        2.3065792048        2.9269963843
  O         0.1945220136        8.0532316496        6.3059723425
  O         4.3062869351        9.4650926454        9.0067080951
  O        10.8628783999        2.4409412736        5.1227539332
  O         8.0431525250        2.5627621744        8.9520897066
  O         1.8337347444        9.5062103436        5.0984573031
  O         1.9241515989        3.3645272118        4.2352424529
  O         8.5480078224        8.8075340347        7.5593019917
  O        10.8973073098        8.5932716642        4.2415639590
  O         4.1857354404        3.2112619615        7.4727288886
  O         0.0302214328        4.6014123521        2.9443617935
  O         6.6861705741       10.3287484121        6.9166852975
  O        12.6639594140        7.4116366175        2.9694532235
  O         6.0003313600        1.6350309372        6.8452878393
  O         0.1160645479        2.1860010778        2.9147250110
  O         6.5899332540        8.0695899928        6.2365027300
  O        12.6202006472        9.8146940841        2.9435349102
  O         6.1778984989        3.9096328275        6.1623033086
  O         1.6921784054        2.4205912254        8.8214828722
  O         8.3651978916        9.5505091723        5.2772160128
  O        11.0936990827        9.4371365289        9.0015128354
  O         4.3842952436        2.4461101657        5.2064309534
  O         4.0480546225        5.6307803562        1.9301688788
  O        11.0202645690       11.5703347154        5.6517516781
  O         8.7997264877        6.3393324153        1.9012228635
  O         1.5516376053        0.4413894490        5.2364202661
  O         3.1487631034        6.8064895980        9.2613792822
  O         7.8261915064        0.3811956731        5.2820404975
  O         9.7801234689        5.3086093696        9.3029078263
  O         4.8928170856       11.6558795153        5.2695604694
  H         4.8684654331        6.1071889918        1.8952379588
  H        11.6474557198        0.1799342825        6.0796385917
  H         7.9131633049        5.9157487559        1.9120311066
  H         1.0196708681       11.7369924817        5.8416376629
  H         3.5121386988        5.9808044541        9.5352737534
  H        10.5900021808       12.1294218216        5.0333824765
  H         9.2640621380        6.1064523849        9.1908264142
  H         2.1473847503       -0.2985447035        4.8456356957
  H         3.7370839900        5.7492022621        2.8500515812
  H         7.4209593372       -0.1578840248        6.0038821332
  H         9.0676898615        6.2620554017        2.8575387541
  H         5.3463312623        0.1861371484        5.9449820469
  H         3.2533057140        6.7302698001        8.2789453051
  H         8.4509131056       -0.2759154326        4.9335895934
  H         9.7958470150        4.9537269589        8.4282099736
  H         4.1802848760       12.2324194464        4.9605500800
  S         3.1902460628       23.9608270088        2.0754182829
  S         9.5449730288       17.9652776062        5.5610180594
  S         9.2352886803       12.4610444721        2.9034227676
  S         3.1868524801       18.0091523896        5.4649332314
  S         5.1905133283       20.5832466595        2.8909497277
  S        11.5629169067       14.7344308464        6.4302243941
  S         7.6023848947       15.3133444707        2.8492445719
  S         1.2212006518       21.2423818521        6.4438736938
  S         1.2243906621       15.4326487056        2.8836611612
  S         7.5906633828       21.2399978895        6.5168983521
  S        11.6066710250       20.5664299949        2.9732428645
  S         5.1153788063       14.7638589521        6.5228644954
 Ca         5.9728307325       11.9454000620        2.9700327826
 Ca         0.0227440736       17.9833909818        5.1681266333
 Ca         2.0094757750       20.6191021221        2.9718783829
 Ca         8.2920497538       14.5782246092        6.5073546654
 Ca        10.8089242303       15.3650533668        2.9337583549
 Ca         4.4454600566       21.3245174457        6.4195182820
 Ca         4.3173195381       15.3339754368        2.9653053322
 Ca        10.7830755582       21.2561755920        6.5183007882
 Ca         8.4599991256       20.5923530723        2.9070026630
 Ca         1.9849905563       14.6689771416        6.4671426249
 Ca         0.3483691325       11.9854912693        2.9728779963
 Ca         6.3647025165       17.9807273879        5.3104348037
  O         3.9220810241       13.0495844528        2.8770040753
  O        10.4981311416       18.7576305337        6.3917326746
  O         8.6484549693       23.0273599605        2.9698378809
  O         2.2965436562       17.1602772875        6.2898412822
  O         2.0914806990       13.4290889048        8.6079065665
  O         8.5596058977       18.8303706437        4.8301159529
  O        10.5391554795       22.5012147630        8.6903308546
  O         4.1255945600       17.2121289506        4.5847820478
  O         2.2524596200       23.0460395188        2.9528004381
  O         8.7224555194       17.0311281703        6.3859328890
  O        10.7142561489       12.7301190953        2.9476865672
  O         4.0945774662       18.8481447058        6.2957021641
  O         3.8755183320       22.2979229203        9.4793302257
  O        10.4964778366       17.2102103650        4.6383093069
  O         8.4722266289       13.5106437807        8.6525553776
  O         2.2601872429       18.7898611039        4.5705089490
  O         4.4455150780       20.6890569481        4.2373411947
  O        10.4905613332       15.0013497970        7.4085724254
  O         8.3414463047       15.2169614298        4.2113191997
  O         2.3121723779       20.9551793757        7.4092591749
  O         6.1295479627       19.3495700431        2.9604723125
  O        12.4342719894       13.5889530123        6.8348010969
  O         6.7401474764       16.5884765668        2.9001652743
  O         0.3652659633       22.3780978576        6.8928064880
  O         6.2846574740       21.7190201910        2.9050442329
  O        12.4993494290       15.9144999337        6.2894058375
  O         6.4709195625       14.1897940247        2.8917528474
  O         0.2747863305       20.0815401354        6.2746388848
  O         4.6752487491       21.5021744197        8.9287029294
  O        10.9099502955       14.4196392986        5.1037746484
  O         8.0572506722       14.6853721465        8.8425945880
  O         1.9101413497       21.5596525655        5.1333788798
  O         1.9612961948       15.3814259525        4.2197661711
  O         8.5460342483       20.8330433645        7.5563956939
  O        10.7874668968       20.6217586700        4.2485326773
  O         4.1644353237       15.1412563118        7.5814809221
  O         0.1955445624       16.5971468071        2.9303521353
  O         6.7413867163       22.4067845483        6.9400828621
  O        12.5790828488       19.3436667175        2.9450546176
  O         5.9445576942       13.5859954826        6.9083804561
  O         0.2054126855       14.2160958595        2.9293173327
  O         6.5829599148       20.1384081860        6.2308355728
  O        12.6019554891       21.7694805978        2.9074814668
  O         6.1237935318       15.8562609180        6.2221404850
  O         1.6186133135       14.5890050470        8.8012144428
  O         8.3688147869       21.5709758349        5.2546220198
  O        10.9323538743       21.3251620655        8.9888964335
  O         4.3394407564       14.4049873894        5.2617058865
  O         3.9867807034       17.6322447854        1.7656014150
  O        11.1213764964       23.5828375762        5.3753167519
  O         9.2307114562       18.2376022818        2.4382164610
  O         1.5320760150       12.3240340807        5.2917397330
  O         2.2730335271       18.6379274124        9.4342944178
  O         7.7738270672       12.3261742554        5.5213016565
  O        10.0858827011       17.1993925707        9.3001802095
  O         4.9048530240       23.6125128311        5.2618770727
  H         4.9182326940       17.9951961920        1.9549947353
  H        11.5687894154       12.1597094179        6.1590365428
  H         8.5021011270       17.8823571125        2.9680994594
  H         1.0965762388       23.8515561438        6.0787451383
  H         2.6598378919       17.7686969131        9.1349941762
  H        10.5688404138       24.1227208513        4.8641347670
  H         9.7686245800       18.0586128264        9.1956257426
  H         2.1592814572       11.6334216695        4.9305562400
  H         3.8543671261       17.7448891442        2.8320850629
  H         7.3765133685       11.7867154749        6.1785308154
  H        10.0183977802       18.2030864310        2.9973886464
  H         5.2163839596       12.1806421303        5.9216964763
  H         2.4155096218       19.2400588214        8.6146858849
  H         8.3911724680       11.5751574037        5.1889086628
  H        10.0352040131       16.7740695438        8.4331490351
  H         4.2398185066       24.2515784338        4.9163141917
  S        15.9261144748       12.0075269581        1.9785188776
  S        22.3617099198        5.9405598344        5.8180577367
  S        22.2738125381       -0.0224806043        2.0284240930
  S        15.9418825278        5.9741782570        5.5790338623
  S        17.9504833531        8.6001608033        2.9163340881
  S        24.3440052277        2.7409475000        6.4171155455
  S        20.3455574701        3.4071745104        2.8579159179
  S        13.9375502989        9.2097511208        6.4244568919
  S        13.9189031375        3.4262191100        2.8908155577
  S        20.2735748489        9.2529271768        6.5699739383
  S        24.3256682911        8.6006658881        2.9876228377
  S        17.9136128728        2.7373353899        6.5116307912
 Ca        19.1573773591        0.0209697378        2.9503708444
 Ca        12.7388249957        6.0031193605        5.1482896787
 Ca        14.8210877084        8.6235620075        2.9520095391
 Ca        21.0922763413        2.6263081455        6.5003106835
 Ca        23.4538512057        3.2562598604        2.9962294575
 Ca        17.1382883254        9.3553978022        6.4912456774
 Ca        17.0302180299        3.3774177392        2.9633883136
 Ca        23.4228994577        9.2169887239        6.5205690954
 Ca        21.1582718065        8.6977706093        2.9360503952
 Ca        14.7199373772        2.6887998080        6.5154683046
 Ca        12.8081413952        0.0145921401        2.9825565677
 Ca        19.1322395113        6.0162696232        5.4301396007
  O        16.8798866252        0.9463902046        2.9416851532
  O        23.3508447413        6.7074187732        6.6219375488
  O        21.5795735555       11.0111523343        2.9605545892
  O        15.0457076975        5.1416514360        6.4019253021
  O        14.8956804358        1.3914660015        8.5907498351
  O        21.3678003401        6.8678258518        5.2268234623
  O        23.3993569850       10.4024887571        8.6753510946
  O        16.9307442335        5.1476740311        4.7853880776
  O        15.1867033145       10.9266593963        2.9343027016
  O        21.5548070406        4.9633599837        6.5583659801
  O        23.1981903041        0.9173268476        2.9031889949
  O        16.8129500544        6.8922867927        6.3234421543
  O        17.0253004862       10.5987389313        8.5996034305
  O        23.1406651421        5.3013399560        4.6547566297
  O        21.3420959165        1.4877221257        8.6058699854
  O        15.0636284710        6.6533833694        4.5343998922
  O        17.1740328354        8.7242280095        4.2167787961
  O        23.3378113277        3.0463290303        7.4425791329
  O        21.0681755617        3.2817853534        4.2138993665
  O        14.9840907799        8.9564851871        7.4367047797
  O        18.8311417509        7.3321667406        2.9604592305
  O        25.2018089803        1.5701188134        6.7634397351
  O        19.4897429337        4.6911990528        2.9324766946
  O        13.0643085128       10.3548993737        6.8002102259
  O        19.0525745762        9.7542985359        2.9436189945
  O        25.3030223307        3.8885255875        6.2052160877
  O        19.2045140022        2.3128808842        2.9671069297
  O        12.9861046867        8.0509239785        6.3045075274
  O        17.3754210023        9.4582151443        8.9092891442
  O        23.5838545778        2.4308974784        5.1412906505
  O        20.8990769959        2.6452619441        8.8185900589
  O        14.6451785482        9.4966582580        5.1201770746
  O        14.6870942782        3.3687942021        4.2158398343
  O        21.1836145921        8.8077035240        7.6379610225
  O        23.5066872127        8.6088808828        4.2649077577
  O        16.9552292480        3.1401533334        7.5562737262
  O        12.9268517838        4.6176386498        2.9416667755
  O        19.4473383976       10.4452288414        6.9433699765
  O        25.3002605661        7.3634614034        2.8974929718
  O        18.7606151329        1.5579400044        6.8588840312
  O        12.8924180674        2.2160753961        2.9495257827
  O        19.2296801216        8.2011706102        6.2358067543
  O        25.3121713334        9.8156025422        2.9277275643
  O        18.9190024020        3.8362506948        6.2241055214
  O        14.4817323051        2.5291708298        9.0131380364
  O        21.0977729462        9.5799448647        5.3371420710
  O        23.8055055044        9.2036635385        8.9326087554
  O        17.1205927004        2.3927870096        5.2613169975
  O        16.3782974409        5.7223273163        2.4503768666
  O        23.7028334454       11.5752889903        5.7594416562
  O        21.7672132112        6.4053227700        2.8500352623
  O        14.3110077313        0.3218943876        5.2286018406
  O        14.6989028677        6.4964615200        9.1424778883
  O        20.6099244178        0.3692081740        5.2750430866
  O        23.1224132164        5.4466039216        9.3940905932
  O        17.6012132751       11.6809959695        5.2779476432
  H        17.1069128612        6.0701855647        2.9809257125
  H        24.5340874400        0.1348607284        5.9351421502
  H        20.9642659835        5.8098692496        2.9223934873
  H        13.7899865834       11.8150606044        5.9060614410
  H        15.0635402695        5.7168958863        8.8957358340
  H        23.3692063542       12.3018352428        5.2426730123
  H        22.7142594959        6.2169425033        9.1594353622
  H        14.9055721559       -0.1703302938        4.8107336683
  H        15.4830238416        5.7959333554        2.9778330375
  H        20.1757942937       -0.1661961683        5.9599851891
  H        22.5001813134        6.1418176177        3.0478235586
  H        18.1194418090        0.1373155303        5.9905459958
  H        14.8733726332        7.2616851884        8.3909136318
  H        21.2427557862       -0.3421141408        4.9331786587
  H        22.9759275535        4.8624543643        8.6652180897
  H        16.9411085049       12.3396828410        5.0309599718
  S        15.9745089677       23.9735277240        2.0569053593
  S        22.3412292155       17.9157487033        5.4470256896
  S        22.0157794954       12.4712971169        2.9676368762
  S        15.9331635399       18.0081569623        5.4628391353
  S        17.9329391646       20.5962287429        2.9593833947
  S        24.3503399157       14.7274372229        6.4294129548
  S        20.2816060623       15.2963704871        3.0875526719
  S        13.9404648511       21.2125965162        6.4289169311
  S        13.9155962554       15.4561165122        2.9517017947
  S        20.3684783332       21.1503963524        6.4992996469
  S        24.3464584237       20.5085768606        2.8523692124
  S        17.9157459544       14.7679393602        6.5118583273
 Ca        18.6467893682       11.9779206626        2.9530343560
 Ca        12.7538142880       17.9789585290        5.2051624302
 Ca        14.7593026434       20.6204139603        2.9756348425
 Ca        21.0375425820       14.6185272468        6.4996835976
 Ca        23.6224579288       15.3655583011        2.9812377713
 Ca        17.2125062647       21.2986425059        6.4276584814
 Ca        17.0681081751       15.3635238262        3.0029167859
 Ca        23.5311550827       21.2488248775        6.4935741272
 Ca        21.1779475846       20.6182390771        2.9658811254
 Ca        14.7106752622       14.7197212233        6.5268763356
 Ca        13.0742189332       11.9999002996        2.9623531039
 Ca        19.1499879044       17.9557260886        5.2254507411
  O        16.6106456974       13.0808226036        2.9841003931
  O        23.2162917194       18.7823223246        6.2666058447
  O        21.4043471299       22.9654968970        2.9133394337
  O        15.0537434216       17.1454718167        6.2875513606
  O        14.8979477142       13.4002948539        8.6681637424
  O        21.3865250985       18.6959170985        4.5574717000
  O        23.3189738356       22.5135126285        8.5826669578
  O        16.8705669245       17.2290818400        4.5437208390
  O        15.0405617161       23.0257114114        2.8983006138
  O        21.4708147041       17.0546538228        6.2882369497
  O        23.5064097398       12.7696833960        2.9809225589
  O        16.8224747769       18.8497746768        6.2942614653
  O        17.0247254615       22.6493034515        8.4063522267
  O        23.3054814943       17.1430971588        4.5764959646
  O        21.2717560713       13.4426511658        8.6868785343
  O        15.0049049533       18.7654159527        4.5520069813
  O        17.1132281932       20.6970306879        4.2107722147
  O        23.2714497340       14.9962764677        7.4021074298
  O        21.1440175939       15.1930949694        4.2820967944
  O        15.0069241572       20.9178301697        7.4088434152
  O        18.8408512197       19.3147031234        2.9637521861
  O        25.2223501824       13.5955442730        6.8679423178
  O        19.4167947138       16.6390915399        2.9680437246
  O        13.0778403415       22.3759679236        6.7922605951
  O        19.0032928612       21.7464024384        2.9457918510
  O        25.2833138020       15.9093300588        6.2933109185
  O        19.2051175918       14.1517928187        2.9401944343
  O        12.9899757506       20.0461135698        6.2791680666
  O        17.3893214092       21.4733029330        8.7306214162
  O        23.6737970853       14.4088143033        5.1100613330
  O        20.8177254740       14.5913535555        8.9205282850
  O        14.6279217731       21.5164240371        5.1199303353
  O        14.6858357294       15.3912990425        4.2561368886
  O        21.3463115700       20.7764494078        7.5394158539
  O        23.6293376323       20.5288644546        4.2195645252
  O        16.9343663302       15.1467854138        7.5441241751
  O        12.9076715535       16.6527695441        2.9487062632
  O        19.5365321306       22.3343626996        6.8603049724
  O        25.3810578908       19.3484256647        2.9021547467
  O        18.7205834129       13.5679838401        6.8858804327
  O        12.9099403873       14.2256663074        2.9990835381
  O        19.3740560732       20.0386483126        6.2227300045
  O        25.3711245641       21.7375221850        2.9465324788
  O        18.9027781485       15.8732428224        6.1794333872
  O        14.4862973295       14.6202142674        9.0014613847
  O        21.1869708142       21.4899215151        5.2667691665
  O        23.8056846431       21.4145986819        8.9500221891
  O        17.0937853694       14.4322310245        5.2863570283
  O        16.6646184188       17.7231488292        1.8103033107
  O        23.8677370640       23.7136389848        5.3560836843
  O        21.5573410014       18.2995655681        1.9019707350
  O        14.2969726850       12.3472809996        5.2724394171
  O        15.1998150885       18.5664869559        9.2229111310
  O        20.6277805212       12.3676281084        5.5229593850
  O        22.9190788361       17.3771609343        9.2133406730
  O        17.6725887105       23.5719305165        5.2778540034
  H        17.6248019918       18.0909178786        1.9374398604
  H        24.2975139592       12.0688940482        6.1702825670
  H        20.6867262196       17.8573414497        1.9062697805
  H        13.7363935212       23.7771571014        6.0125667071
  H        15.5867797260       17.7393663821        8.9500455521
  H        23.4285731105       24.0456307546        4.8019232183
  H        22.6062825051       18.3113244362        8.7596136187
  H        14.9023915706       11.6976500437        4.8966346774
  H        16.5191604288       17.7775329079        2.8452689806
  H        20.1423931689       11.8527860013        6.2072479719
  H        21.8557529540       18.2130910736        2.8650804311
  H        18.0749229170       12.1693646972        5.9574807094
  H        15.2329150448       19.1918613576        8.4285541519
  H        21.2418984814       11.6055197659        5.2532078949
  H        22.9716929826       16.8280486935        8.3730070951
  H        17.0618755899       24.2990299309        4.9373337912
  O         8.5277850235       17.0814371646       20.8527034081
  H         8.7335571864       17.4908330255       20.0460634308
  H         8.1980564544       16.1556683170       20.6447675192
  O         2.9197532978        8.7950487236       18.4251621258
  H         3.7994708128        8.9589145436       18.7173389959
  H         2.4602194376        9.2050624239       19.2296607124
  O         6.6971982485        7.2004275840       24.8764357521
  H         7.0400670845        8.3378500361       24.8700940005
  H         5.5424523770        6.8935584557       24.8707257322
  O        16.6143293963        5.9033921117       22.3735317649
  H        16.8555160685        6.2321234681       21.5280267661
  H        16.7504156729        6.4777387768       24.8465355668
  O        14.2848497425       13.1828225469       22.3535856964
  H        14.2712280706       13.3215131282       24.8464754873
  H        14.3329322167       13.8579795182       21.6789763808
  O        14.4596950507       21.6993185939       15.9161421568
  H        15.2345155774       22.0631070675       16.3850192490
  H        14.0936156192       22.5006930807       15.7596850731
  O        23.0784779583        9.5072274185       15.7218103924
  H        22.5068809556        9.9658589339       15.0590921709
  H        23.7341812262        9.1234836398       15.1464706352
  O         5.8371344629        9.5637496654       11.0322705583
  H         6.1276835023       10.2603734378       11.6709418870
  H         4.8822166107        9.5511097131       11.1523658407
  O         6.7588160420        4.1638735729       15.0785303226
  H         6.5312264137        4.3470952256       14.2203558761
  H         7.7242217750        3.8067466790       14.8796509249
  O         1.4140467616       21.2923634047       21.2731200198
  H         1.2467604699       21.1635448348       20.2769048274
  H         2.0851796354       20.6880580532       21.4491744045
  O        18.7920202184        5.8559917698       17.6826443959
  H        18.3549572096        6.0744446869       18.5526158176
  H        18.0161694599        5.6782208809       17.1666606513
  O        16.5493118951       18.8992498901       17.8213624244
  H        17.2855514909       18.4160024910       17.2758778215
  H        15.9448817501       18.7211470615       17.1298396039
  O        20.1488342680       14.3129280737       17.7094696978
  H        20.8038802531       13.8606307927       18.3653665400
  H        20.0653049226       13.6114352883       17.0596966881
  O         2.9972909012       13.0791389708       13.1519229011
  H         2.8617776473       13.5053583588       12.3029564851
  H         2.7534920107       13.7715722864       13.7834767032
  O        16.2926330402        1.3744010820       24.8609013715
  H        16.4014521318        0.2068236413       24.8558097823
  H        17.2361892006        2.0378950715       24.8587408964
  O        20.6200716396       17.2049482877       19.6096013266
  H        21.3996048804       17.1909647597       18.9999591349
  H        20.0562772921       16.5943091389       19.1617340113
  O        12.9982796579        2.1882523246       24.8746165182
  H        11.9709231603        1.8837591976       24.8650558286
  H        15.2270971205        1.8246239064       24.9061359534
  O         8.1001509141       14.6870030315       23.7072422779
  H         8.7670972159       14.8326707457       24.8575073628
  H         7.3507962307       14.7879480005       24.8229751452
  O         7.4296942553       15.5655406450       15.7755270116
  H         7.5013458874       14.6532920013       15.5296286870
  H         6.5318358626       15.6767940536       16.0492203486
  O        15.4730813588       21.8518221312       13.1652046952
  H        15.2646046412       21.7057018943       14.0014285120
  H        15.4106768602       21.1119699558       12.7748703616
