464
Lattice="24.0688 0.0 0.0 -24.185854652055536 25.348880266190136 0.0 0.0 0.0 43.17155569273219" Properties=species:S:1:pos:R:3:spacegroup_kinds:I:1:tags:I:1 pbc="T T T"
Ca       2.82412792       4.24467000       4.03992704        0        1
Ca      -3.22233574      10.58189007       7.50447704        0        1
Ca      -2.88265524       8.42977013       4.03992704        0        1
Ca       3.16380842       2.09255007       7.50447704        0        1
Ca      -9.44900454      10.59709940       4.35312236        1        1
Ca      -3.40254087       4.25987933       7.81767236        1        1
Ca       9.39047721       2.07734074       4.35312236        1        1
Ca       3.34401355       8.41456080       7.81767236        1        1
Ca       6.01720000       0.00000000       5.48949476        2        1
Ca      -0.02926366       6.33722007       2.02494476        2        1
Ca       0.00000000       0.00000000       2.00000000        3        1
Ca      -6.04646366       6.33722007       5.46455000        3        1
S        2.68825366       1.09253674       4.15217846        4        1
S       -3.35821000       7.42975681       7.61672846        4        1
S       -2.74678099      11.58190339       4.15217846        4        1
S        3.29968267       5.24468333       7.61672846        4        1
S       -0.03017706       3.14706349       2.01039365        5        1
S       -6.07664072       9.48428355       5.47494365        5        1
S       -0.02835027       9.52737665       2.01039365        5        1
S        6.01811339       3.19015658       5.47494365        5        1
S        2.66661448       7.34230317       4.30323284        6        1
S        8.71307814       1.00508310       7.76778284        6        1
S       -2.72514181       5.33213696       4.30323284        6        1
S       -8.77160547      11.66935703       7.76778284        6        1
O        3.67211461       0.16983750       4.67671133        7        1
O       -2.37434905       6.50705756       8.14126133        7        1
O       -3.73064194      12.50460264       4.67671133        7        1
O        2.31582172       6.16738257       8.14126133        7        1
O        1.50150462       0.34474477       3.79394399        8        1
O       -4.54495905       6.68196484       7.25849399        8        1
O       -1.56003194      12.32969536       3.79394399        8        1
O        4.48643172       5.99247529       7.25849399        8        1
O        3.22265629       1.85807292       3.01234151        9        1
O       -2.82380737       8.19529299       6.47689151        9        1
O       -3.28118362      10.81636721       3.01234151        9        1
O        2.76528004       4.47914714       6.47689151        9        1
O        2.33699832       2.10268962       5.19085055       10        1
O       -3.70946535       8.43990968       8.65540055       10        1
O       -2.39552564      10.57175052       5.19085055       10        1
O        3.65093802       4.23453045       8.65540055       10        1
O       -0.78508206       2.18000370       2.82872036       11        1
O       -6.83154572       8.51722377       6.29327036       11        1
O        0.72655473      10.49443643       2.82872036       11        1
O        6.77301840       4.15721636       6.29327036       11        1
O        6.93554518       2.31942254       4.66423895       12        1
O        0.88908152       8.65664261       8.12878895       12        1
O       -6.99407251      10.35501759       4.66423895       12        1
O       -0.94760884       4.01779752       8.12878895       12        1
O        0.76475752       4.04568129       2.87306660       13        1
O       -5.28170615      10.38290136       6.33761660       13        1
O       -0.82328484       8.62875884       2.87306660       13        1
O        5.22317882       2.29153878       6.33761660       13        1
O        2.83127788       8.42977013       3.30959990       14        1
O        8.87774154       2.09255007       6.77414990       14        1
O       -2.88980520       4.24467000       3.30959990       14        1
O       -8.93626886      10.58189007       6.77414990       14        1
O        2.43986583       7.97222284       5.58442343       15        1
O        8.48632949       1.63500278       2.11987343       15        1
O       -2.49839316       4.70221729       5.58442343       15        1
O       -8.54485682      11.03943736       2.11987343       15        1
O        3.86195897       6.48931335       4.29976829       16        1
O        9.90842263       0.15209328       7.76431829       16        1
O       -3.92048630       6.18512678       4.29976829       16        1
O       -9.96694996      12.52234685       7.76431829       16        1
O        1.52968054       6.49184824       3.97756514       17        1
O        7.57614421       0.15462817       7.44211514       17        1
O       -1.58820787       6.18259190       3.97756514       17        1
O       -7.63467153      12.51981196       7.44211514       17        1
O        5.11050226       4.01906497       4.58940467       18        1
O       -0.93596140      10.35628503       8.05395467       18        1
O       -5.16902959       8.65537517       4.58940467       18        1
O        0.87743407       2.31815510       8.05395467       18        1
O        6.01720000       0.00000000       3.09826235       19        1
O       -0.02926366       6.33722007       6.56281235       19        1
O        0.56270546      10.53372719       5.51928989       20        1
O        6.60916912       4.19650713       2.05473989       20        1
O       -0.62123279       2.14071294       5.51928989       20        1
O       -6.66769645       8.47793301       2.05473989       20        1
H        0.36146983      10.32966871       6.16854656       21        1
H        6.40793349       3.99244864       2.70399656       21        1
H       -0.41999716       2.34477142       6.16854656       21        1
H       -6.46646082       8.68199149       2.70399656       21        1
H       -0.05897332      10.16490099       5.26083446       22        1
H        5.98749035       3.82768092       8.72538446       22        1
H        0.00044599       2.50953915       5.26083446       22        1
H       -6.04601767       8.84675921       8.72538446       22        1
H        6.41334024       0.21546548       2.68320926       23        1
H        0.36687657       6.55268555       6.14775926       23        1
H       -6.47186756      12.45897465       2.68320926       23        1
H       -0.42540390       6.12175458       6.14775926       23        1
Ca      -9.26879941      16.91911013       4.03992704        0        1
Ca     -15.31526307      23.25633020       7.50447704        0        1
Ca     -14.97558257      21.10421027       4.03992704        0        1
Ca      -8.92911891      14.76699020       7.50447704        0        1
Ca     -21.54193186      23.27153953       4.35312236        1        1
Ca     -15.49546820      16.93431946       7.81767236        1        1
Ca      -2.70245011      14.75178087       4.35312236        1        1
Ca      -8.74891378      21.08900094       7.81767236        1        1
Ca      -6.07572733      12.67444013       5.48949476        2        1
Ca     -12.12219099      19.01166020       2.02494476        2        1
Ca     -12.09292733      12.67444013       2.00000000        3        1
Ca     -18.13939099      19.01166020       5.46455000        3        1
S       -9.40467366      13.76697687       4.15217846        4        1
S      -15.45113732      20.10419694       7.61672846        4        1
S      -14.83970832      24.25634353       4.15217846        4        1
S       -8.79324465      17.91912346       7.61672846        4        1
S      -12.12310438      15.82150362       2.01039365        5        1
S      -18.16956804      22.15872368       5.47494365        5        1
S      -12.12127760      22.20181678       2.01039365        5        1
S       -6.07481393      15.86459671       5.47494365        5        1
S       -9.42631285      20.01674330       4.30323284        6        1
S       -3.37984918      13.67952324       7.76778284        6        1
S      -14.81806913      18.00657710       4.30323284        6        1
S      -20.86453280      24.34379716       7.76778284        6        1
O       -8.42081271      12.84427763       4.67671133        7        1
O      -14.46727638      19.18149770       8.14126133        7        1
O      -15.82356927      25.17904277       4.67671133        7        1
O       -9.77710560      18.84182270       8.14126133        7        1
O      -10.59142271      13.01918490       3.79394399        8        1
O      -16.63788637      19.35640497       7.25849399        8        1
O      -13.65295927      25.00413549       3.79394399        8        1
O       -7.60649561      18.66691543       7.25849399        8        1
O       -8.87027103      14.53251306       3.01234151        9        1
O      -14.91673470      20.86973312       6.47689151        9        1
O      -15.37411095      23.49080734       3.01234151        9        1
O       -9.32764728      17.15358728       6.47689151        9        1
O       -9.75592901      14.77712975       5.19085055       10        1
O      -15.80239267      21.11434982       8.65540055       10        1
O      -14.48845297      23.24619065       5.19085055       10        1
O       -8.44198931      16.90897058       8.65540055       10        1
O      -12.87800939      14.85444384       2.82872036       11        1
O      -18.92447305      21.19166390       6.29327036       11        1
O      -11.36637259      23.16887656       2.82872036       11        1
O       -5.31990893      16.83165650       6.29327036       11        1
O       -5.15738215      14.99386268       4.66423895       12        1
O      -11.20384581      21.33108274       8.12878895       12        1
O      -19.08699983      23.02945772       4.66423895       12        1
O      -13.04053617      16.69223766       8.12878895       12        1
O      -11.32816981      16.72012142       2.87306660       13        1
O      -17.37463347      23.05734149       6.33761660       13        1
O      -12.91621217      21.30319898       2.87306660       13        1
O       -6.86974851      14.96597891       6.33761660       13        1
O       -9.26164945      21.10421027       3.30959990       14        1
O       -3.21518579      14.76699020       6.77414990       14        1
O      -14.98273253      16.91911013       3.30959990       14        1
O      -21.02919619      23.25633020       6.77414990       14        1
O       -9.65306149      20.64666298       5.58442343       15        1
O       -3.60659783      14.30944291       2.11987343       15        1
O      -14.59132048      17.37665742       5.58442343       15        1
O      -20.63778415      23.71387749       2.11987343       15        1
O       -8.23096836      19.16375348       4.29976829       16        1
O       -2.18450469      12.82653341       7.76431829       16        1
O      -16.01341362      18.85956692       4.29976829       16        1
O      -22.05987728      25.19678698       7.76431829       16        1
O      -10.56324678      19.16628837       3.97756514       17        1
O       -4.51678312      12.82906830       7.44211514       17        1
O      -13.68113520      18.85703203       3.97756514       17        1
O      -19.72759886      25.19425210       7.44211514       17        1
O       -6.98242506      16.69350510       4.58940467       18        1
O      -13.02888872      23.03072517       8.05395467       18        1
O      -17.26195692      21.32981530       4.58940467       18        1
O      -11.21549325      14.99259523       8.05395467       18        1
O       -6.07572733      12.67444013       3.09826235       19        1
O      -12.12219099      19.01166020       6.56281235       19        1
O      -11.53022187      23.20816733       5.51928989       20        1
O       -5.48375820      16.87094726       2.05473989       20        1
O      -12.71416011      14.81515307       5.51928989       20        1
O      -18.76062377      21.15237314       2.05473989       20        1
H      -11.73145750      23.00410884       6.16854656       21        1
H       -5.68499383      16.66688878       2.70399656       21        1
H      -12.51292448      15.01921156       6.16854656       21        1
H      -18.55938814      21.35643162       2.70399656       21        1
H      -12.15190064      22.83934112       5.26083446       22        1
H       -6.10543698      16.50212105       8.72538446       22        1
H      -12.09248134      15.18397928       5.26083446       22        1
H      -18.13894500      21.52119935       8.72538446       22        1
H       -5.67958709      12.88990562       2.68320926       23        1
H      -11.72605075      19.22712568       6.14775926       23        1
H      -18.56479489      25.13341478       2.68320926       23        1
H      -12.51833122      18.79619472       6.14775926       23        1
Ca      14.85852792       4.24467000       4.03992704        0        1
Ca       8.81206426      10.58189007       7.50447704        0        1
Ca       9.15174476       8.42977013       4.03992704        0        1
Ca      15.19820842       2.09255007       7.50447704        0        1
Ca       2.58539546      10.59709940       4.35312236        1        1
Ca       8.63185913       4.25987933       7.81767236        1        1
Ca      21.42487721       2.07734074       4.35312236        1        1
Ca      15.37841355       8.41456080       7.81767236        1        1
Ca      18.05160000       0.00000000       5.48949476        2        1
Ca      12.00513634       6.33722007       2.02494476        2        1
Ca      12.03440000       0.00000000       2.00000000        3        1
Ca       5.98793634       6.33722007       5.46455000        3        1
S       14.72265366       1.09253674       4.15217846        4        1
S        8.67619000       7.42975681       7.61672846        4        1
S        9.28761901      11.58190339       4.15217846        4        1
S       15.33408267       5.24468333       7.61672846        4        1
S       12.00422294       3.14706349       2.01039365        5        1
S        5.95775928       9.48428355       5.47494365        5        1
S       12.00604973       9.52737665       2.01039365        5        1
S       18.05251339       3.19015658       5.47494365        5        1
S       14.70101448       7.34230317       4.30323284        6        1
S       20.74747814       1.00508310       7.76778284        6        1
S        9.30925819       5.33213696       4.30323284        6        1
S        3.26279453      11.66935703       7.76778284        6        1
O       15.70651461       0.16983750       4.67671133        7        1
O        9.66005095       6.50705756       8.14126133        7        1
O        8.30375806      12.50460264       4.67671133        7        1
O       14.35022172       6.16738257       8.14126133        7        1
O       13.53590462       0.34474477       3.79394399        8        1
O        7.48944095       6.68196484       7.25849399        8        1
O       10.47436806      12.32969536       3.79394399        8        1
O       16.52083172       5.99247529       7.25849399        8        1
O       15.25705629       1.85807292       3.01234151        9        1
O        9.21059263       8.19529299       6.47689151        9        1
O        8.75321638      10.81636721       3.01234151        9        1
O       14.79968004       4.47914714       6.47689151        9        1
O       14.37139832       2.10268962       5.19085055       10        1
O        8.32493465       8.43990968       8.65540055       10        1
O        9.63887436      10.57175052       5.19085055       10        1
O       15.68533802       4.23453045       8.65540055       10        1
O       11.24931794       2.18000370       2.82872036       11        1
O        5.20285428       8.51722377       6.29327036       11        1
O       12.76095473      10.49443643       2.82872036       11        1
O       18.80741840       4.15721636       6.29327036       11        1
O       18.96994518       2.31942254       4.66423895       12        1
O       12.92348152       8.65664261       8.12878895       12        1
O        5.04032749      10.35501759       4.66423895       12        1
O       11.08679116       4.01779752       8.12878895       12        1
O       12.79915752       4.04568129       2.87306660       13        1
O        6.75269385      10.38290136       6.33761660       13        1
O       11.21111516       8.62875884       2.87306660       13        1
O       17.25757882       2.29153878       6.33761660       13        1
O       14.86567788       8.42977013       3.30959990       14        1
O       20.91214154       2.09255007       6.77414990       14        1
O        9.14459480       4.24467000       3.30959990       14        1
O        3.09813114      10.58189007       6.77414990       14        1
O       14.47426583       7.97222284       5.58442343       15        1
O       20.52072949       1.63500278       2.11987343       15        1
O        9.53600684       4.70221729       5.58442343       15        1
O        3.48954318      11.03943736       2.11987343       15        1
O       15.89635897       6.48931335       4.29976829       16        1
O       21.94282263       0.15209328       7.76431829       16        1
O        8.11391370       6.18512678       4.29976829       16        1
O        2.06745004      12.52234685       7.76431829       16        1
O       13.56408054       6.49184824       3.97756514       17        1
O       19.61054421       0.15462817       7.44211514       17        1
O       10.44619213       6.18259190       3.97756514       17        1
O        4.39972847      12.51981196       7.44211514       17        1
O       17.14490226       4.01906497       4.58940467       18        1
O       11.09843860      10.35628503       8.05395467       18        1
O        6.86537041       8.65537517       4.58940467       18        1
O       12.91183407       2.31815510       8.05395467       18        1
O       18.05160000       0.00000000       3.09826235       19        1
O       12.00513634       6.33722007       6.56281235       19        1
O       12.59710546      10.53372719       5.51928989       20        1
O       18.64356912       4.19650713       2.05473989       20        1
O       11.41316721       2.14071294       5.51928989       20        1
O        5.36670355       8.47793301       2.05473989       20        1
H       12.39586983      10.32966871       6.16854656       21        1
H       18.44233349       3.99244864       2.70399656       21        1
H       11.61440284       2.34477142       6.16854656       21        1
H        5.56793918       8.68199149       2.70399656       21        1
H       11.97542668      10.16490099       5.26083446       22        1
H       18.02189035       3.82768092       8.72538446       22        1
H       12.03484599       2.50953915       5.26083446       22        1
H        5.98838233       8.84675921       8.72538446       22        1
H       18.44774024       0.21546548       2.68320926       23        1
H       12.40127657       6.55268555       6.14775926       23        1
H        5.56253244      12.45897465       2.68320926       23        1
H       11.60899610       6.12175458       6.14775926       23        1
Ca       2.76560059      16.91911013       4.03992704        0        1
Ca      -3.28086307      23.25633020       7.50447704        0        1
Ca      -2.94118257      21.10421027       4.03992704        0        1
Ca       3.10528109      14.76699020       7.50447704        0        1
Ca      -9.50753186      23.27153953       4.35312236        1        1
Ca      -3.46106820      16.93431946       7.81767236        1        1
Ca       9.33194989      14.75178087       4.35312236        1        1
Ca       3.28548622      21.08900094       7.81767236        1        1
Ca       5.95867267      12.67444013       5.48949476        2        1
Ca      -0.08779099      19.01166020       2.02494476        2        1
Ca      -0.05852733      12.67444013       2.00000000        3        1
Ca      -6.10499099      19.01166020       5.46455000        3        1
S        2.62972634      13.76697687       4.15217846        4        1
S       -3.41673732      20.10419694       7.61672846        4        1
S       -2.80530832      24.25634353       4.15217846        4        1
S        3.24115535      17.91912346       7.61672846        4        1
S       -0.08870438      15.82150362       2.01039365        5        1
S       -6.13516804      22.15872368       5.47494365        5        1
S       -0.08687760      22.20181678       2.01039365        5        1
S        5.95958607      15.86459671       5.47494365        5        1
S        2.60808715      20.01674330       4.30323284        6        1
S        8.65455082      13.67952324       7.76778284        6        1
S       -2.78366913      18.00657710       4.30323284        6        1
S       -8.83013280      24.34379716       7.76778284        6        1
O        3.61358729      12.84427763       4.67671133        7        1
O       -2.43287638      19.18149770       8.14126133        7        1
O       -3.78916927      25.17904277       4.67671133        7        1
O        2.25729440      18.84182270       8.14126133        7        1
O        1.44297729      13.01918490       3.79394399        8        1
O       -4.60348637      19.35640497       7.25849399        8        1
O       -1.61855927      25.00413549       3.79394399        8        1
O        4.42790439      18.66691543       7.25849399        8        1
O        3.16412897      14.53251306       3.01234151        9        1
O       -2.88233470      20.86973312       6.47689151        9        1
O       -3.33971095      23.49080734       3.01234151        9        1
O        2.70675272      17.15358728       6.47689151        9        1
O        2.27847099      14.77712975       5.19085055       10        1
O       -3.76799267      21.11434982       8.65540055       10        1
O       -2.45405297      23.24619065       5.19085055       10        1
O        3.59241069      16.90897058       8.65540055       10        1
O       -0.84360939      14.85444384       2.82872036       11        1
O       -6.89007305      21.19166390       6.29327036       11        1
O        0.66802741      23.16887656       2.82872036       11        1
O        6.71449107      16.83165650       6.29327036       11        1
O        6.87701785      14.99386268       4.66423895       12        1
O        0.83055419      21.33108274       8.12878895       12        1
O       -7.05259983      23.02945772       4.66423895       12        1
O       -1.00613617      16.69223766       8.12878895       12        1
O        0.70623019      16.72012142       2.87306660       13        1
O       -5.34023347      23.05734149       6.33761660       13        1
O       -0.88181217      21.30319898       2.87306660       13        1
O        5.16465149      14.96597891       6.33761660       13        1
O        2.77275055      21.10421027       3.30959990       14        1
O        8.81921421      14.76699020       6.77414990       14        1
O       -2.94833253      16.91911013       3.30959990       14        1
O       -8.99479619      23.25633020       6.77414990       14        1
O        2.38133851      20.64666298       5.58442343       15        1
O        8.42780217      14.30944291       2.11987343       15        1
O       -2.55692048      17.37665742       5.58442343       15        1
O       -8.60338415      23.71387749       2.11987343       15        1
O        3.80343164      19.16375348       4.29976829       16        1
O        9.84989531      12.82653341       7.76431829       16        1
O       -3.97901362      18.85956692       4.29976829       16        1
O      -10.02547728      25.19678698       7.76431829       16        1
O        1.47115322      19.16628837       3.97756514       17        1
O        7.51761688      12.82906830       7.44211514       17        1
O       -1.64673520      18.85703203       3.97756514       17        1
O       -7.69319886      25.19425210       7.44211514       17        1
O        5.05197494      16.69350510       4.58940467       18        1
O       -0.99448872      23.03072517       8.05395467       18        1
O       -5.22755692      21.32981530       4.58940467       18        1
O        0.81890675      14.99259523       8.05395467       18        1
O        5.95867267      12.67444013       3.09826235       19        1
O       -0.08779099      19.01166020       6.56281235       19        1
O        0.50417813      23.20816733       5.51928989       20        1
O        6.55064180      16.87094726       2.05473989       20        1
O       -0.67976011      14.81515307       5.51928989       20        1
O       -6.72622377      21.15237314       2.05473989       20        1
H        0.30294250      23.00410884       6.16854656       21        1
H        6.34940617      16.66688878       2.70399656       21        1
H       -0.47852448      15.01921156       6.16854656       21        1
H       -6.52498814      21.35643162       2.70399656       21        1
H       -0.11750064      22.83934112       5.26083446       22        1
H        5.92896302      16.50212105       8.72538446       22        1
H       -0.05808134      15.18397928       5.26083446       22        1
H       -6.10454500      21.52119935       8.72538446       22        1
H        6.35481291      12.88990562       2.68320926       23        1
H        0.30834925      19.22712568       6.14775926       23        1
H       -6.53039489      25.13341478       2.68320926       23        1
H       -0.48393122      18.79619472       6.14775926       23        1
O        7.60832567      13.73741526      17.75483812        0        0
H        7.91633799      13.19467540      18.48064367        0        0
H        7.17667113      14.48019554      18.17695617        0        0
O       -4.34982320      11.68188623      17.60066617        0        0
H       -3.55713827      11.86982454      18.10322128        0        0
H       -5.03589101      12.18725673      18.03672060        0        0
O       -9.99984588      19.73107693      24.35471044        0        0
H       -9.19625727      19.78294011      24.87219224        0        0
H      -10.70475812      19.78646099      24.99989505        0        0
O       10.23688302       6.65026458      15.95361689        0        0
H       10.93167850       6.30394250      16.51357412        0        0
H        9.59866912       7.01980271      16.56382704        0        0
O       -2.71613152      24.04909703      17.54333009        0        0
H       -2.36495039      23.34833867      16.99392916        0        0
H       -3.19764475      24.61135786      16.93650260        0        0
O       -2.03577304       9.12385448      23.77382976        0        0
H       -1.39360980       9.01961477      24.47596385        0        0
H       -2.88337608       9.09565939      24.21768331        0        0
O       -7.79812988       8.44892179      18.85665807        0        0
H       -7.27585832       8.89611348      19.52260389        0        0
H       15.61718322       7.95741827      19.35426335        0        0
O      -12.89898766      21.23145434      22.23767577        0        0
H      -13.43935566      21.66979598      21.58033958        0        0
H      -12.03484424      21.16372024      21.83159685        0        0
O       -1.89976189      15.75543855      18.41675786        0        0
H       -1.22352437      15.83108860      19.08996787        0        0
H       -2.61923588      15.29608046      18.84986196        0        0
O       -7.91275390      23.12383528      24.35759727        0        0
H       -6.98405945      23.01619369      24.56295487        0        0
H       -8.36564432      22.90339527      25.17155569        0        0
O       -0.82993946       6.56970396      16.21465026        0        0
H       -0.19465766       5.92510713      16.52632927        0        0
H       -1.12090765       7.02214309      17.00640033        0        0
O       18.37224876       0.87745391      22.73354658        0        0
H       18.66359909       1.78637036      22.80578035        0        0
H       17.42556058       0.93832488      22.60584359        0        0
O       -0.63831417       6.48373105      22.74174278        0        0
H       -0.16223653       7.29683168      22.57307361        0        0
H       -0.93331503       6.56213297      23.64896903        0        0
O      -18.43823227      23.12173206      15.67322665        0        0
H      -17.87417172      23.89026558      15.58706538        0        0
H      -19.16714708      23.41887253      16.21785734        0        0
O        4.79574980      19.61809095      18.16005333        0        0
H        4.48384054      19.91650542      19.01439123        0        0
H        4.62050815      18.67707830      18.15588231        0        0
O       -6.21893328      23.69899047      21.46801891        0        0
H       -5.38540233      23.67510295      21.93800548        0        0
H       -6.83450657      24.08582716      22.09064138        0        0
O        7.99787854      11.03326723      12.49965968        0        0
H        8.83617056      10.57801679      12.42063200        0        0
H        8.19242685      11.80337345      13.03381247        0        0
O       11.67127638       9.99019985      22.83421709        0        0
H       11.12029939      10.49513016      23.43229867        0        0
H       12.04119830      10.64295585      22.23982731        0        0
O        9.15082622       4.28538980      22.86791163        0        0
H        9.50536535       5.17002376      22.95711139        0        0
H        8.32519024       4.30782901      23.35170245        0        0
O        7.27686490       9.59390783      22.29228042        0        0
H        6.81017211       9.69101290      23.12234083        0        0
H        6.58839528       9.60342649      21.62733620        0        0
N       -6.16527248      17.13794250      23.32632145        0        0
H       -5.31357985      17.28698810      22.79088324        0        0
H       -6.71017465      17.99384704      23.25705357        0        0
H       -6.69252742      16.41349331      22.84521378        0        0
N        3.04148143       3.07900428      18.47368774        0        0
H        3.98915092       3.44214262      18.40779332        0        0
H        2.43237821       3.87513645      18.64531477        0        0
H        2.80045447       2.71664491      17.55450839        0        0
N       -9.38992806      19.71478369      21.44738197        0        0
H       -8.40260321      19.61325004      21.22563988        0        0
H       -9.76362669      20.41608108      20.81270070        0        0
H       -9.83746554      18.83329912      21.20866844        0        0
N        7.20763153       4.69947098      19.36654068        0        0
H        7.99095268       4.19229190      19.77833838        0        0
H        6.80455265       4.14653555      18.61010838        0        0
H        7.53656882       5.59168178      18.99754183        0        0
H        6.49845197       4.86737471      20.08017412        0        0
N        6.51792673       8.54618815      14.92608366        0        0
H        7.38679301       8.81460267      15.38806312        0        0
H        6.71022423       7.82094300      14.23511250        0        0
H        6.11434633       9.35976413      14.46173790        0        0
H        5.86034334       8.18944280      15.61942113        0        0
N        4.36560654      15.02056785      21.04355967        0        0
H        4.85714536      15.72182228      21.59766418        0        0
H        4.99778443      14.24776884      20.83491447        0        0
H        4.04309217      15.44082980      20.17191504        0        0
H        3.56440420      14.67185046      21.56974500        0        0
N       -9.05549382      21.54782903      12.03177491        0        0
H       -9.64195236      21.52816161      11.19746107        0        0
H       -9.38297949      20.84474747      12.69421695        0        0
H       -9.10762511      22.47103377      12.46232727        0        0
H       -8.08941833      21.34737325      11.77309435        0        0
P      -13.42702136      22.77347526      16.02526339        0        0
O      -11.92895451      23.00419778      16.13911778        0        0
O      -13.72347431      21.93782696      14.76613370        0        0
O      -14.14899525      24.12989324      15.92287222        0        0
O      -13.93610040      22.00424863      17.29570777        0        0
H      -14.25062694      21.52899396      18.08063200        0        0
P       -4.87247614      15.27883234      15.10376525        0        0
O       -4.27537508      15.32407193      16.50084209        0        0
O       -3.85300730      15.83361059      14.09158720        0        0
O       -6.15237634      16.13435571      15.06458313        0        0
O       -5.22371396      13.79432960      14.73257314        0        0
H       -5.44072077      12.87715274      14.50323788        0        0
