464
Lattice="24.0688 0.0 0.0 -24.185854652055536 25.348880266190136 0.0 0.0 0.0 43.17155569273219" Properties=species:S:1:pos:R:3:spacegroup_kinds:I:1:tags:I:1:forces:R:3 energy=-3457.94856339193 pbc="T T T"
Ca       4.34486559       1.63626240       5.14512771        0        1       0.00004546      -0.00012810       0.00009030
Ca      -1.05707715       7.25362168       7.66791872        0        1       0.00032913       0.00020305       0.00015594
Ca      -2.14602101       5.57213628       4.70510062        0        1      -0.00003520       0.00008734       0.00005893
Ca     -19.75303145      24.48238577       8.33485128        0        1      -0.00017327      -0.00019462       0.00017805
Ca      16.03730677       8.03645720       5.46607585        1        1       0.00009341       0.00012236      -0.00017564
Ca      22.30855260       0.93352860       7.23939830        1        1       0.00015091       0.00010179       0.00005703
Ca     -14.08184287      24.40127662       4.34947958        1        1      -0.00009425       0.00002832      -0.00032898
Ca       4.15080749       6.25782400       7.43812856        1        1      -0.00004169       0.00000891       0.00006973
Ca     -16.93272117      22.64623773       6.31760730        2        1       0.00008581      -0.00006513       0.00014850
Ca       1.20402100       3.78684445       5.71606670        2        1       0.00001706      -0.00004413      -0.00005025
Ca       1.21031923      22.75809416       3.29428818        3        1      -0.00007190      -0.00004724      -0.00012755
Ca      19.09601197       3.48413519       5.66877260        3        1       0.00000846      -0.00001279      -0.00015961
S      -21.02416585      24.29228432       5.51381479        4        1       0.00012984      -0.00024332      -0.00010975
S       -1.92941084       4.31374662       7.60299424        4        1      -0.00015901       0.00009903      -0.00022363
S       -1.49119006       8.64701629       4.38858872        4        1      -0.00006597       0.00020372      -0.00012256
S        4.24473417       2.81803286       7.88235067        4        1       0.00016413      -0.00004911      -0.00022365
S        1.08580094       0.99243438       3.04184207        5        1      -0.00015857       0.00002915       0.00004312
S       -4.69576676       6.53150396       6.01931415        5        1       0.00005106       0.00000060       0.00013607
S        0.92801906       5.66315830       2.74056746        5        1       0.00000832      -0.00015144       0.00003418
S        7.35303484       0.44259640       6.32722963        5        1      -0.00004847      -0.00008565       0.00010934
S        4.43504699       4.39684238       4.16901303        6        1       0.00008234      -0.00018174      -0.00011287
S      -14.62343356      23.64470251       8.79733422        6        1       0.00008204       0.00010205      -0.00030383
S       -1.79959572       2.62268292       3.97943246        6        1      -0.00007132       0.00013110      -0.00001833
S       -6.77475856       8.79519753       8.81953065        6        1       0.00008809      -0.00010274      -0.00010627
O      -20.15789650      23.21123405       5.99035330        7        1       0.00007263      -0.00003768       0.00004897
O       -1.56281207       3.03001411       8.20061772        7        1      -0.00014511       0.00013011       0.00002469
O       -2.29925930       9.63711275       5.13024655        7        1      -0.00004392       0.00000783      -0.00000656
O        4.24671542       4.10143105       8.60588648        7        1       0.00020795      -0.00010330      -0.00006109
O      -22.38990595      23.79965778       5.27665866        8        1      -0.00010421       0.00008287      -0.00020241
O       -3.03558850       4.13969543       6.65341748        8        1      -0.00001335       0.00000671       0.00007908
O       -0.49948605       9.42080809       3.61541282        8        1       0.00013662      -0.00007714      -0.00031498
O        5.46684949       2.72420748       7.03230378        8        1      -0.00002233       0.00002911       0.00006228
O      -20.46831249      24.91902116       4.29649532        9        1       0.00000209       0.00004047       0.00017689
O       -0.80514814       4.86836487       6.75865464        9        1       0.00019475       0.00007566       0.00001987
O       -2.32650680       7.74743437       3.58866559        9        1       0.00009000      -0.00005097       0.00016467
O        3.10572077       2.75966048       6.94334491        9        1      -0.00010472      -0.00000165      -0.00009162
O        3.12335252       0.00381444       6.56685875       10        1       0.00015248      -0.00003086      -0.00004058
O       -2.20725761       5.31817588       8.62591898       10        1       0.00002231       0.00008379      -0.00000125
O       -0.70802612       7.76083997       5.32599812       10        1      -0.00007754       0.00000794      -0.00011260
O        4.24637127       1.68677923       8.81390342       10        1      -0.00004953      -0.00016587      -0.00011733
O      -23.75521239      24.98818276       3.02508688       11        1      -0.00011906       0.00014068      -0.00005428
O       -5.28175687       5.70581925       7.08507731       11        1      -0.00003136       0.00014446       0.00014432
O        1.07476427       7.00846611       2.16569676       11        1      -0.00007420      -0.00017965      -0.00016304
O        8.00738911       1.46635829       7.16214130       11        1       0.00006118      -0.00024986       0.00004116
O      -15.86363167      24.77359428       5.89596196       12        1      -0.00005684      -0.00012925       0.00006766
O        1.99150185       5.38437041       7.20686584       12        1      -0.00015022       0.00006347      -0.00019563
O       -5.56526513       7.68288171       5.71980053       12        1       0.00015641       0.00008110      -0.00003985
O        2.42348297      22.68012339       8.36565174       12        1       0.00001652      -0.00021833      -0.00016935
O        1.34290539       1.45695206       4.41730129       13        1       0.00005053      -0.00014486      -0.00016828
O       -3.34862714       7.03537724       6.36897339       13        1       0.00020157      -0.00000692       0.00017801
O        1.22761146       5.72920573       4.20948004       13        1      -0.00009663       0.00000736      -0.00027288
O      -17.92457002      25.10479977       7.03661594       13        1      -0.00017325       0.00000051       0.00022534
O        3.22503071       3.53252712       4.22720437       14        1      -0.00008841      -0.00049498      -0.00035467
O      -14.18007089      25.02376960       8.62518828       14        1       0.00001258      -0.00012790       0.00011032
O       -1.49830345       1.86922590       2.77517899       14        1       0.00011265       0.00049552      -0.00017512
O       16.53985258       7.85587488       7.97396550       14        1      -0.00006425       0.00011878       0.00007580
O        4.44691918       5.27290645       3.01064963       15        1       0.00026365      -0.00022323       0.00007841
O      -15.90197796      23.96368159       3.08888967       15        1       0.00125845      -0.00242539       0.00016937
O       22.24177252       1.64140072       5.09622980       15        1      -0.00024683       0.00008112       0.00002220
O       -7.19978847       8.95114108       3.59781440       15        1      -0.00110190       0.00227899       0.00016769
O        5.59292685       3.45408068       4.18348646       16        1       0.00004003      -0.00013337       0.00036085
O      -13.68521728      22.72390785       8.12495544       16        1      -0.00020876      -0.00010571      -0.00012752
O       -3.07615328       3.37203262       3.93891820       16        1       0.00010514       0.00012605       0.00020196
O       -7.49633978      10.02428059       9.08179734       16        1       0.00006058       0.00013593      -0.00011435
O        4.51698436       5.23748556       5.37838965       17        1      -0.00015918       0.00004225       0.00001414
O      -15.99190195      23.42184536       8.38144401       17        1       0.00011527      -0.00015782       0.00023396
O       -0.74450841       3.65077232       4.25181446       17        1       0.00000627      -0.00010176       0.00008187
O       -5.41730350       9.00607502       8.36848391       17        1      -0.00006674       0.00007542       0.00026425
O        6.78385479       1.12830818       5.13390168       18        1       0.00015579      -0.00023451       0.00038780
O        1.22099009       6.63300495       7.08487146       18        1       0.00004853      -0.00013721       0.00006001
O       -4.54402302       5.68349362       4.80412300       18        1      -0.00008305       0.00013673       0.00026152
O        1.72167528      22.42187886       9.35159438       18        1       0.00004243       0.00007052       0.00026989
O      -18.02004717      23.04841792       4.17788353       19        1      -0.00010142       0.00005824      -0.00007648
O        0.55433292       1.63622272       7.15592762       19        1       0.00003175       0.00004668       0.00018940
O        3.19814294       7.70374097       5.78143942       20        1       0.00035040      -0.00002274      -0.00012753
O        8.45338959       0.07134156       3.00655168       20        1      -0.00107225       0.00216481      -0.00004619
O       -0.88400787      24.41932498       5.93890749       20        1      -0.00019759       0.00005107      -0.00009851
O       16.71590022       7.51540353       3.27739083       20        1       0.00089727      -0.00200899      -0.00006155
H        3.44867197       8.59392789       6.09806492       21        1       0.00024715       0.00005054       0.00003107
H        7.74798605       0.42971643       3.57961380       21        1      -0.00038000      -0.00032558      -0.00008690
H       -1.04934398      23.48756427       6.19060484       21        1      -0.00018091       0.00003419       0.00011065
H       -6.46862709       7.13973220       3.44772924       21        1       0.00037230       0.00040577      -0.00002208
H        1.90074768       7.18248054       6.58342218       22        1       0.00002947      -0.00009741       0.00007051
H      -14.56868966      23.39193924      10.12168226       22        1       0.00031403      -0.00004491      -0.00009913
H        0.08340741      24.42681279       5.77038905       22        1      -0.00027053       0.00012836      -0.00009377
H       -6.67522404       8.13355235      10.01244310       22        1      -0.00015998       0.00003962       0.00011882
H      -17.24164921      23.39059972       3.61599829       23        1      -0.00015364       0.00001546       0.00026648
H        1.33691243       1.09271425       6.96020711       23        1      -0.00022183      -0.00010841      -0.00010381
H       -5.80006302       9.38446929       3.66084902       23        1       0.00034477      -0.00005670       0.00017155
H        0.80765928       2.23063782       7.91828514       23        1       0.00025458      -0.00002493      -0.00010847
Ca      -7.69267607      14.01429695       5.50714537        0        1       0.00003285      -0.00019335       0.00000788
Ca     -13.92223220      20.31170199       8.31166917        0        1       0.00014419       0.00015656       0.00014087
Ca     -14.10241347      18.15220462       4.91337606        0        1      -0.00001195       0.00008973       0.00006417
Ca      -6.67398379      12.38222643       8.94043880        0        1      -0.00016241      -0.00011699       0.00020267
Ca     -19.78616180      20.99784357       4.40451102        1        1       0.00008108       0.00014963      -0.00033820
Ca       9.70900441      14.17905595       8.34852738        1        1       0.00008055      -0.00011974       0.00010487
Ca      -1.51966868      11.85379488       4.23242583        1        1      -0.00009350       0.00003336      -0.00044860
Ca      -8.97533245      18.39760905       8.24443973        1        1      -0.00004718      -0.00009004       0.00019994
Ca      -4.42492058       9.78142978       6.28017195        2        1       0.00003278       0.00009468      -0.00001244
Ca     -10.99985147      15.73089410       5.84432861        2        1       0.00008328       0.00004947      -0.00011433
Ca      12.51444649       9.79244217       5.41476490        3        1      -0.00009095       0.00009102      -0.00023778
Ca       6.77652243      16.49961086       6.26997654        3        1       0.00000018      -0.00007537      -0.00002611
S       -8.03561472      11.06625308       5.93208658        4        1       0.00013182      -0.00014766      -0.00011424
S      -14.39018989      17.22255201       8.30960384        4        1       0.00008189       0.00000318       0.00006074
S      -13.92510263      21.19978676       4.74490843        4        1      -0.00007146       0.00009985      -0.00014607
S       -8.29017186      14.99511780       8.30714684        4        1      -0.00005435      -0.00009364      -0.00009594
S      -10.18908067      12.76726192       3.48426825        5        1      -0.00006091       0.00015559       0.00008110
S      -17.08653984      19.57193535       6.38310428        5        1       0.00013223      -0.00000194       0.00008720
S      -11.52683724      18.15495806       3.11121679        5        1       0.00013509      -0.00005417       0.00003038
S       -4.33182625      12.94369928       6.44617395        5        1      -0.00016654      -0.00010138       0.00007032
S       -7.78758489      17.22454406       5.05097384        6        1      -0.00010064       0.00005058       0.00025665
S       -1.58140125      10.20625759       8.36996752        6        1       0.00008398       0.00005525      -0.00015299
S        9.65050339      15.02572535       4.83586145        6        1       0.00009854       0.00003176       0.00000301
S      -18.64718557      21.77605191       9.34881673        6        1      -0.00000880      -0.00017555      -0.00015334
O       -6.88951466      10.15301547       6.11553484        7        1       0.00012232       0.00007021      -0.00012258
O      -13.32825794      16.31103179       8.76444891        7        1      -0.00023222       0.00008874       0.00010265
O      -14.98363265      22.14964253       5.15531165        7        1      -0.00012088      -0.00006203      -0.00010692
O       -8.30508522      16.31548198       8.93741860        7        1       0.00010796      -0.00016130      -0.00000530
O       -9.24982005      10.21162591       5.96898779        8        1       0.00003185       0.00001551      -0.00026463
O      -15.54333157      16.39054290       7.89514112        8        1      -0.00016074      -0.00016544       0.00014234
O      -12.84892156      22.07057387       4.18949236        8        1       0.00004342      -0.00006284      -0.00021456
O       -6.92763774      14.68463040       7.74322835        8        1       0.00008565       0.00015716       0.00010472
O       -7.93692111      11.80287806       4.65865324        9        1      -0.00006090       0.00004106       0.00011881
O      -13.90781854      18.04345882       7.17762025        9        1       0.00013616      -0.00009187       0.00006223
O      -14.38241451      20.22121589       3.76108290        9        1       0.00003205      -0.00009150       0.00006555
O       -9.19691979      14.96123725       7.13687285        9        1      -0.00004838       0.00006205      -0.00016340
O       -8.07655014      12.09335868       6.99857784       10        1       0.00018670      -0.00009472      -0.00012446
O      -14.77363238      18.16277316       9.36764866       10        1       0.00013502       0.00000228       0.00003768
O      -13.41475084      20.43887949       5.90922248       10        1      -0.00024804       0.00004381      -0.00005330
O       -8.61965322      13.94627084       9.26341006       10        1      -0.00007014       0.00008701      -0.00014619
O      -11.02174064      11.77186207       4.15459641       11        1       0.00016335       0.00011078      -0.00000270
O        6.00753667      18.75957450       7.14138724       11        1      -0.00009583       0.00007164       0.00001321
O      -11.19350423      19.56544639       2.76897689       11        1       0.00016413      -0.00013478      -0.00001079
O       -3.57872728      13.92049345       7.25596840       11        1       0.00007848      -0.00017675      -0.00008901
O       -3.46117347      12.13874938       5.58310160       12        1      -0.00019892      -0.00009254      -0.00008844
O      -10.54303002      19.86685688       8.88254751       12        1       0.00017176      -0.00007761       0.00017327
O      -17.76344206      20.53127409       5.48948844       12        1       0.00019276       0.00012783      -0.00002275
O      -12.13459668      14.31573257       7.42144981       12        1       0.00008906      -0.00008236      -0.00009364
O       -9.85898855      13.94538903       4.32096185       13        1       0.00006876       0.00002392      -0.00007273
O      -16.21562135      20.36243246       7.26460961       13        1       0.00012455      -0.00010454       0.00016994
O      -11.62131252      18.00955339       4.62703730       13        1      -0.00004869       0.00009035      -0.00002299
O       -5.03151621      11.96813703       7.31197743       13        1      -0.00018954       0.00011968       0.00017346
O       -7.47423891      18.21823395       4.04633605       14        1      -0.00001570      -0.00030586      -0.00031619
O       -1.98823468      11.56938804       8.07959575       14        1      -0.00005188      -0.00010864       0.00001960
O        9.66445995      14.15343747       3.67351431       14        1       0.00018491       0.00042349      -0.00026157
O      -19.40628701      20.53509247       9.46141785       14        1       0.00002776      -0.00005846       0.00021589
O       -7.87503646      17.97229773       6.35370020       15        1       0.00008310      -0.00016873      -0.00004553
O       -2.56531074      10.91567961       2.39714028       15        1       0.00186175      -0.00346583       0.00001903
O        9.44047985      14.16397968       6.02106728       15        1      -0.00011870       0.00012803       0.00005466
O      -20.64977039      22.57869155       2.98665119       15        1      -0.00141875       0.00290054      -0.00006289
O       -6.73571370      16.18035608       5.19024302       16        1      -0.00005063      -0.00003416       0.00022131
O       -0.29427868       9.83158979       7.76484028       16        1      -0.00002070       0.00004352      -0.00022367
O        8.59955461      16.08407570       4.76978433       16        1       0.00018868       0.00017113       0.00027534
O      -19.18878395      22.89852107      10.11035605       16        1       0.00017904       0.00001638       0.00001439
O       -9.04942419      16.52500700       4.79050227       17        1       0.00004047       0.00011368      -0.00012872
O       -2.61874561       9.24919993       7.97077577       17        1      -0.00000167      -0.00000491       0.00017633
O      -13.15399380      15.80711454       4.95915335       17        1       0.00021271      -0.00012967       0.00003311
O      -18.60227941      22.23109589       7.92603010       17        1       0.00016935       0.00005703       0.00018775
O       -5.32021066      13.71600953       5.66204580       18        1       0.00013285      -0.00008198       0.00030713
O      -11.57922481      19.82768929       7.84620657       18        1       0.00036189      -0.00023992       0.00050576
O      -16.31123049      18.59825769       5.58157589       18        1      -0.00005906       0.00005800       0.00031978
O      -11.74000819      13.58844463       6.35627719       18        1      -0.00000813       0.00017208      -0.00014146
O       -4.82086752       9.69173167       3.84409905       19        1       0.00006166      -0.00008960      -0.00030463
O      -11.05699738      17.38757642       7.57656350       19        1       0.00005623       0.00019310       0.00018454
O      -10.16911899      20.08800777       5.77360132       20        1      -0.00017869      -0.00000190      -0.00030720
O       -3.61515394      11.66950151       2.84431481       20        1      -0.00134402       0.00301621       0.00009714
O       10.94592836      11.49342428       6.16412076       20        1      -0.00026908       0.00010793      -0.00006604
O        3.23475100      21.31878274       2.17097732       20        1       0.00117173      -0.00239330      -0.00004558
H      -10.78197755      20.14291529       6.63141270       21        1       0.00014176      -0.00001323       0.00050354
H       -4.25559485      10.94968183       3.20698497       21        1      -0.00047796      -0.00029052      -0.00014513
H       10.55966426      11.46762244       7.06242029       21        1      -0.00018515      -0.00010771       0.00002827
H      -20.28345962      21.54592357       1.40519924       21        1      -0.00004268       0.00012734      -0.00012876
H      -10.53318419      19.27294948       5.36685427       22        1       0.00039569      -0.00013155       0.00017328
H       -1.44412992      10.09324411       9.71024203       22        1       0.00012548      -0.00027498      -0.00000767
H       11.51825802      12.34303464       6.19425265       22        1      -0.00030816       0.00018166       0.00001987
H      -17.36711371      21.52388425       9.73954786       22        1      -0.00003435      -0.00005780       0.00009680
H       -4.21549125       9.02226465       3.48217156       23        1       0.00009686       0.00005482       0.00015877
H      -11.64619636      16.91089183       8.19841979       23        1      -0.00037277      -0.00004529       0.00004040
H      -18.77192560      23.63355850       3.98708112       23        1       0.00004569       0.00007460       0.00029742
H      -11.45857072      18.35472013       7.57979027       23        1      -0.00004258      -0.00007498      -0.00013577
Ca      16.00622593       1.52026430       5.41125249        0        1       0.00001684      -0.00006638       0.00004138
Ca      10.38860435       7.90324544       7.85504406        0        1       0.00036127       0.00011957       0.00007632
Ca      10.12253554       5.76863956       4.52551460        0        1       0.00002002       0.00021849       0.00009074
Ca      -7.88667145      24.88543128       8.63454946        0        1      -0.00030593      -0.00005578       0.00021271
Ca       4.84454214       7.39516549       4.05704109        1        1       0.00011502       0.00008169      -0.00023468
Ca      10.48010121       1.64380855       7.51490165        1        1      -0.00001068      -0.00000084       0.00000582
Ca      -2.19923547      24.82017874       3.83837502        1        1       0.00000360      -0.00000186      -0.00032781
Ca      16.54267425       5.44287167       7.80943066        1        1      -0.00001488       0.00001880       0.00016779
Ca      -4.95055369      22.79234579       6.11596571        2        1       0.00006677       0.00005583       0.00008399
Ca      13.04144528       4.47539510       6.37075776        2        1      -0.00000786      -0.00013739      -0.00016021
Ca     -10.63348440      21.54212814       3.87992891        3        1      -0.00021781       0.00007196      -0.00009852
Ca       7.35991764       3.46392790       5.79391281        3        1       0.00012152      -0.00007952      -0.00012441
S       -8.66682515      23.82982634       5.45609002        4        1       0.00007517      -0.00011677      -0.00010033
S       10.35120996       4.81486518       7.87268332        4        1       0.00004375       0.00003653      -0.00014921
S        9.71927013       8.84152658       4.44142559        4        1      -0.00007055       0.00019437      -0.00018072
S       16.57222807       2.53927513       8.43105968        4        1       0.00006898      -0.00014779      -0.00010519
S       13.17296419       0.68887122       3.20657285        5        1      -0.00011177      -0.00005552       0.00007313
S        7.26998180       6.47587578       6.53727517        5        1       0.00006482       0.00004906       0.00011932
S       13.40114464       6.90697328       3.40686154        5        1       0.00010444      -0.00003084      -0.00000683
S       19.25179036       0.48634116       6.39475875        5        1      -0.00009740      -0.00006766       0.00014163
S       15.95105011       4.44583645       4.60856691        6        1       0.00000504      -0.00007548       0.00025243
S       -2.32349634      23.17526026       8.78541382        6        1      -0.00017018       0.00009519      -0.00012498
S       10.42411791       2.71359734       4.32209892        6        1      -0.00007324       0.00020134      -0.00000687
S        5.16425646       9.59382369       9.19973855        6        1       0.00005756      -0.00026170      -0.00022758
O       -7.75016145      22.75169932       5.85929619        7        1       0.00004038      -0.00003262      -0.00009696
O       11.48610033       3.92326640       8.18901150        7        1      -0.00015777       0.00008844      -0.00006527
O        8.56399206       9.50052075       5.06828623        7        1      -0.00017945      -0.00002254      -0.00004983
O       16.04810790       3.66124406       9.20683611        7        1       0.00015216      -0.00009623       0.00003823
O      -10.01999023      23.31544035       5.18166209        8        1      -0.00001326      -0.00007606      -0.00039770
O        9.24968732       3.96330180       7.39068778        8        1      -0.00006193      -0.00014810      -0.00002884
O       10.56004570       9.88139173       3.82171306        8        1       0.00008025      -0.00007240      -0.00017089
O       17.34919206       3.13140603       7.28823835        8        1       0.00004516       0.00010902      -0.00004397
O       -8.14173368      24.60186144       4.31021862        9        1      -0.00004334      -0.00006555       0.00003452
O       10.82363949       5.74067179       6.78947427        9        1       0.00014644       0.00002191      -0.00007522
O        9.32883484       7.76563717       3.52981972        9        1       0.00001597      -0.00000638       0.00002067
O       15.46782927       1.74893235       7.78820975        9        1      -0.00027733       0.00000461      -0.00003549
O       -8.80153277      24.81628724       6.55782731       10        1       0.00015214      -0.00010576      -0.00018313
O        9.97486207       5.66392384       9.00397304       10        1      -0.00005289       0.00000054      -0.00010932
O       10.56785694       8.19377575       5.51005982       10        1      -0.00020777       0.00004234      -0.00028013
O       17.35835365       1.59195873       9.20609193       10        1      -0.00011026      -0.00006756      -0.00011495
O      -11.94678344      24.91736235       3.37321965       11        1       0.00001526       0.00004511      -0.00005490
O        6.61605586       5.45395605       7.37636168       11        1      -0.00003142       0.00024563       0.00007922
O       13.77431093       8.07063267       4.26696093       11        1       0.00003586      -0.00012106      -0.00001292
O       19.90168859       1.53073596       7.19014453       11        1       0.00008899      -0.00027214       0.00016067
O       -3.88416018      24.98087122       5.78771779       12        1      -0.00019848      -0.00009479      -0.00002782
O       14.10464601       6.64936360       6.58486317       12        1       0.00031887      -0.00049080       0.00028231
O        6.21793390       7.36472272       5.98507112       12        1       0.00024985       0.00017356      -0.00000123
O      -10.23663843      24.83000537       9.05641445       12        1      -0.00013537       0.00011413      -0.00000116
O       13.74328184       1.14533373       4.49515123       13        1       0.00006829      -0.00011722      -0.00014693
O        8.20140107       7.30005912       7.28002175       13        1       0.00027344      -0.00011121       0.00014615
O       12.41974165       6.03443728       4.11880377       13        1       0.00005800       0.00003906      -0.00011775
O       -5.82468962      24.95476671       7.16904011       13        1      -0.00023570       0.00003820       0.00016520
O       15.36707589       4.93138729       3.39747973       14        1      -0.00008107      -0.00034659      -0.00028214
O       -1.92810538      24.57405055       8.76695605       14        1      -0.00013162      -0.00010205       0.00013730
O       10.92416383       2.30378284       3.04238997       14        1      -0.00002847       0.00038125      -0.00031432
O        5.26684404       8.43833926       8.29274008       14        1       0.00002054      -0.00002551       0.00028718
O       16.45957099       5.55008249       5.46909879       15        1       0.00012644      -0.00022550      -0.00002956
O       -3.97985305      24.39661158       2.60160344       15        1       0.00157630      -0.00293418       0.00016027
O       10.18524426       1.52921073       5.20077893       15        1      -0.00020494       0.00021467      -0.00005752
O        3.50098383       8.97759533       3.15646933       15        1      -0.00128867       0.00270048       0.00010537
O       17.06205590       3.46423370       4.39553474       16        1      -0.00002059      -0.00002786       0.00030656
O       -1.17968426      22.27426588       8.78859093       16        1      -0.00023767       0.00000849       0.00000186
O        9.15254780       3.51511623       4.23287346       16        1       0.00014511       0.00020649       0.00010975
O        3.81498736      10.17182553       9.23489201       16        1       0.00020375       0.00011779       0.00005531
O       14.94894378       3.66431184       5.42238009       17        1      -0.00011143       0.00003698       0.00003788
O       -3.26823009      22.84510314       7.73993037       17        1       0.00000205      -0.00002025       0.00009143
O       11.36152557       3.63528531       5.02795924       17        1       0.00014880      -0.00003185      -0.00012842
O        6.17798688      10.57940195       8.84474504       17        1       0.00020351      -0.00009783       0.00014626
O       18.45344101       1.15197144       5.31969697       18        1       0.00014519      -0.00004567       0.00035254
O       14.33043473       5.72790692       7.73656546       18        1      -0.00045427       0.00069450      -0.00029482
O        7.93556290       5.76888324       5.41636550       18        1      -0.00006959       0.00010151       0.00035565
O       -9.61456083      24.88671239      10.22390128       18        1       0.00023034      -0.00021953       0.00000817
O       -5.81095949      23.28189370       3.91798279       19        1      -0.00012222       0.00024597      -0.00029404
O       12.84136292       1.94274866       6.96147269       19        1       0.00003637       0.00000156       0.00006470
O       12.54880991       8.55561627       7.39327172       20        1      -0.00006526       0.00003418      -0.00018788
O       20.03533148       0.46819306       2.98080266       20        1      -0.00105078       0.00258666      -0.00012578
O      -12.55073498      24.45005590       6.25090379       20        1      -0.00013512       0.00001516      -0.00015389
O        4.20211196       8.32069878       2.01691446       20        1       0.00110193      -0.00226657      -0.00008311
H       13.14768504       8.90037365       8.06736571       21        1       0.00006652       0.00019970       0.00027052
H       19.27071449       0.47588728       3.58377023       21        1      -0.00023948      -0.00020775      -0.00021533
H      -12.79063016      23.78322907       6.92696952       21        1      -0.00004199       0.00003819       0.00004059
H        4.71255369       9.07263349       1.68460489       21        1       0.00026236       0.00031978      -0.00007685
H       13.45819625       7.34779196       6.97053161       22        1       0.00035772      -0.00006552      -0.00002075
H       -2.94888596      22.99246836       9.97444476       22        1      -0.00005082      -0.00010231       0.00001791
H      -11.66456582      24.20071330       5.92888919       22        1      -0.00015437       0.00021920      -0.00019591
H        5.42027499       9.14634002      10.45389805       22        1      -0.00014887       0.00004125       0.00017649
H       -5.08492153      23.64775382       3.29157327       23        1       0.00003972       0.00013801       0.00015362
H       13.02410245       1.49335462       6.11145441       23        1      -0.00000494       0.00002387       0.00011086
H        5.09719954       9.94282329       3.84132331       23        1       0.00006863       0.00007798       0.00024481
H       13.62080376       1.74197976       7.52046536       23        1      -0.00001340       0.00013416      -0.00007150
Ca       4.05993880      14.06292126       5.56937038        0        1      -0.00006132      -0.00014949       0.00004731
Ca      -0.90487180      20.25283210       7.67511021        0        1       0.00016538       0.00014510       0.00016173
Ca      -2.35211127      18.24966044       5.00087170        0        1       0.00006554       0.00012418      -0.00000093
Ca       3.41270712      12.52061537       8.81464668        0        1      -0.00023084      -0.00012170       0.00018122
Ca      -7.66131427      20.27780211       5.31551066        1        1      -0.00006685      -0.00000505       0.00012056
Ca      -1.11175973      13.79109542       7.99023594        1        1       0.00004494      -0.00000225       0.00006774
Ca       9.02914671      11.97211763       4.52137068        1        1      -0.00008918       0.00003149      -0.00031326
Ca       3.81242287      18.72137364       8.13989672        1        1       0.00002505      -0.00001030       0.00007888
Ca       6.66467895       9.70374865       6.51574123        2        1       0.00006311      -0.00005592      -0.00001338
Ca       0.77165222      16.58084262       5.66677280        2        1       0.00005109      -0.00004243       0.00000675
Ca       1.55372252       8.40894753       4.17091263        3        1      -0.00004344      -0.00007550      -0.00011951
Ca      -4.87572955      15.97147389       6.71469261        3        1      -0.00002038      -0.00008559      -0.00004858
S        3.30716823      11.16192395       5.62510226        4        1       0.00011192      -0.00023473      -0.00012933
S       -1.71993408      17.39685483       8.18091594        4        1      -0.00014330      -0.00005424      -0.00022104
S       -1.86296531      21.67424777       4.48631204        4        1      -0.00006340       0.00017319      -0.00013202
S        4.12844525      15.57858439       8.70099312        4        1       0.00019632       0.00000973      -0.00021635
S        1.40246782      13.94723328       3.49868521        5        1      -0.00016918       0.00006893       0.00023653
S       -4.59327966      19.43142809       6.63806395        5        1       0.00000316       0.00016691       0.00019899
S        1.03014074      19.42431327       3.78649043        5        1       0.00002716      -0.00007751       0.00019706
S        6.64717144      13.13466358       6.93322757        5        1       0.00002998      -0.00003043       0.00008527
S        3.60868746      17.41652269       4.91270789        6        1       0.00007983      -0.00019355      -0.00017202
S        9.37817697      10.50246828       9.02041636        6        1      -0.00000596       0.00012031      -0.00014864
S       -1.87610151      15.31358083       4.70001838        6        1      -0.00013233       0.00006984      -0.00002703
S       -7.24088935      21.56852053       8.69830325        6        1      -0.00001556       0.00000597      -0.00032442
O        4.24967756      10.24852812       6.29319503        7        1       0.00001176       0.00001547       0.00000066
O       -1.13215100      16.25769777       8.91458154        7        1      -0.00012928       0.00006651       0.00001853
O       -3.04406230      22.52005430       4.73690004        7        1      -0.00005233      -0.00009433      -0.00010690
O        3.26960747      16.67008501       9.17136439        7        1       0.00024637      -0.00009101       0.00011492
O        2.17315627      10.42532671       5.07857888        8        1      -0.00006488       0.00000305      -0.00010702
O       -3.00450869      16.99419299       7.62878267        8        1      -0.00007625      -0.00003882      -0.00007308
O       -1.05240864      22.43418489       3.48217199        8        1       0.00003862      -0.00002182      -0.00028953
O        5.33495457      16.16626149       8.09430138        8        1       0.00009267       0.00002217       0.00013661
O        4.01632014      11.94646883       4.58594876        9        1      -0.00003399      -0.00002080       0.00010489
O       -0.85506280      17.80442137       7.00766861        9        1       0.00015314       0.00008535      -0.00003826
O       -2.22217212      20.35850305       3.97249795        9        1       0.00009825       0.00003240       0.00014102
O        3.38278985      14.79525772       7.64006108        9        1      -0.00009265      -0.00000780      -0.00001454
O        2.77053267      12.15934707       6.60039056       10        1       0.00026138      -0.00007632      -0.00007346
O       -1.81477369      18.56064031       9.05910232       10        1      -0.00011953       0.00028423      -0.00005726
O       -1.05685338      21.56767401       5.72170377       10        1      -0.00016196       0.00016065      -0.00005138
O        4.44524087      14.59882141       9.73770164       10        1      -0.00001271      -0.00009852       0.00012134
O        0.59903174      12.71843069       3.41116159       11        1       0.00015688       0.00021990      -0.00000434
O       -5.16082886      19.18552704       7.94641488       11        1       0.00002670       0.00032441       0.00005647
O        1.64608067      20.68862763       4.31697011       11        1      -0.00011542      -0.00003997       0.00001424
O        7.44668330      13.60299787       8.05048951       11        1       0.00015894      -0.00022605       0.00003828
O        7.29755550      11.97025054       6.27726775       12        1      -0.00012473      -0.00009626       0.00002772
O        1.41053367      19.55673300       8.25096396       12        1       0.00015440      -0.00015946       0.00011024
O       -5.36212904      20.50651200       5.94125522       12        1       0.00011761       0.00010612       0.00009350
O        0.98623615      12.70393183       8.89093337       12        1       0.00023947      -0.00031981      -0.00013800
O        1.70493632      14.31366696       4.93386273       13        1       0.00000343      -0.00000992      -0.00006743
O       -3.16396876      19.84032824       6.68682538       13        1       0.00027919      -0.00002120      -0.00005149
O        0.12013983      18.83110574       4.81551522       13        1      -0.00004502       0.00003883      -0.00008485
O        5.29036931      12.76617741       7.35540874       13        1      -0.00003573      -0.00007589       0.00022846
O        2.54756024      16.89624952       4.04593054       14        1      -0.00001629      -0.00040277      -0.00032008
O        9.95721168      11.80929816       8.71413100       14        1       0.00004715      -0.00017486       0.00023598
O       -1.05023900      16.41654074       4.10265620       14        1       0.00001404       0.00035728      -0.00037414
O       -7.80584252      20.51357965       7.85048058       14        1      -0.00009326      -0.00009415       0.00007965
O        4.22572353      18.62874059       4.40202059       15        1       0.00022736      -0.00020636       0.00014525
O        7.53030142      11.20203160       3.03609102       15        1       0.00141358      -0.00272635       0.00031101
O       -1.96454413      14.15646878       3.83878521       15        1      -0.00023586       0.00012250       0.00004164
O       -8.54196409      21.37693366       3.52554120       15        1       0.00052853      -0.00080567      -0.00003331
O        4.65851228      16.35878282       5.09801316       16        1      -0.00011567      -0.00013502       0.00032226
O       10.33542567       9.58095582       9.61405688       16        1       0.00001310      -0.00003979       0.00000951
O       -3.19340874      15.93667082       4.96360963       16        1       0.00007204       0.00013233       0.00012932
O       -8.24278371      22.54405288       9.11394967       16        1       0.00015849       0.00005739      -0.00000206
O        2.95752727      17.65796160       6.24287616       17        1      -0.00007544      -0.00015560      -0.00011480
O        8.82429928       9.87443120       7.81455937       17        1       0.00004386      -0.00015925       0.00013388
O       -1.18204738      14.97272951       5.96254669       17        1       0.00004227       0.00001118       0.00008560
O       -6.07218505      22.21734917       8.15335149       17        1       0.00016233       0.00010716       0.00014182
O        6.45822206      14.20176225       5.90598116       18        1       0.00014399      -0.00020824       0.00035554
O        1.28212570      20.26678469       7.09335504       18        1      -0.00019259      -0.00009446      -0.00005284
O       -4.65113101      18.22626082       5.76785974       18        1      -0.00036188       0.00029750       0.00013852
O        1.57342076      13.51872964       9.80186035       18        1      -0.00016143       0.00028409       0.00006331
O        5.96458177       9.58134966       4.11533051       19        1      -0.00003781       0.00000146      -0.00031241
O        0.89339352      15.37073025       7.67657739       19        1      -0.00003250      -0.00008749       0.00001062
O        3.64400385      20.54204192       6.61175258       20        1       0.00029663      -0.00005442      -0.00004387
O        6.90325799      12.45138478       3.53561544       20        1      -0.00100962       0.00247010      -0.00015031
O       -0.10222863      12.23268138       6.22691935       20        1      -0.00017876       0.00007085      -0.00014911
O       -7.13421096      21.11347800       3.22686700       20        1      -0.00078462       0.00121030      -0.00044442
H      -20.04916267      21.33169579       7.04117721       21        1       0.00015027      -0.00004811       0.00007786
H        6.10995434      12.12657192       4.00196345       21        1      -0.00035928      -0.00023525      -0.00009679
H        0.05378922      11.39537717       6.70995850       21        1      -0.00011495       0.00005909      -0.00003342
H       -6.69233934      21.98971041       3.38676167       21        1       0.00022643       0.00051146       0.00002931
H        2.61696773      20.57957980       6.69831090       22        1       0.00015935      -0.00013719      -0.00005554
H        8.35946919      10.71242534       9.89747008       22        1       0.00010058      -0.00017348       0.00000910
H        0.78966941      12.56052271       6.01720937       22        1      -0.00020191       0.00024264      -0.00008586
H       -6.82945656      20.91430784       9.82344420       22        1       0.00000096       0.00001916      -0.00016479
H        6.68663520      10.13073496       3.60739618       23        1      -0.00017578       0.00008752       0.00016499
H        1.82784332      15.08635381       7.81290087       23        1      -0.00024334      -0.00014080       0.00006805
H       -6.58785952      23.87714676       3.88887964       23        1       0.00035941       0.00022088       0.00001718
H        0.60772829      15.88083244       8.45517376       23        1       0.00010681      -0.00005011      -0.00003884
O        7.14365333      17.51626986      13.08905192        0        0      -0.00190902       0.00167957       0.00147437
H      -15.98431801      17.45926506      12.84303442        0        0       0.00250460      -0.00189462      -0.00025562
H      -17.14459287      18.44679863      12.97581437        0        0      -0.00036471       0.00018602       0.00016943
O        2.98677999       7.22843990       9.29170414        0        0      -0.00034206      -0.00051890      -0.00050399
H        2.06279202       6.81435079       9.50076873        0        0       0.00028782       0.00049189      -0.00020013
H        2.87608885       8.18854673       9.19827140        0        0      -0.00009937       0.00040664      -0.00018110
O       -5.91043317      12.86998964      12.61893118        0        0      -0.00021444      -0.00050406      -0.00019797
H       -5.95927180      12.84039671      13.57761731        0        0      -0.00019448       0.00065485      -0.00034333
H       -6.76373723      12.52893838      12.28926651        0        0       0.00008963      -0.00014422      -0.00005513
O        9.82921674       2.15422172       9.79474273        0        0      -0.00020707      -0.00001722       0.00015246
H       10.35667449       2.77796678      10.37994930        0        0       0.00062337      -0.00034639       0.00005864
H        9.78766784       1.28340624      10.21204353        0        0      -0.00003347      -0.00009689       0.00039891
O       -3.08925362      16.07676917      10.80787317        0        0       0.00025236       0.00008964       0.00044383
H       -3.15088141      16.53592269      11.65156849        0        0      -0.00043032       0.00038799       0.00030067
H       -2.25413581      16.36676949      10.38781988        0        0      -0.00016719      -0.00000291       0.00056050
O        4.15486463       7.07599667      11.75532502        0        0       0.00122464      -0.00031857       0.00009429
H        4.15357880       8.02982377      12.00991411        0        0      -0.00029153      -0.00042680       0.00035375
H        3.68783662       7.09951652      10.89250143        0        0      -0.00032201       0.00065048       0.00013307
O        1.17603173       3.50601181       8.91169301        0        0      -0.00001043      -0.00003340       0.00030626
H        1.49247825       4.32474866       8.42861726        0        0       0.00014465       0.00010976       0.00004485
H        0.33957332       3.80157045       9.30377810        0        0      -0.00000554       0.00000550       0.00021561
O       -8.02531446      12.07649503      11.02396372        0        0       0.00024989       0.00008969      -0.00018125
H       -8.53397839      11.26039510      10.94733718        0        0       0.00007004       0.00032472      -0.00053986
H       -8.60927347      12.81174596      10.75851289        0        0      -0.00013774       0.00005007      -0.00008384
O        1.17432191      10.04205868      10.93912685        0        0       0.00022526      -0.00009641      -0.00012531
H        1.00946683       9.95854077       9.99018692        0        0       0.00032031      -0.00004245       0.00026639
H        0.81859638       9.20525774      11.34938597        0        0      -0.00055822      -0.00049718      -0.00011289
O       -5.74775249      14.19330095      10.22627873        0        0       0.00026487      -0.00030525       0.00013281
H       -5.66859374      14.09849774      11.19092652        0        0       0.00010013      -0.00044230       0.00021654
H       -5.91417247      15.12378608       9.99520709        0        0      -0.00004904      -0.00036851       0.00021977
O      -21.51186729      25.00829453       9.78212011        0        0      -0.00126087      -0.00048988       0.00035647
H        2.72163179       0.51605569      10.22183024        0        0       0.00024851      -0.00022385       0.00036529
H      -21.95812829      24.36451619      10.34555719        0        0       0.00124993      -0.00002543      -0.00046574
O       -5.27189680      16.68166376       9.09093715        0        0      -0.00023544      -0.00011017       0.00034065
H       -4.43524052      16.53964192       9.58033001        0        0      -0.00017384       0.00026886       0.00027069
H       -5.26082108      17.63711346       8.87460178        0        0      -0.00070673      -0.00000112       0.00037283
O        5.35669709       4.75203120      11.03747828        0        0       0.00015773       0.00010637       0.00018865
H        5.23425988       5.67764220      11.34442735        0        0      -0.00008771      -0.00012963      -0.00004742
H        4.93058056       4.67449046      10.16357600        0        0       0.00009721      -0.00004464      -0.00017112
O      -14.40710072      17.32232431      11.88481163        0        0       0.00072344       0.00003954       0.00008156
H      -14.52881345      17.46631106      10.92060508        0        0       0.00006411      -0.00032118       0.00013975
H      -14.43517751      18.98741051      12.22310718        0        0      -0.00032259       0.00006761       0.00084884
O        9.18767706      14.39193860      10.59309552        0        0      -0.00046720      -0.00001078       0.00033009
H      -13.90536234      16.50452122      11.97548903        0        0       0.00031087       0.00055505       0.00007267
H        9.11285053      13.62726284      11.17423489        0        0       0.00026771       0.00006377      -0.00012081
O       -2.19027997      13.53834832      10.08572478        0        0      -0.00028255       0.00000207      -0.00027200
H       -2.61243267      14.32196134      10.48024973        0        0       0.00084389      -0.00007399       0.00047619
H       -1.51935076      13.16048847      10.76008259        0        0      -0.00019575      -0.00046994      -0.00012701
O       11.15792716       4.09244473      11.00160010        0        0      -0.00017828      -0.00139289      -0.00029308
H       10.62115543       4.80194436      10.61079791        0        0      -0.00027544       0.00019924       0.00050273
H       11.89267592       4.05528643      10.37434978        0        0      -0.00006003       0.00019997      -0.00000107
O        3.10257447       9.12340343      14.67755569        0        0       0.00010192      -0.00046613       0.00021946
H        2.63838761       8.26144909      14.50222320        0        0       0.00005706      -0.00014343       0.00030202
H        2.78277161       9.46615709      15.51206992        0        0       0.00024151       0.00116612      -0.00069206
O        2.08923475       6.83317322      13.75227311        0        0       0.00028003      -0.00022079       0.00018598
H        2.87409527       6.71015756      13.18462906        0        0      -0.00013308      -0.00026467      -0.00003154
H        1.40553175       7.18276719      13.10796514        0        0       0.00044813       0.00071672      -0.00006343
O        3.78431507       9.77889897      12.13176360        0        0       0.00040161       0.00005261      -0.00013945
H        2.95712091       9.94793688      11.63934225        0        0      -0.00019015       0.00032420       0.00022420
H        3.53711858       9.77692442      13.08178548        0        0      -0.00001693       0.00026317      -0.00021173
N       -0.25682098      12.58417363      11.65030509        0        0       0.00004094      -0.00032026       0.00003154
H        0.50993933      13.20830200      11.39830591        0        0      -0.00019128      -0.00056291      -0.00022100
H        0.09324400      11.64280400      11.43954276        0        0      -0.00021500      -0.00017123      -0.00001759
H       -0.40794329      12.64890082      12.65000714        0        0      -0.00005719      -0.00029662      -0.00004773
N        2.44077817       4.27335479      11.33782544        0        0       0.00010201      -0.00007387      -0.00003173
H        2.37185354       3.53787886      10.63395807        0        0       0.00002348      -0.00013764       0.00009660
H        3.42720916       4.44976457      11.55440800        0        0      -0.00000496       0.00018542      -0.00023061
H        1.97771407       5.10114221      10.87898800        0        0      -0.00005869       0.00006504      -0.00009150
N       -4.64547630      11.54778824      10.10669908        0        0       0.00020722       0.00021951      -0.00014962
H       -4.72418051      11.50663131      11.11816127        0        0       0.00004266      -0.00026208       0.00004070
H       -3.90048377      12.22389608       9.91589169        0        0      -0.00018723       0.00036093      -0.00039611
H       -4.32710514      10.64853273       9.75936017        0        0      -0.00051130      -0.00008818      -0.00012049
N        0.62940770       4.31264091      13.48951129        0        0      -0.00032300       0.00003798      -0.00056540
H        1.06195538       5.11570060      13.95094078        0        0      -0.00001598       0.00036714       0.00026957
H       -0.24098913       4.62713679      13.06622237        0        0       0.00004983       0.00038610       0.00009205
H        0.41886850       3.60461951      14.18021350        0        0      -0.00010814       0.00017611      -0.00018023
H        1.84882323       4.08706700      12.19522307        0        0      -0.00030645       0.00012599      -0.00023592
N        7.23352519       3.43122579       9.44332415        0        0       0.00022686       0.00045897      -0.00041169
H        8.17016738       3.03352606       9.61687478        0        0       0.00008596       0.00015346      -0.00024071
H        6.77355310       3.81801185      10.28798281        0        0      -0.00018133       0.00013990      -0.00050292
H        6.64682067       2.69946749       9.03603784        0        0       0.00011179       0.00047431      -0.00047672
H        7.29432297       4.19006601       8.75271796        0        0      -0.00025021       0.00012669       0.00025060
N        7.05828391      15.77250559      10.64457397        0        0      -0.00027879      -0.00020535      -0.00000303
H        7.18835561      16.40235789       9.86185246        0        0       0.00010903      -0.00022512      -0.00008725
H        6.89562974      16.32509743      11.48844196        0        0       0.00066418       0.00006098      -0.00113328
H        8.24190473      14.94978937      10.68882010        0        0      -0.00055137       0.00071546       0.00008755
H        6.23053075      15.22162134      10.43159299        0        0       0.00000506      -0.00020317       0.00005003
N      -10.98721441      22.22593750       9.81115970        0        0      -0.00017710      -0.00007903      -0.00003264
H      -10.64042585      21.29485701       9.38043534        0        0      -0.00061040       0.00001820      -0.00000406
H      -11.90769954      21.97538792      10.20767686        0        0      -0.00025191      -0.00016959      -0.00020053
H      -11.04372971      22.96502375       9.11086500        0        0      -0.00010881       0.00021570       0.00001812
H      -10.33431414      22.54036770      10.52162585        0        0      -0.00005414      -0.00025812      -0.00027009
P      -14.55711494      20.94074056      11.18754740        0        0      -0.00050404      -0.00073298      -0.00169577
O      -13.18908556      20.79777964      10.57182108        0        0       0.00297477       0.00055854      -0.00043964
O      -14.81174231      19.89343839      12.33011638        0        0      -0.00010075      -0.00073392      -0.00111480
O      -15.58851875      20.96565551      10.09924906        0        0      -0.00136670       0.00220549      -0.00104445
O      -14.67094375      22.30386374      12.02953963        0        0      -0.00075799      -0.00023053       0.00192878
H      -14.66641434      22.16817121      12.98381340        0        0      -0.00159628       0.00007046       0.00215205
P       -0.15588940       6.90861231      10.80308819        0        0      -0.00017488       0.00002873       0.00004689
O        0.92029859       6.08234723      10.07348128        0        0      -0.00011816      -0.00008982       0.00001031
O       -0.87484663       7.79929506       9.81155687        0        0      -0.00009268       0.00023611       0.00002318
O        0.39354085       7.67826710      11.97992033        0        0       0.00004784      -0.00019331      -0.00049034
O       -1.19339098       5.83554716      11.39529236        0        0      -0.00021692      -0.00028663       0.00037905
H       -1.78152040       5.50923192      10.69403685        0        0      -0.00015203       0.00006107      -0.00006134
