360
Lattice="24.0688 0.0 0.0 -24.185854652055536 25.348880266190136 0.0 0.0 0.0 21.72538446" Properties=species:S:1:pos:R:3 pbc="T T F"
Ca         2.8241279200       4.2446700000       3.0399270400
Ca        -3.2223357400      10.5818900700       6.5044770400
Ca        -2.8826552400       8.4297701300       3.0399270400
Ca         3.1638084200       2.0925500700       6.5044770400
Ca        -9.4490045400      10.5970994000       3.3531223600
Ca        -3.4025408700       4.2598793300       6.8176723600
Ca         9.3904772100       2.0773407400       3.3531223600
Ca         3.3440135500       8.4145608000       6.8176723600
Ca         6.0172000000       0.0000000000       4.4894947600
Ca        -0.0292636600       6.3372200700       1.0249447600
Ca         0.0000000000       0.0000000000       1.0000000000
Ca        -6.0464636600       6.3372200700       4.4645500000
S          2.6882536600       1.0925367400       3.1521784600
S         -3.3582100000       7.4297568100       6.6167284600
S         -2.7467809900      11.5819033900       3.1521784600
S          3.2996826700       5.2446833300       6.6167284600
S         -0.0301770600       3.1470634900       1.0103936500
S         -6.0766407200       9.4842835500       4.4749436500
S         -0.0283502700       9.5273766500       1.0103936500
S          6.0181133900       3.1901565800       4.4749436500
S          2.6666144800       7.3423031700       3.3032328400
S          8.7130781400       1.0050831000       6.7677828400
S         -2.7251418100       5.3321369600       3.3032328400
S         -8.7716054700      11.6693570300       6.7677828400
O          3.6721146100       0.1698375000       3.6767113300
O         -2.3743490500       6.5070575600       7.1412613300
O         -3.7306419400      12.5046026400       3.6767113300
O          2.3158217200       6.1673825700       7.1412613300
O          1.5015046200       0.3447447700       2.7939439900
O         -4.5449590500       6.6819648400       6.2584939900
O         -1.5600319400      12.3296953600       2.7939439900
O          4.4864317200       5.9924752900       6.2584939900
O          3.2226562900       1.8580729200       2.0123415100
O         -2.8238073700       8.1952929900       5.4768915100
O         -3.2811836200      10.8163672100       2.0123415100
O          2.7652800400       4.4791471400       5.4768915100
O          2.3369983200       2.1026896200       4.1908505500
O         -3.7094653500       8.4399096800       7.6554005500
O         -2.3955256400      10.5717505200       4.1908505500
O          3.6509380200       4.2345304500       7.6554005500
O         -0.7850820600       2.1800037000       1.8287203600
O         -6.8315457200       8.5172237700       5.2932703600
O          0.7265547300      10.4944364300       1.8287203600
O          6.7730184000       4.1572163600       5.2932703600
O          6.9355451800       2.3194225400       3.6642389500
O          0.8890815200       8.6566426100       7.1287889500
O         -6.9940725100      10.3550175900       3.6642389500
O         -0.9476088400       4.0177975200       7.1287889500
O          0.7647575200       4.0456812900       1.8730666000
O         -5.2817061500      10.3829013600       5.3376166000
O         -0.8232848400       8.6287588400       1.8730666000
O          5.2231788200       2.2915387800       5.3376166000
O          2.8312778800       8.4297701300       2.3095999000
O          8.8777415400       2.0925500700       5.7741499000
O         -2.8898052000       4.2446700000       2.3095999000
O         -8.9362688600      10.5818900700       5.7741499000
O          2.4398658300       7.9722228400       4.5844234300
O          8.4863294900       1.6350027800       1.1198734300
O         -2.4983931600       4.7022172900       4.5844234300
O         -8.5448568200      11.0394373600       1.1198734300
O          3.8619589700       6.4893133500       3.2997682900
O          9.9084226300       0.1520932800       6.7643182900
O         -3.9204863000       6.1851267800       3.2997682900
O         -9.9669499600      12.5223468500       6.7643182900
O          1.5296805400       6.4918482400       2.9775651400
O          7.5761442100       0.1546281700       6.4421151400
O         -1.5882078700       6.1825919000       2.9775651400
O         -7.6346715300      12.5198119600       6.4421151400
O          5.1105022600       4.0190649700       3.5894046700
O         -0.9359614000      10.3562850300       7.0539546700
O         -5.1690295900       8.6553751700       3.5894046700
O          0.8774340700       2.3181551000       7.0539546700
O          6.0172000000       0.0000000000       2.0982623500
O         -0.0292636600       6.3372200700       5.5628123500
O          0.5627054600      10.5337271900       4.5192898900
O          6.6091691200       4.1965071300       1.0547398900
O         -0.6212327900       2.1407129400       4.5192898900
O         -6.6676964500       8.4779330100       1.0547398900
H          0.3614698300      10.3296687100       5.1685465600
H          6.4079334900       3.9924486400       1.7039965600
H         -0.4199971600       2.3447714200       5.1685465600
H         -6.4664608200       8.6819914900       1.7039965600
H         -0.0589733200      10.1649009900       4.2608344600
H          5.9874903500       3.8276809200       7.7253844600
H          0.0004459900       2.5095391500       4.2608344600
H         -6.0460176700       8.8467592100       7.7253844600
H          6.4133402400       0.2154654800       1.6832092600
H          0.3668765700       6.5526855500       5.1477592600
H         -6.4718675600      12.4589746500       1.6832092600
H         -0.4254039000       6.1217545800       5.1477592600
Ca        -9.2687994100      16.9191101300       3.0399270400
Ca       -15.3152630700      23.2563302000       6.5044770400
Ca       -14.9755825700      21.1042102700       3.0399270400
Ca        -8.9291189100      14.7669902000       6.5044770400
Ca       -21.5419318600      23.2715395300       3.3531223600
Ca       -15.4954682000      16.9343194600       6.8176723600
Ca        -2.7024501100      14.7517808700       3.3531223600
Ca        -8.7489137800      21.0890009400       6.8176723600
Ca        -6.0757273300      12.6744401300       4.4894947600
Ca       -12.1221909900      19.0116602000       1.0249447600
Ca       -12.0929273300      12.6744401300       1.0000000000
Ca       -18.1393909900      19.0116602000       4.4645500000
S         -9.4046736600      13.7669768700       3.1521784600
S        -15.4511373200      20.1041969400       6.6167284600
S        -14.8397083200      24.2563435300       3.1521784600
S         -8.7932446500      17.9191234600       6.6167284600
S        -12.1231043800      15.8215036200       1.0103936500
S        -18.1695680400      22.1587236800       4.4749436500
S        -12.1212776000      22.2018167800       1.0103936500
S         -6.0748139300      15.8645967100       4.4749436500
S         -9.4263128500      20.0167433000       3.3032328400
S         -3.3798491800      13.6795232400       6.7677828400
S        -14.8180691300      18.0065771000       3.3032328400
S        -20.8645328000      24.3437971600       6.7677828400
O         -8.4208127100      12.8442776300       3.6767113300
O        -14.4672763800      19.1814977000       7.1412613300
O        -15.8235692700      25.1790427700       3.6767113300
O         -9.7771056000      18.8418227000       7.1412613300
O        -10.5914227100      13.0191849000       2.7939439900
O        -16.6378863700      19.3564049700       6.2584939900
O        -13.6529592700      25.0041354900       2.7939439900
O         -7.6064956100      18.6669154300       6.2584939900
O         -8.8702710300      14.5325130600       2.0123415100
O        -14.9167347000      20.8697331200       5.4768915100
O        -15.3741109500      23.4908073400       2.0123415100
O         -9.3276472800      17.1535872800       5.4768915100
O         -9.7559290100      14.7771297500       4.1908505500
O        -15.8023926700      21.1143498200       7.6554005500
O        -14.4884529700      23.2461906500       4.1908505500
O         -8.4419893100      16.9089705800       7.6554005500
O        -12.8780093900      14.8544438400       1.8287203600
O        -18.9244730500      21.1916639000       5.2932703600
O        -11.3663725900      23.1688765600       1.8287203600
O         -5.3199089300      16.8316565000       5.2932703600
O         -5.1573821500      14.9938626800       3.6642389500
O        -11.2038458100      21.3310827400       7.1287889500
O        -19.0869998300      23.0294577200       3.6642389500
O        -13.0405361700      16.6922376600       7.1287889500
O        -11.3281698100      16.7201214200       1.8730666000
O        -17.3746334700      23.0573414900       5.3376166000
O        -12.9162121700      21.3031989800       1.8730666000
O         -6.8697485100      14.9659789100       5.3376166000
O         -9.2616494500      21.1042102700       2.3095999000
O         -3.2151857900      14.7669902000       5.7741499000
O        -14.9827325300      16.9191101300       2.3095999000
O        -21.0291961900      23.2563302000       5.7741499000
O         -9.6530614900      20.6466629800       4.5844234300
O         -3.6065978300      14.3094429100       1.1198734300
O        -14.5913204800      17.3766574200       4.5844234300
O        -20.6377841500      23.7138774900       1.1198734300
O         -8.2309683600      19.1637534800       3.2997682900
O         -2.1845046900      12.8265334100       6.7643182900
O        -16.0134136200      18.8595669200       3.2997682900
O        -22.0598772800      25.1967869800       6.7643182900
O        -10.5632467800      19.1662883700       2.9775651400
O         -4.5167831200      12.8290683000       6.4421151400
O        -13.6811352000      18.8570320300       2.9775651400
O        -19.7275988600      25.1942521000       6.4421151400
O         -6.9824250600      16.6935051000       3.5894046700
O        -13.0288887200      23.0307251700       7.0539546700
O        -17.2619569200      21.3298153000       3.5894046700
O        -11.2154932500      14.9925952300       7.0539546700
O         -6.0757273300      12.6744401300       2.0982623500
O        -12.1221909900      19.0116602000       5.5628123500
O        -11.5302218700      23.2081673300       4.5192898900
O         -5.4837582000      16.8709472600       1.0547398900
O        -12.7141601100      14.8151530700       4.5192898900
O        -18.7606237700      21.1523731400       1.0547398900
H        -11.7314575000      23.0041088400       5.1685465600
H         -5.6849938300      16.6668887800       1.7039965600
H        -12.5129244800      15.0192115600       5.1685465600
H        -18.5593881400      21.3564316200       1.7039965600
H        -12.1519006400      22.8393411200       4.2608344600
H         -6.1054369800      16.5021210500       7.7253844600
H        -12.0924813400      15.1839792800       4.2608344600
H        -18.1389450000      21.5211993500       7.7253844600
H         -5.6795870900      12.8899056200       1.6832092600
H        -11.7260507500      19.2271256800       5.1477592600
H        -18.5647948900      25.1334147800       1.6832092600
H        -12.5183312200      18.7961947200       5.1477592600
Ca        14.8585279200       4.2446700000       3.0399270400
Ca         8.8120642600      10.5818900700       6.5044770400
Ca         9.1517447600       8.4297701300       3.0399270400
Ca        15.1982084200       2.0925500700       6.5044770400
Ca         2.5853954600      10.5970994000       3.3531223600
Ca         8.6318591300       4.2598793300       6.8176723600
Ca        21.4248772100       2.0773407400       3.3531223600
Ca        15.3784135500       8.4145608000       6.8176723600
Ca        18.0516000000       0.0000000000       4.4894947600
Ca        12.0051363400       6.3372200700       1.0249447600
Ca        12.0344000000       0.0000000000       1.0000000000
Ca         5.9879363400       6.3372200700       4.4645500000
S         14.7226536600       1.0925367400       3.1521784600
S          8.6761900000       7.4297568100       6.6167284600
S          9.2876190100      11.5819033900       3.1521784600
S         15.3340826700       5.2446833300       6.6167284600
S         12.0042229400       3.1470634900       1.0103936500
S          5.9577592800       9.4842835500       4.4749436500
S         12.0060497300       9.5273766500       1.0103936500
S         18.0525133900       3.1901565800       4.4749436500
S         14.7010144800       7.3423031700       3.3032328400
S         20.7474781400       1.0050831000       6.7677828400
S          9.3092581900       5.3321369600       3.3032328400
S          3.2627945300      11.6693570300       6.7677828400
O         15.7065146100       0.1698375000       3.6767113300
O          9.6600509500       6.5070575600       7.1412613300
O          8.3037580600      12.5046026400       3.6767113300
O         14.3502217200       6.1673825700       7.1412613300
O         13.5359046200       0.3447447700       2.7939439900
O          7.4894409500       6.6819648400       6.2584939900
O         10.4743680600      12.3296953600       2.7939439900
O         16.5208317200       5.9924752900       6.2584939900
O         15.2570562900       1.8580729200       2.0123415100
O          9.2105926300       8.1952929900       5.4768915100
O          8.7532163800      10.8163672100       2.0123415100
O         14.7996800400       4.4791471400       5.4768915100
O         14.3713983200       2.1026896200       4.1908505500
O          8.3249346500       8.4399096800       7.6554005500
O          9.6388743600      10.5717505200       4.1908505500
O         15.6853380200       4.2345304500       7.6554005500
O         11.2493179400       2.1800037000       1.8287203600
O          5.2028542800       8.5172237700       5.2932703600
O         12.7609547300      10.4944364300       1.8287203600
O         18.8074184000       4.1572163600       5.2932703600
O         18.9699451800       2.3194225400       3.6642389500
O         12.9234815200       8.6566426100       7.1287889500
O          5.0403274900      10.3550175900       3.6642389500
O         11.0867911600       4.0177975200       7.1287889500
O         12.7991575200       4.0456812900       1.8730666000
O          6.7526938500      10.3829013600       5.3376166000
O         11.2111151600       8.6287588400       1.8730666000
O         17.2575788200       2.2915387800       5.3376166000
O         14.8656778800       8.4297701300       2.3095999000
O         20.9121415400       2.0925500700       5.7741499000
O          9.1445948000       4.2446700000       2.3095999000
O          3.0981311400      10.5818900700       5.7741499000
O         14.4742658300       7.9722228400       4.5844234300
O         20.5207294900       1.6350027800       1.1198734300
O          9.5360068400       4.7022172900       4.5844234300
O          3.4895431800      11.0394373600       1.1198734300
O         15.8963589700       6.4893133500       3.2997682900
O         21.9428226300       0.1520932800       6.7643182900
O          8.1139137000       6.1851267800       3.2997682900
O          2.0674500400      12.5223468500       6.7643182900
O         13.5640805400       6.4918482400       2.9775651400
O         19.6105442100       0.1546281700       6.4421151400
O         10.4461921300       6.1825919000       2.9775651400
O          4.3997284700      12.5198119600       6.4421151400
O         17.1449022600       4.0190649700       3.5894046700
O         11.0984386000      10.3562850300       7.0539546700
O          6.8653704100       8.6553751700       3.5894046700
O         12.9118340700       2.3181551000       7.0539546700
O         18.0516000000       0.0000000000       2.0982623500
O         12.0051363400       6.3372200700       5.5628123500
O         12.5971054600      10.5337271900       4.5192898900
O         18.6435691200       4.1965071300       1.0547398900
O         11.4131672100       2.1407129400       4.5192898900
O          5.3667035500       8.4779330100       1.0547398900
H         12.3958698300      10.3296687100       5.1685465600
H         18.4423334900       3.9924486400       1.7039965600
H         11.6144028400       2.3447714200       5.1685465600
H          5.5679391800       8.6819914900       1.7039965600
H         11.9754266800      10.1649009900       4.2608344600
H         18.0218903500       3.8276809200       7.7253844600
H         12.0348459900       2.5095391500       4.2608344600
H          5.9883823300       8.8467592100       7.7253844600
H         18.4477402400       0.2154654800       1.6832092600
H         12.4012765700       6.5526855500       5.1477592600
H          5.5625324400      12.4589746500       1.6832092600
H         11.6089961000       6.1217545800       5.1477592600
Ca         2.7656005900      16.9191101300       3.0399270400
Ca        -3.2808630700      23.2563302000       6.5044770400
Ca        -2.9411825700      21.1042102700       3.0399270400
Ca         3.1052810900      14.7669902000       6.5044770400
Ca        -9.5075318600      23.2715395300       3.3531223600
Ca        -3.4610682000      16.9343194600       6.8176723600
Ca         9.3319498900      14.7517808700       3.3531223600
Ca         3.2854862200      21.0890009400       6.8176723600
Ca         5.9586726700      12.6744401300       4.4894947600
Ca        -0.0877909900      19.0116602000       1.0249447600
Ca        -0.0585273300      12.6744401300       1.0000000000
Ca        -6.1049909900      19.0116602000       4.4645500000
S          2.6297263400      13.7669768700       3.1521784600
S         -3.4167373200      20.1041969400       6.6167284600
S         -2.8053083200      24.2563435300       3.1521784600
S          3.2411553500      17.9191234600       6.6167284600
S         -0.0887043800      15.8215036200       1.0103936500
S         -6.1351680400      22.1587236800       4.4749436500
S         -0.0868776000      22.2018167800       1.0103936500
S          5.9595860700      15.8645967100       4.4749436500
S          2.6080871500      20.0167433000       3.3032328400
S          8.6545508200      13.6795232400       6.7677828400
S         -2.7836691300      18.0065771000       3.3032328400
S         -8.8301328000      24.3437971600       6.7677828400
O          3.6135872900      12.8442776300       3.6767113300
O         -2.4328763800      19.1814977000       7.1412613300
O         -3.7891692700      25.1790427700       3.6767113300
O          2.2572944000      18.8418227000       7.1412613300
O          1.4429772900      13.0191849000       2.7939439900
O         -4.6034863700      19.3564049700       6.2584939900
O         -1.6185592700      25.0041354900       2.7939439900
O          4.4279043900      18.6669154300       6.2584939900
O          3.1641289700      14.5325130600       2.0123415100
O         -2.8823347000      20.8697331200       5.4768915100
O         -3.3397109500      23.4908073400       2.0123415100
O          2.7067527200      17.1535872800       5.4768915100
O          2.2784709900      14.7771297500       4.1908505500
O         -3.7679926700      21.1143498200       7.6554005500
O         -2.4540529700      23.2461906500       4.1908505500
O          3.5924106900      16.9089705800       7.6554005500
O         -0.8436093900      14.8544438400       1.8287203600
O         -6.8900730500      21.1916639000       5.2932703600
O          0.6680274100      23.1688765600       1.8287203600
O          6.7144910700      16.8316565000       5.2932703600
O          6.8770178500      14.9938626800       3.6642389500
O          0.8305541900      21.3310827400       7.1287889500
O         -7.0525998300      23.0294577200       3.6642389500
O         -1.0061361700      16.6922376600       7.1287889500
O          0.7062301900      16.7201214200       1.8730666000
O         -5.3402334700      23.0573414900       5.3376166000
O         -0.8818121700      21.3031989800       1.8730666000
O          5.1646514900      14.9659789100       5.3376166000
O          2.7727505500      21.1042102700       2.3095999000
O          8.8192142100      14.7669902000       5.7741499000
O         -2.9483325300      16.9191101300       2.3095999000
O         -8.9947961900      23.2563302000       5.7741499000
O          2.3813385100      20.6466629800       4.5844234300
O          8.4278021700      14.3094429100       1.1198734300
O         -2.5569204800      17.3766574200       4.5844234300
O         -8.6033841500      23.7138774900       1.1198734300
O          3.8034316400      19.1637534800       3.2997682900
O          9.8498953100      12.8265334100       6.7643182900
O         -3.9790136200      18.8595669200       3.2997682900
O        -10.0254772800      25.1967869800       6.7643182900
O          1.4711532200      19.1662883700       2.9775651400
O          7.5176168800      12.8290683000       6.4421151400
O         -1.6467352000      18.8570320300       2.9775651400
O         -7.6931988600      25.1942521000       6.4421151400
O          5.0519749400      16.6935051000       3.5894046700
O         -0.9944887200      23.0307251700       7.0539546700
O         -5.2275569200      21.3298153000       3.5894046700
O          0.8189067500      14.9925952300       7.0539546700
O          5.9586726700      12.6744401300       2.0982623500
O         -0.0877909900      19.0116602000       5.5628123500
O          0.5041781300      23.2081673300       4.5192898900
O          6.5506418000      16.8709472600       1.0547398900
O         -0.6797601100      14.8151530700       4.5192898900
O         -6.7262237700      21.1523731400       1.0547398900
H          0.3029425000      23.0041088400       5.1685465600
H          6.3494061700      16.6668887800       1.7039965600
H         -0.4785244800      15.0192115600       5.1685465600
H         -6.5249881400      21.3564316200       1.7039965600
H         -0.1175006400      22.8393411200       4.2608344600
H          5.9289630200      16.5021210500       7.7253844600
H         -0.0580813400      15.1839792800       4.2608344600
H         -6.1045450000      21.5211993500       7.7253844600
H          6.3548129100      12.8899056200       1.6832092600
H          0.3083492500      19.2271256800       5.1477592600
H         -6.5303948900      25.1334147800       1.6832092600
H         -0.4839312200      18.7961947200       5.1477592600
