 DBCSR| CPU Multiplication driver                                           XSMM (U)
 DBCSR| Multrec recursion limit                                              512 (U)
 DBCSR| Multiplication stack size                                           1000 (D)
 DBCSR| Maximum elements for images                                    UNLIMITED (U)
 DBCSR| Multiplicative factor virtual images                                   1 (U)
 DBCSR| Use multiplication densification                                       T (D)
 DBCSR| Multiplication size stacks                                             3 (U)
 DBCSR| Use memory pool for CPU allocation                                     F (U)
 DBCSR| Number of 3D layers                                               SINGLE (U)
 DBCSR| Use MPI memory allocation                                              F (U)
 DBCSR| Use RMA algorithm                                                      F (U)
 DBCSR| Use Communication thread                                               T (U)
 DBCSR| Communication thread load                                             87 (D)
 DBCSR| MPI: My process id                                                     0
 DBCSR| MPI: Number of processes                                             192
 DBCSR| OMP: Current number of threads                                         1
 DBCSR| OMP: Max number of threads                                             1
 DBCSR| Split modifier for TAS multiplication algorithm                  1.0E+00 (U)


  **** **** ******  **  PROGRAM STARTED AT               2026-09-01 15:54:02.015
 ***** ** ***  *** **   PROGRAM STARTED ON                                 n0515
 **    ****   ******    PROGRAM STARTED BY                              tangsiqi
 ***** **    ** ** **   PROGRAM PROCESS ID                               3329330
  **** **  *******  **  PROGRAM STARTED IN /scratch/tangsiqi/liyi_folder/AI_phos
                                           phogypsum/3.CP2K_AIMD/3.1.2CSO-0.625H
                                           2O

 CP2K| version string:                                       CP2K version 2026.2
 CP2K| source code revision number:                                  git:c92cc08
 CP2K| cp2kflags: omp libint fftw3 libxc elpa parallel scalapack mpi_f08 cosma l
 CP2K|            ibxs libxsmm plumed2 spglib libdftd4 dftd4_v4_2 s_dftd3 mctc-l
 CP2K|            lib tblite libvori libbqb mimic hdf5 trexio libsmeagol greenx
 CP2K| is freely available from                            https://www.cp2k.org/
 CP2K| Program compiled at                                   2026-08-15 22:43:53
 CP2K| Program compiled on                                                 n0529
 CP2K| Program compiled for                                               x86_64
 CP2K| Data directory path          /scratch/tangsiqi/CP2K_pkg/cp2k-v202602/data
 CP2K| Input file name                                                  aimd.inp

 GLOBAL| Force Environment number                                              1
 GLOBAL| Basis set file name                                    BASIS_MOLOPT_UZH
 GLOBAL| Potential file name                                       POTENTIAL_UZH
 GLOBAL| MM Potential file name                                     MM_POTENTIAL
 GLOBAL| Coordinate file name                              3.1.2CSO-0.625H2O.xyz
 GLOBAL| Method name                                                        CP2K
 GLOBAL| Project name                                           gypsum_slab_aimd
 GLOBAL| Run type                                                             MD
 GLOBAL| FFT library                                                       FFTW3
 GLOBAL| Diagonalization library                                            ELPA
 GLOBAL| Cholesky decomposition library                                ScaLAPACK
 GLOBAL| DGEMM library                                                      BLAS
 GLOBAL| Minimum number of eigenvectors for ELPA usage                        64
 GLOBAL| Orthonormality check for eigenvectors                          DISABLED
 GLOBAL| Matrix multiplication library                                     COSMA
 GLOBAL| All-to-all communication in single precision                          F
 GLOBAL| FFTs using library dependent lengths                                  T
 GLOBAL| Grid backend                                                       AUTO
 GLOBAL| Global print level                                               MEDIUM
 GLOBAL| MPI I/O enabled                                                       T
 GLOBAL| Total number of message passing processes                           192
 GLOBAL| Number of distributed systems (nodes)                                 1
 GLOBAL| Number of threads for this process                                    1
 GLOBAL| This output is from process                                           0
 GLOBAL| OpenMP stack size per thread (OMP_STACKSIZE)                       128M
 GLOBAL| CPU model name                          AMD EPYC 9A14 96-Core Processor
 GLOBAL| CPUID                                                              1003

 MEMORY| system memory details [Kb]
 MEMORY|                        rank 0           min           max       average
 MEMORY| MemTotal            791724220     791724220     791724220     791724220
 MEMORY| MemFree             726748440     726748440     726748440     726748440
 MEMORY| Buffers                625560        625560        625560        625560
 MEMORY| Cached               17805040      17805040      17805040      17805040
 MEMORY| Slab                  9264172       9264172       9264172       9264172
 MEMORY| SReclaimable          7446156       7446156       7446156       7446156
 MEMORY| MemLikelyFree       752625196     752625196     752625196     752625196


 *** Fundamental physical constants (SI units) ***

 *** Literature: B. J. Mohr and B. N. Taylor,
 ***             CODATA recommended values of the fundamental physical
 ***             constants: 2006, Web Version 5.1
 ***             http://physics.nist.gov/constants

 Speed of light in vacuum [m/s]                             2.99792458000000E+08
 Magnetic constant or permeability of vacuum [N/A**2]       1.25663706143592E-06
 Electric constant or permittivity of vacuum [F/m]          8.85418781762039E-12
 Planck constant (h) [J*s]                                  6.62606896000000E-34
 Planck constant (h-bar) [J*s]                              1.05457162825177E-34
 Elementary charge [C]                                      1.60217648700000E-19
 Electron mass [kg]                                         9.10938215000000E-31
 Electron g factor [ ]                                     -2.00231930436220E+00
 Proton mass [kg]                                           1.67262163700000E-27
 Fine-structure constant                                    7.29735253760000E-03
 Rydberg constant [1/m]                                     1.09737315685270E+07
 Avogadro constant [1/mol]                                  6.02214179000000E+23
 Boltzmann constant [J/K]                                   1.38065040000000E-23
 Atomic mass unit [kg]                                      1.66053878200000E-27
 Bohr radius [m]                                            5.29177208590000E-11

 *** Conversion factors ***

 [u] -> [a.u.]                                              1.82288848426455E+03
 [Angstrom] -> [Bohr] = [a.u.]                              1.88972613288564E+00
 [a.u.] = [Bohr] -> [Angstrom]                              5.29177208590000E-01
 [a.u.] -> [s]                                              2.41888432650478E-17
 [a.u.] -> [fs]                                             2.41888432650478E-02
 [a.u.] -> [J]                                              4.35974393937059E-18
 [a.u.] -> [N]                                              8.23872205491840E-08
 [a.u.] -> [K]                                              3.15774647902944E+05
 [a.u.] -> [kJ/mol]                                         2.62549961709828E+03
 [a.u.] -> [kcal/mol]                                       6.27509468713739E+02
 [a.u.] -> [Pa]                                             2.94210107994716E+13
 [a.u.] -> [bar]                                            2.94210107994716E+08
 [a.u.] -> [atm]                                            2.90362800883016E+08
 [a.u.] -> [eV]                                             2.72113838565563E+01
 [a.u.] -> [Hz]                                             6.57968392072181E+15
 [a.u.] -> [1/cm] (wave numbers)                            2.19474631370540E+05
 [a.u./Bohr**2] -> [1/cm]                                   5.14048714338585E+03
 

 CELL| Volume [angstrom^3]:                                         13255.029201
 CELL| Vector a [angstrom]:      24.069     0.000     0.000   |a| =    24.068800
 CELL| Vector b [angstrom]:     -24.186    25.349     0.000   |b| =    35.036000
 CELL| Vector c [angstrom]:       0.000     0.000    21.725   |c| =    21.725384
 CELL| Angle (b,c), alpha [degree]:                                    90.000000
 CELL| Angle (a,c), beta  [degree]:                                    90.000000
 CELL| Angle (a,b), gamma [degree]:                                   133.655000
 CELL| Numerically orthorhombic:                                              NO
 CELL| Periodicity                                                            XY

 CELL_REF| Volume [angstrom^3]:                                     13255.029201
 CELL_REF| Vector a [angstrom    24.069     0.000     0.000   |a| =    24.068800
 CELL_REF| Vector b [angstrom   -24.186    25.349     0.000   |b| =    35.036000
 CELL_REF| Vector c [angstrom     0.000     0.000    21.725   |c| =    21.725384
 CELL_REF| Angle (b,c), alpha [degree]:                                90.000000
 CELL_REF| Angle (a,c), beta  [degree]:                                90.000000
 CELL_REF| Angle (a,b), gamma [degree]:                               133.655000
 CELL_REF| Numerically orthorhombic:                                          NO
 CELL_REF| Periodicity                                                        XY

 GENERATE|  Preliminary Number of Bonds generated:                             0
 GENERATE|  Achieved consistency in connectivity generation.

 *******************************************************************************
 *******************************************************************************
 **                                                                           **
 **     #####                         ##              ##                      **
 **    ##   ##            ##          ##              ##                      **
 **   ##     ##                       ##            ######                    **
 **   ##     ##  ##   ##  ##   #####  ##  ##   ####   ##    #####    #####    **
 **   ##     ##  ##   ##  ##  ##      ## ##   ##      ##   ##   ##  ##   ##   **
 **   ##  ## ##  ##   ##  ##  ##      ####     ###    ##   ######   ######    **
 **    ##  ###   ##   ##  ##  ##      ## ##      ##   ##   ##       ##        **
 **     #######   #####   ##   #####  ##  ##  ####    ##    #####   ##        **
 **           ##                                                    ##        **
 **                                                                           **
 **                                                ... make the atoms dance   **
 **                                                                           **
 **            Copyright (C) by CP2K developers group (2000-2026)             **
 **                      J. Chem. Phys. 152, 194103 (2020)                    **
 **                                                                           **
 *******************************************************************************

 DFT| Spin restricted Kohn-Sham (RKS) calculation                            RKS
 DFT| Multiplicity                                                             1
 DFT| Number of spin states                                                    1
 DFT| Charge                                                                   0
 DFT| Self-interaction correction (SIC)                                       NO
 DFT| Cutoffs: density                                              1.000000E-10
 DFT|          gradient                                             1.000000E-10
 DFT|          tau                                                  1.000000E-10
 DFT|          cutoff_smoothing_range                               0.000000E+00
 DFT| XC density smoothing                                                  NONE
 DFT| XC derivatives                                                          PW

 FUNCTIONAL| MGGA_X_R2SCAN:
 FUNCTIONAL| [1] J. W. Furness, A. D. Kaplan, J. Ning, J. P. Perdew, and J. Sun.
 FUNCTIONAL| ,  J. Phys. Chem. Lett. 11, 8208-8215 (2020), doi: 10.1021/acs.jpcl
 FUNCTIONAL| ett.0c02405                                                        
 FUNCTIONAL| Optional external parameters:                                      
 FUNCTIONAL|  * c1 parameter                                                    
 FUNCTIONAL|  * c2 parameter                                                    
 FUNCTIONAL|  * d parameter                                                     
 FUNCTIONAL|  * k1 parameter                                                    
 FUNCTIONAL|  * eta parameter                                                   
 FUNCTIONAL|  * dp2 parameter                                                   
 FUNCTIONAL| {scale=1.000, spin-unpolarized}                                    
 FUNCTIONAL| MGGA_C_R2SCAN:
 FUNCTIONAL| [1] J. W. Furness, A. D. Kaplan, J. Ning, J. P. Perdew, and J. Sun.
 FUNCTIONAL| ,  J. Phys. Chem. Lett. 11, 8208-8215 (2020), doi: 10.1021/acs.jpcl
 FUNCTIONAL| ett.0c02405                                                        
 FUNCTIONAL| Optional external parameters:                                      
 FUNCTIONAL|  * Regularization parameter                                        
 FUNCTIONAL| {scale=1.000, spin-unpolarized}                                    

 vdW POTENTIAL|                                                   Pair Potential
 vdW POTENTIAL|          DFT-D4(Version 4.0)
 vdW POTENTIAL|          see https://github.com/dftd4/dftd4
 vdW POTENTIAL|          E. Caldeweyher et al, PCCP 22: 8499 (2020)
 vdW POTENTIAL|          E. Caldeweyher et al, JCP 150: 154122 (2019)
 vdW POTENTIAL|          E. Caldeweyher et al, JCP 147: 034112 (2017)

 QS| Method:                                                                 GPW
 QS| Density plane wave grid type                        NON-SPHERICAL FULLSPACE
 QS| Number of grid levels:                                                    4
 QS| Density cutoff [a.u.]:                                                210.0
 QS| Multi grid cutoff [a.u.]: 1) grid level                               210.0
 QS|                           2) grid level                                70.0
 QS|                           3) grid level                                23.3
 QS|                           4) grid level                                 7.8
 QS| Grid level progression factor:                                          3.0
 QS| Relative density cutoff [a.u.]:                                        30.0
 QS| Interaction thresholds: eps_pgf_orb:                                1.0E-06
 QS|                         eps_filter_matrix:                          0.0E+00
 QS|                         eps_core_charge:                            1.0E-14
 QS|                         eps_rho_gspace:                             1.0E-12
 QS|                         eps_rho_rspace:                             1.0E-12
 QS|                         eps_gvg_rspace:                             1.0E-06
 QS|                         eps_ppl:                                    1.0E-02
 QS|                         eps_ppnl:                                   1.0E-08


 ATOMIC KIND INFORMATION

  1. Atomic kind: Ca                                    Number of atoms:      48

     Orbital Basis Set                                  DZVP-MOLOPT-SCAN-GTH-q10

       Number of orbital shell sets:                                           1
       Number of orbital shells:                                               6
       Number of primitive Cartesian functions:                                6
       Number of Cartesian basis functions:                                   15
       Number of spherical basis functions:                                   14
       Norm type:                                                              2

       Normalised Cartesian orbitals:

                        Set   Shell   Orbital            Exponent    Coefficient

                          1       1    2s                4.909342      -1.559814
                                                         4.046820       2.036705
                                                         1.279283      -0.365659
                                                         0.516707       0.740597
                                                         0.191638      -0.567918
                                                         0.050518       0.098380

                          1       2    3s                4.909342       0.649734
                                                         4.046820      -1.191956
                                                         1.279283       0.273064
                                                         0.516707       0.407813
                                                         0.191638      -0.027634
                                                         0.050518      -0.062307

                          1       3    4s                4.909342       0.681479
                                                         4.046820      -1.040230
                                                         1.279283       0.184278
                                                         0.516707       0.077478
                                                         0.191638       0.033464
                                                         0.050518       0.055005

                          1       4    3px               4.909342      -0.947442
                                                         4.046820       0.460926
                                                         1.279283       0.775206
                                                         0.516707       0.266691
                                                         0.191638       0.036219
                                                         0.050518       0.008167
                          1       4    3py               4.909342      -0.947442
                                                         4.046820       0.460926
                                                         1.279283       0.775206
                                                         0.516707       0.266691
                                                         0.191638       0.036219
                                                         0.050518       0.008167
                          1       4    3pz               4.909342      -0.947442
                                                         4.046820       0.460926
                                                         1.279283       0.775206
                                                         0.516707       0.266691
                                                         0.191638       0.036219
                                                         0.050518       0.008167

                          1       5    4px               4.909342       0.782631
                                                         4.046820      -0.678119
                                                         1.279283      -0.444038
                                                         0.516707      -0.219758
                                                         0.191638       0.043065
                                                         0.050518       0.029337
                          1       5    4py               4.909342       0.782631
                                                         4.046820      -0.678119
                                                         1.279283      -0.444038
                                                         0.516707      -0.219758
                                                         0.191638       0.043065
                                                         0.050518       0.029337
                          1       5    4pz               4.909342       0.782631
                                                         4.046820      -0.678119
                                                         1.279283      -0.444038
                                                         0.516707      -0.219758
                                                         0.191638       0.043065
                                                         0.050518       0.029337

                          1       6    4dx2              4.909342      -4.659000
                                                         4.046820       5.253627
                                                         1.279283       0.655592
                                                         0.516707       0.160461
                                                         0.191638       0.042150
                                                         0.050518       0.002101
                          1       6    4dxy              4.909342      -8.069624
                                                         4.046820       9.099549
                                                         1.279283       1.135518
                                                         0.516707       0.277927
                                                         0.191638       0.073005
                                                         0.050518       0.003638
                          1       6    4dxz              4.909342      -8.069624
                                                         4.046820       9.099549
                                                         1.279283       1.135518
                                                         0.516707       0.277927
                                                         0.191638       0.073005
                                                         0.050518       0.003638
                          1       6    4dy2              4.909342      -4.659000
                                                         4.046820       5.253627
                                                         1.279283       0.655592
                                                         0.516707       0.160461
                                                         0.191638       0.042150
                                                         0.050518       0.002101
                          1       6    4dyz              4.909342      -8.069624
                                                         4.046820       9.099549
                                                         1.279283       1.135518
                                                         0.516707       0.277927
                                                         0.191638       0.073005
                                                         0.050518       0.003638
                          1       6    4dz2              4.909342      -4.659000
                                                         4.046820       5.253627
                                                         1.279283       0.655592
                                                         0.516707       0.160461
                                                         0.191638       0.042150
                                                         0.050518       0.002101

       Atomic covalent radius [Angstrom]:                                  1.740

       Atomic van der Waals radius [Angstrom]:                             2.310

     GTH Potential information for                                  GTH-SCAN-q10

       Description:                       Goedecker-Teter-Hutter pseudopotential
                                           Goedecker et al., PRB 54, 1703 (1996)
                                          Hartwigsen et al., PRB 58, 3641 (1998)
                                                      Krack, TCA 114, 145 (2005)

       Gaussian exponent of the core charge distribution:               3.704879
       Electronic configuration (s p d ...):                       4   6   0   0

       Parameters of the local part of the GTH pseudopotential:

                          rloc        C1          C2          C3          C4
                        0.367365   -4.097203   -1.661640

       Parameters of the non-local part of the GTH pseudopotential:

                   l      r(l)      h(i,j,l)

                   0    0.289925   20.485207   -7.129785
                                   -7.129785    9.173934
                   1    0.326930    5.809901   -0.428753
                                   -0.428753    0.486571
                   2    0.682091    0.019479

  2. Atomic kind: S                                     Number of atoms:      48

     Orbital Basis Set                                   DZVP-MOLOPT-SCAN-GTH-q6

       Number of orbital shell sets:                                           1
       Number of orbital shells:                                               5
       Number of primitive Cartesian functions:                                4
       Number of Cartesian basis functions:                                   14
       Number of spherical basis functions:                                   13
       Norm type:                                                              2

       Normalised Cartesian orbitals:

                        Set   Shell   Orbital            Exponent    Coefficient

                          1       1    2s                1.889826       0.323702
                                                         1.158002      -0.054207
                                                         0.373252      -0.217234
                                                         0.124185      -0.074944

                          1       2    3s                1.889826      -0.326795
                                                         1.158002      -0.214585
                                                         0.373252       0.398837
                                                         0.124185      -0.240192

                          1       3    3px               1.889826       0.514693
                                                         1.158002      -0.474413
                                                         0.373252      -0.272742
                                                         0.124185      -0.032183
                          1       3    3py               1.889826       0.514693
                                                         1.158002      -0.474413
                                                         0.373252      -0.272742
                                                         0.124185      -0.032183
                          1       3    3pz               1.889826       0.514693
                                                         1.158002      -0.474413
                                                         0.373252      -0.272742
                                                         0.124185      -0.032183

                          1       4    4px               1.889826       0.570641
                                                         1.158002      -0.401878
                                                         0.373252      -0.185604
                                                         0.124185       0.132849
                          1       4    4py               1.889826       0.570641
                                                         1.158002      -0.401878
                                                         0.373252      -0.185604
                                                         0.124185       0.132849
                          1       4    4pz               1.889826       0.570641
                                                         1.158002      -0.401878
                                                         0.373252      -0.185604
                                                         0.124185       0.132849

                          1       5    4dx2              1.889826       0.326281
                                                         1.158002       0.580902
                                                         0.373252       0.199583
                                                         0.124185       0.007004
                          1       5    4dxy              1.889826       0.565136
                                                         1.158002       1.006151
                                                         0.373252       0.345688
                                                         0.124185       0.012131
                          1       5    4dxz              1.889826       0.565136
                                                         1.158002       1.006151
                                                         0.373252       0.345688
                                                         0.124185       0.012131
                          1       5    4dy2              1.889826       0.326281
                                                         1.158002       0.580902
                                                         0.373252       0.199583
                                                         0.124185       0.007004
                          1       5    4dyz              1.889826       0.565136
                                                         1.158002       1.006151
                                                         0.373252       0.345688
                                                         0.124185       0.012131
                          1       5    4dz2              1.889826       0.326281
                                                         1.158002       0.580902
                                                         0.373252       0.199583
                                                         0.124185       0.007004

       Atomic covalent radius [Angstrom]:                                  1.020

       Atomic van der Waals radius [Angstrom]:                             1.800

     GTH Potential information for                                   GTH-SCAN-q6

       Description:                       Goedecker-Teter-Hutter pseudopotential
                                           Goedecker et al., PRB 54, 1703 (1996)
                                          Hartwigsen et al., PRB 58, 3641 (1998)
                                                      Krack, TCA 114, 145 (2005)

       Gaussian exponent of the core charge distribution:               2.942366
       Electronic configuration (s p d ...):                       2   4   0   0

       Parameters of the local part of the GTH pseudopotential:

                          rloc        C1          C2          C3          C4
                        0.412227   -5.962127

       Parameters of the non-local part of the GTH pseudopotential:

                   l      r(l)      h(i,j,l)

                   0    0.364381   13.137278   -4.241829
                                   -4.241829    5.472888
                   1    0.407230    3.707938

  3. Atomic kind: O                                     Number of atoms:     216

     Orbital Basis Set                                   DZVP-MOLOPT-SCAN-GTH-q6

       Number of orbital shell sets:                                           1
       Number of orbital shells:                                               5
       Number of primitive Cartesian functions:                                5
       Number of Cartesian basis functions:                                   14
       Number of spherical basis functions:                                   13
       Norm type:                                                              2

       Normalised Cartesian orbitals:

                        Set   Shell   Orbital            Exponent    Coefficient

                          1       1    2s               10.257817      -0.419073
                                                         3.644287      -0.215759
                                                         1.402225       0.311285
                                                         0.522057       0.263821
                                                         0.168189       0.045116

                          1       2    3s               10.257817       0.362459
                                                         3.644287       0.180656
                                                         1.402225      -0.203664
                                                         0.522057      -0.159611
                                                         0.168189       0.244682

                          1       3    3px              10.257817      -1.672017
                                                         3.644287      -1.345385
                                                         1.402225      -0.751048
                                                         0.522057      -0.276645
                                                         0.168189      -0.033014
                          1       3    3py              10.257817      -1.672017
                                                         3.644287      -1.345385
                                                         1.402225      -0.751048
                                                         0.522057      -0.276645
                                                         0.168189      -0.033014
                          1       3    3pz              10.257817      -1.672017
                                                         3.644287      -1.345385
                                                         1.402225      -0.751048
                                                         0.522057      -0.276645
                                                         0.168189      -0.033014

                          1       4    4px              10.257817       1.559903
                                                         3.644287       0.989060
                                                         1.402225       0.672543
                                                         0.522057       0.141420
                                                         0.168189      -0.167208
                          1       4    4py              10.257817       1.559903
                                                         3.644287       0.989060
                                                         1.402225       0.672543
                                                         0.522057       0.141420
                                                         0.168189      -0.167208
                          1       4    4pz              10.257817       1.559903
                                                         3.644287       0.989060
                                                         1.402225       0.672543
                                                         0.522057       0.141420
                                                         0.168189      -0.167208

                          1       5    4dx2             10.257817      -1.249026
                                                         3.644287       1.475740
                                                         1.402225       0.993741
                                                         0.522057       0.395456
                                                         0.168189      -0.006736
                          1       5    4dxy             10.257817      -2.163376
                                                         3.644287       2.556057
                                                         1.402225       1.721210
                                                         0.522057       0.684950
                                                         0.168189      -0.011667
                          1       5    4dxz             10.257817      -2.163376
                                                         3.644287       2.556057
                                                         1.402225       1.721210
                                                         0.522057       0.684950
                                                         0.168189      -0.011667
                          1       5    4dy2             10.257817      -1.249026
                                                         3.644287       1.475740
                                                         1.402225       0.993741
                                                         0.522057       0.395456
                                                         0.168189      -0.006736
                          1       5    4dyz             10.257817      -2.163376
                                                         3.644287       2.556057
                                                         1.402225       1.721210
                                                         0.522057       0.684950
                                                         0.168189      -0.011667
                          1       5    4dz2             10.257817      -1.249026
                                                         3.644287       1.475740
                                                         1.402225       0.993741
                                                         0.522057       0.395456
                                                         0.168189      -0.006736

       Atomic covalent radius [Angstrom]:                                  0.730

       Atomic van der Waals radius [Angstrom]:                             1.520

     GTH Potential information for                                   GTH-SCAN-q6

       Description:                       Goedecker-Teter-Hutter pseudopotential
                                           Goedecker et al., PRB 54, 1703 (1996)
                                          Hartwigsen et al., PRB 58, 3641 (1998)
                                                      Krack, TCA 114, 145 (2005)

       Gaussian exponent of the core charge distribution:               8.656553
       Electronic configuration (s p d ...):                       2   4   0   0

       Parameters of the local part of the GTH pseudopotential:

                          rloc        C1          C2          C3          C4
                        0.240333  -16.794986    2.452457

       Parameters of the non-local part of the GTH pseudopotential:

                   l      r(l)      h(i,j,l)

                   0    0.221500   18.441562

  4. Atomic kind: H                                     Number of atoms:      48

     Orbital Basis Set                                  TZV2P-MOLOPT-SCAN-GTH-q1

       Number of orbital shell sets:                                           1
       Number of orbital shells:                                               6
       Number of primitive Cartesian functions:                                5
       Number of Cartesian basis functions:                                   15
       Number of spherical basis functions:                                   14
       Norm type:                                                              2

       Normalised Cartesian orbitals:

                        Set   Shell   Orbital            Exponent    Coefficient

                          1       1    2s                9.168765       0.095357
                                                         2.161194       0.125778
                                                         0.619868       0.162183
                                                         0.161316       0.074849
                                                         0.412255       0.090962

                          1       2    3s                9.168765      -0.435739
                                                         2.161194      -0.868971
                                                         0.619868      -0.406683
                                                         0.161316      -0.142964
                                                         0.412255       0.978336

                          1       3    4s                9.168765       0.385896
                                                         2.161194       1.113624
                                                         0.619868       0.043366
                                                         0.161316      -0.067676
                                                         0.412255       0.053421

                          1       4    3px               9.168765      -1.788640
                                                         2.161194       0.906920
                                                         0.619868       0.273605
                                                         0.161316       0.091389
                                                         0.412255       0.008094
                          1       4    3py               9.168765      -1.788640
                                                         2.161194       0.906920
                                                         0.619868       0.273605
                                                         0.161316       0.091389
                                                         0.412255       0.008094
                          1       4    3pz               9.168765      -1.788640
                                                         2.161194       0.906920
                                                         0.619868       0.273605
                                                         0.161316       0.091389
                                                         0.412255       0.008094

                          1       5    4px               9.168765       3.833256
                                                         2.161194      -1.958439
                                                         0.619868      -0.594902
                                                         0.161316       0.094348
                                                         0.412255      -0.017587
                          1       5    4py               9.168765       3.833256
                                                         2.161194      -1.958439
                                                         0.619868      -0.594902
                                                         0.161316       0.094348
                                                         0.412255      -0.017587
                          1       5    4pz               9.168765       3.833256
                                                         2.161194      -1.958439
                                                         0.619868      -0.594902
                                                         0.161316       0.094348
                                                         0.412255      -0.017587

                          1       6    4dx2              9.168765       0.046944
                                                         2.161194       0.005757
                                                         0.619868      -0.000296
                                                         0.161316       0.067696
                                                         0.412255      -0.000784
                          1       6    4dxy              9.168765       0.081310
                                                         2.161194       0.009971
                                                         0.619868      -0.000513
                                                         0.161316       0.117253
                                                         0.412255      -0.001358
                          1       6    4dxz              9.168765       0.081310
                                                         2.161194       0.009971
                                                         0.619868      -0.000513
                                                         0.161316       0.117253
                                                         0.412255      -0.001358
                          1       6    4dy2              9.168765       0.046944
                                                         2.161194       0.005757
                                                         0.619868      -0.000296
                                                         0.161316       0.067696
                                                         0.412255      -0.000784
                          1       6    4dyz              9.168765       0.081310
                                                         2.161194       0.009971
                                                         0.619868      -0.000513
                                                         0.161316       0.117253
                                                         0.412255      -0.001358
                          1       6    4dz2              9.168765       0.046944
                                                         2.161194       0.005757
                                                         0.619868      -0.000296
                                                         0.161316       0.067696
                                                         0.412255      -0.000784

       Atomic covalent radius [Angstrom]:                                  0.320

       Atomic van der Waals radius [Angstrom]:                             1.090

     GTH Potential information for                                   GTH-SCAN-q1

       Description:                       Goedecker-Teter-Hutter pseudopotential
                                           Goedecker et al., PRB 54, 1703 (1996)
                                          Hartwigsen et al., PRB 58, 3641 (1998)
                                                      Krack, TCA 114, 145 (2005)

       Gaussian exponent of the core charge distribution:              12.429142
       Electronic configuration (s p d ...):                       1   0   0   0

       Parameters of the local part of the GTH pseudopotential:

                          rloc        C1          C2          C3          C4
                        0.200569   -4.177243    0.723816


 MOLECULE KIND INFORMATION


 All atoms are their own molecule, skipping detailed information


 TOTAL NUMBERS AND MAXIMUM NUMBERS

  Total number of            - Atomic kinds:                                   4
                             - Atoms:                                        360
                             - Shell sets:                                   360
                             - Shells:                                      1896
                             - Primitive Cartesian functions:               1800
                             - Cartesian basis functions:                   5136
                             - Spherical basis functions:                   4776

  Maximum angular momentum of- Orbital basis functions:                        2
                             - Local part of the GTH pseudopotential:          2
                             - Non-local part of the GTH pseudopotential:      3


 MODULE QUICKSTEP: ATOMIC COORDINATES IN ANGSTROM

   Atom Kind Element         X             Y             Z       Z(eff)     Mass
      1    1 Ca   20      2.954806      4.225024      3.129799  10.0000  40.0780
      2    1 Ca   20     -2.973002     10.866425      6.291079  10.0000  40.0780
      3    1 Ca   20     -3.012098      8.451120      3.068298  10.0000  40.0780
      4    1 Ca   20      2.813749      2.073068      6.319267  10.0000  40.0780
      5    1 Ca   20     -9.153775     10.502805      3.410453  10.0000  40.0780
      6    1 Ca   20     -2.178656      4.220164      6.779477  10.0000  40.0780
      7    1 Ca   20      9.146067      2.044935      3.755727  10.0000  40.0780
      8    1 Ca   20      1.222108      8.909559      6.389846  10.0000  40.0780
      9    1 Ca   20      5.944786      0.129141      4.864368  10.0000  40.0780
     10    1 Ca   20      0.189309      6.702573      1.725347  10.0000  40.0780
     11    1 Ca   20     -0.016140      0.143313      1.111746  10.0000  40.0780
     12    1 Ca   20     -6.110743      6.329470      4.482811  10.0000  40.0780
     13    2 S    16      2.700186      1.222878      3.084628   6.0000  32.0650
     14    2 S    16     -3.387831      7.350818      6.602415   6.0000  32.0650
     15    2 S    16     -2.747079     11.437310      3.108108   6.0000  32.0650
     16    2 S    16      3.263722      5.355031      6.645567   6.0000  32.0650
     17    2 S    16      0.740158      3.658512      0.193301   6.0000  32.0650
     18    2 S    16     -5.996887      9.381054      4.615306   6.0000  32.0650
     19    2 S    16     -0.255842      9.458918      0.600011   6.0000  32.0650
     20    2 S    16      5.952937      3.284205      4.618373   6.0000  32.0650
     21    2 S    16      2.565138      7.281393      3.407784   6.0000  32.0650
     22    2 S    16      8.872223      1.276270      7.119705   6.0000  32.0650
     23    2 S    16     -2.699291      5.362518      3.303718   6.0000  32.0650
     24    2 S    16     -8.911067     11.561347      6.980620   6.0000  32.0650
     25    3 O     8      3.654920      0.371800      3.829940   6.0000  15.9994
     26    3 O     8     -2.487655      6.517054      7.401225   6.0000  15.9994
     27    3 O     8     -3.668451     12.291211      3.903435   6.0000  15.9994
     28    3 O     8      2.280911      6.188923      7.299450   6.0000  15.9994
     29    3 O     8      1.626397      0.310929      2.579405   6.0000  15.9994
     30    3 O     8     -4.643355      6.690360      6.288092   6.0000  15.9994
     31    3 O     8     -1.666469     12.330936      2.583779   6.0000  15.9994
     32    3 O     8      4.543765      5.999850      6.352080   6.0000  15.9994
     33    3 O     8      3.293274      2.060569      2.025037   6.0000  15.9994
     34    3 O     8     -2.703830      7.984887      5.455192   6.0000  15.9994
     35    3 O     8     -3.392809     10.643297      2.049445   6.0000  15.9994
     36    3 O     8      2.748515      4.542585      5.508222   6.0000  15.9994
     37    3 O     8      2.068952      2.211528      4.071357   6.0000  15.9994
     38    3 O     8     -3.794327      8.620400      7.549891   6.0000  15.9994
     39    3 O     8     -2.102297     10.444451      4.087875   6.0000  15.9994
     40    3 O     8      3.665470      4.151471      7.715801   6.0000  15.9994
     41    3 O     8      0.153263      2.378681      0.790585   6.0000  15.9994
     42    3 O     8     -6.718769      8.485121      5.534738   6.0000  15.9994
     43    3 O     8      0.703387     10.451102      1.360757   6.0000  15.9994
     44    3 O     8      6.678070      4.168516      5.538364   6.0000  15.9994
     45    3 O     8      6.845622      2.333177      3.880434   6.0000  15.9994
     46    3 O     8     -0.534136      9.347024      7.880828   6.0000  15.9994
     47    3 O     8     -6.887253     10.322147      3.874053   6.0000  15.9994
     48    3 O     8     -0.246536      3.072911      6.695111   6.0000  15.9994
     49    3 O     8      1.246762      4.608187      1.334037   6.0000  15.9994
     50    3 O     8     -4.990690     10.234208      5.321179   6.0000  15.9994
     51    3 O     8     -1.078455      8.604447      1.673773   6.0000  15.9994
     52    3 O     8      4.951769      2.414390      5.317271   6.0000  15.9994
     53    3 O     8      2.150350      8.031285      2.183367   6.0000  15.9994
     54    3 O     8      9.189285      2.469630      6.127252   6.0000  15.9994
     55    3 O     8     -2.615984      4.308679      2.284647   6.0000  15.9994
     56    3 O     8     -9.415887     10.412637      5.987930   6.0000  15.9994
     57    3 O     8      2.607449      8.192543      4.559515   6.0000  15.9994
     58    3 O     8      8.647158      1.763214      1.540363   6.0000  15.9994
     59    3 O     8     -2.540931      4.753415      4.653901   6.0000  15.9994
     60    3 O     8     -9.683129     11.488440      1.387909   6.0000  15.9994
     61    3 O     8      3.865403      6.564157      3.221314   6.0000  15.9994
     62    3 O     8     10.059382      0.320784      6.933024   6.0000  15.9994
     63    3 O     8     -3.971421      6.156494      3.229772   6.0000  15.9994
     64    3 O     8     -9.819308     12.759178      6.615205   6.0000  15.9994
     65    3 O     8      1.509089      6.187664      3.586113   6.0000  15.9994
     66    3 O     8      7.698598      0.474548      6.450086   6.0000  15.9994
     67    3 O     8     -1.599804      6.400153      3.122235   6.0000  15.9994
     68    3 O     8     -7.504402     11.917832      6.497967   6.0000  15.9994
     69    3 O     8      5.230900      4.189097      3.632109   6.0000  15.9994
     70    3 O     8     -0.867386      9.834633      6.663718   6.0000  15.9994
     71    3 O     8     -5.266633      8.484437      3.630025   6.0000  15.9994
     72    3 O     8      0.934534      3.112636      7.327171   6.0000  15.9994
     73    3 O     8      6.065078     -0.117750      2.320412   6.0000  15.9994
     74    3 O     8     -0.047738      7.015420      5.701364   6.0000  15.9994
     75    3 O     8      0.714300     10.592499      4.459027   6.0000  15.9994
     76    3 O     8      7.396735      1.931825      0.977565   6.0000  15.9994
     77    3 O     8     -0.703704      2.105563      4.249231   6.0000  15.9994
     78    3 O     8     -8.399955     10.875056      1.071002   6.0000  15.9994
     79    4 H     1      0.852227     11.326925      5.087708   1.0000   1.0079
     80    4 H     1      6.812425      1.330076      1.515444   1.0000   1.0079
     81    4 H     1     -0.537187      2.250789      5.215465   1.0000   1.0079
     82    4 H     1     -7.767447     11.614022      1.202358   1.0000   1.0079
     83    4 H     1     -0.229109     10.637555      4.200097   1.0000   1.0079
     84    4 H     1      4.634408      4.202315      7.792264   1.0000   1.0079
     85    4 H     1      0.193838      2.102962      3.880540   1.0000   1.0079
     86    4 H     1     -4.766684      8.686057      7.466372   1.0000   1.0079
     87    4 H     1      6.775725     -0.751593      2.129086   1.0000   1.0079
     88    4 H     1      0.368061      6.501942      4.984823   1.0000   1.0079
     89    4 H     1     -6.884326     13.509095      2.144836   1.0000   1.0079
     90    4 H     1     -0.953942      7.220643      5.416160   1.0000   1.0079
     91    1 Ca   20     -9.190270     16.836186      3.201182  10.0000  40.0780
     92    1 Ca   20    -15.054117     23.706360      6.334355  10.0000  40.0780
     93    1 Ca   20    -15.098099     21.107155      3.139996  10.0000  40.0780
     94    1 Ca   20     -9.400066     14.983062      6.613081  10.0000  40.0780
     95    1 Ca   20    -21.174499     23.369784      3.460163  10.0000  40.0780
     96    1 Ca   20    -13.340110     16.832427      6.471551  10.0000  40.0780
     97    1 Ca   20     -3.025360     14.574281      3.317550  10.0000  40.0780
     98    1 Ca   20    -10.506777     21.142003      6.232107  10.0000  40.0780
     99    1 Ca   20     -6.133945     12.572147      4.789505  10.0000  40.0780
    100    1 Ca   20    -11.947688     19.362266      1.549022  10.0000  40.0780
    101    1 Ca   20    -11.642869     12.384242      1.148527  10.0000  40.0780
    102    1 Ca   20    -18.228483     19.076424      4.637203  10.0000  40.0780
    103    2 S    16     -9.544124     13.871996      3.319658   6.0000  32.0650
    104    2 S    16    -15.252746     19.953037      6.578525   6.0000  32.0650
    105    2 S    16    -14.909102     24.157579      3.150126   6.0000  32.0650
    106    2 S    16     -8.796150     18.036308      6.615824   6.0000  32.0650
    107    2 S    16    -11.103521     16.028294      0.113123   6.0000  32.0650
    108    2 S    16    -18.071490     22.153501      4.815246   6.0000  32.0650
    109    2 S    16    -12.229266     22.209695      0.778106   6.0000  32.0650
    110    2 S    16     -6.196474     15.789207      4.675444   6.0000  32.0650
    111    2 S    16     -9.467248     19.869814      3.066538   6.0000  32.0650
    112    2 S    16     -3.265840     13.770709      6.913988   6.0000  32.0650
    113    2 S    16    -14.803652     18.019689      3.249102   6.0000  32.0650
    114    2 S    16    -21.175705     24.493499      6.950298   6.0000  32.0650
    115    3 O     8     -8.598417     12.849751      3.832985   6.0000  15.9994
    116    3 O     8    -14.419550     19.008979      7.307898   6.0000  15.9994
    117    3 O     8    -15.795133     25.055868      3.948690   6.0000  15.9994
    118    3 O     8     -9.590958     19.236121      6.996734   6.0000  15.9994
    119    3 O     8    -10.887972     13.262814      3.074892   6.0000  15.9994
    120    3 O     8    -16.602610     19.485827      6.288332   6.0000  15.9994
    121    3 O     8    -13.826743     25.018972      2.586829   6.0000  15.9994
    122    3 O     8     -7.407515     18.428839      6.292982   6.0000  15.9994
    123    3 O     8     -9.002129     14.587821      2.123414   6.0000  15.9994
    124    3 O     8    -14.553962     20.568771      5.421666   6.0000  15.9994
    125    3 O     8    -15.630465     23.381375      2.119923   6.0000  15.9994
    126    3 O     8     -9.421012     17.362809      5.412721   6.0000  15.9994
    127    3 O     8     -9.801408     14.948957      4.347382   6.0000  15.9994
    128    3 O     8    -15.485940     21.247908      7.563179   6.0000  15.9994
    129    3 O     8    -14.303809     23.148254      4.114546   6.0000  15.9994
    130    3 O     8     -8.856375     17.027870      7.717573   6.0000  15.9994
    131    3 O     8    -11.703932     14.724536      0.556547   6.0000  15.9994
    132    3 O     8    -18.870666     21.218422      5.617356   6.0000  15.9994
    133    3 O     8    -11.255862     23.083057      1.679212   6.0000  15.9994
    134    3 O     8     -5.355635     16.692015      5.517083   6.0000  15.9994
    135    3 O     8     -5.380704     14.823307      3.880864   6.0000  15.9994
    136    3 O     8    -12.465435     21.851104      7.290691   6.0000  15.9994
    137    3 O     8    -18.892891     23.187623      4.104304   6.0000  15.9994
    138    3 O     8    -11.657362     16.681160      8.125251   6.0000  15.9994
    139    3 O     8    -10.949123     17.054033      1.257989   6.0000  15.9994
    140    3 O     8    -17.082855     22.925331      5.630394   6.0000  15.9994
    141    3 O     8    -13.146419     21.312734      1.762128   6.0000  15.9994
    142    3 O     8     -7.160254     14.998505      5.478332   6.0000  15.9994
    143    3 O     8     -9.767168     20.392808      1.717602   6.0000  15.9994
    144    3 O     8     -3.054844     14.791925      5.725574   6.0000  15.9994
    145    3 O     8    -14.793411     16.985856      2.202549   6.0000  15.9994
    146    3 O     8    -21.138653     23.288535      5.964617   6.0000  15.9994
    147    3 O     8     -9.436697     20.942214      4.086167   6.0000  15.9994
    148    3 O     8     -3.910938     13.826318      1.393313   6.0000  15.9994
    149    3 O     8    -14.560372     17.369304      4.566487   6.0000  15.9994
    150    3 O     8    -20.315073     23.979394      1.479435   6.0000  15.9994
    151    3 O     8     -8.200579     19.073956      3.117889   6.0000  15.9994
    152    3 O     8     -2.045158     12.844530      6.841108   6.0000  15.9994
    153    3 O     8    -16.067830     18.835371      3.288667   6.0000  15.9994
    154    3 O     8    -22.392519     25.343682      6.439034   6.0000  15.9994
    155    3 O     8    -10.604846     18.887149      3.375309   6.0000  15.9994
    156    3 O     8     -4.437551     12.847332      6.454977   6.0000  15.9994
    157    3 O     8    -13.707660     19.048888      2.983958   6.0000  15.9994
    158    3 O     8    -19.967331     25.413025      6.594877   6.0000  15.9994
    159    3 O     8     -6.915791     16.716802      3.709997   6.0000  15.9994
    160    3 O     8    -12.864997     22.989014      6.692581   6.0000  15.9994
    161    3 O     8    -17.336139     21.305781      3.784425   6.0000  15.9994
    162    3 O     8    -11.536199     15.690611      7.022196   6.0000  15.9994
    163    3 O     8     -6.267135     12.766755      2.236945   6.0000  15.9994
    164    3 O     8    -12.100679     19.132685      5.691454   6.0000  15.9994
    165    3 O     8    -11.569137     22.710928      4.523533   6.0000  15.9994
    166    3 O     8     -4.072297     15.302484      1.299603   6.0000  15.9994
    167    3 O     8    -12.818913     14.663035      4.591530   6.0000  15.9994
    168    3 O     8    -20.108023     22.507936      1.536909   6.0000  15.9994
    169    4 H     1    -12.033729     23.092473      5.342094   1.0000   1.0079
    170    4 H     1     -4.998781     15.425611      1.566298   1.0000   1.0079
    171    4 H     1    -13.029115     14.013846      5.316159   1.0000   1.0079
    172    4 H     1    -19.174034     22.438317      1.798777   1.0000   1.0079
    173    4 H     1    -12.289309     22.616834      3.880747   1.0000   1.0079
    174    4 H     1    -10.800641     17.154073      8.077252   1.0000   1.0079
    175    4 H     1    -12.047676     14.279675      4.130159   1.0000   1.0079
    176    4 H     1    -16.412968     21.173548      7.848864   1.0000   1.0079
    177    4 H     1     -5.397870     13.113749      1.856745   1.0000   1.0079
    178    4 H     1    -11.602159     18.884282      4.886139   1.0000   1.0079
    179    4 H     1    -18.958505     24.787946      1.943633   1.0000   1.0079
    180    4 H     1    -12.915309     19.570085      5.373642   1.0000   1.0079
    181    1 Ca   20     14.934373      4.231828      3.096015  10.0000  40.0780
    182    1 Ca   20      9.244153     10.845187      6.323267  10.0000  40.0780
    183    1 Ca   20      8.998092      8.628475      3.165920  10.0000  40.0780
    184    1 Ca   20     14.822551      1.803175      6.328198  10.0000  40.0780
    185    1 Ca   20      2.748342     10.569591      3.014711  10.0000  40.0780
    186    1 Ca   20     10.169165      4.518668      6.553856  10.0000  40.0780
    187    1 Ca   20     21.126550      2.159824      3.529284  10.0000  40.0780
    188    1 Ca   20     13.274891      8.635424      6.466532  10.0000  40.0780
    189    1 Ca   20     17.946749      0.060348      4.804718  10.0000  40.0780
    190    1 Ca   20     11.765620      6.164847      1.633483  10.0000  40.0780
    191    1 Ca   20     12.056402     -0.238254      1.165395  10.0000  40.0780
    192    1 Ca   20      5.969565      6.382668      4.536458  10.0000  40.0780
    193    2 S    16     14.756187      1.211970      3.093844   6.0000  32.0650
    194    2 S    16      8.604555      7.475700      6.657773   6.0000  32.0650
    195    2 S    16      9.387719     11.628595      3.031624   6.0000  32.0650
    196    2 S    16     15.102458      5.439342      6.571001   6.0000  32.0650
    197    2 S    16     12.771216      3.267843      0.179183   6.0000  32.0650
    198    2 S    16      6.033271      9.508780      4.649083   6.0000  32.0650
    199    2 S    16     10.811603      9.115788      0.049667   6.0000  32.0650
    200    2 S    16     17.915670      3.266836      4.659915   6.0000  32.0650
    201    2 S    16     14.588112      7.299125      3.299710   6.0000  32.0650
    202    2 S    16     20.775373      1.177335      7.029712   6.0000  32.0650
    203    2 S    16      9.370862      5.552618      3.229758   6.0000  32.0650
    204    2 S    16      3.147765     11.616041      7.103171   6.0000  32.0650
    205    3 O     8     15.700317      0.350481      3.850580   6.0000  15.9994
    206    3 O     8      9.618985      6.815016      7.472799   6.0000  15.9994
    207    3 O     8      8.469060     12.530701      3.769164   6.0000  15.9994
    208    3 O     8     14.301525      6.414475      7.307773   6.0000  15.9994
    209    3 O     8     13.693245      0.287087      2.590718   6.0000  15.9994
    210    3 O     8      7.606035      6.517317      6.179389   6.0000  15.9994
    211    3 O     8     10.508025     12.431091      2.481746   6.0000  15.9994
    212    3 O     8     16.464206      5.861799      6.283861   6.0000  15.9994
    213    3 O     8     15.368607      2.034730      2.038003   6.0000  15.9994
    214    3 O     8      9.162839      8.324714      5.572043   6.0000  15.9994
    215    3 O     8      8.682312     10.787117      2.025660   6.0000  15.9994
    216    3 O     8     14.381738      4.834034      5.425961   6.0000  15.9994
    217    3 O     8     14.117279      2.198758      4.079824   6.0000  15.9994
    218    3 O     8      7.833590      8.506240      7.623911   6.0000  15.9994
    219    3 O     8      9.973799     10.610016      4.032297   6.0000  15.9994
    220    3 O     8     15.283119      4.118039      7.553858   6.0000  15.9994
    221    3 O     8     12.121455      1.997063      0.712072   6.0000  15.9994
    222    3 O     8      5.479850      8.560347      5.640073   6.0000  15.9994
    223    3 O     8     11.611883     10.323972      0.472329   6.0000  15.9994
    224    3 O     8     18.676028      4.175439      5.536077   6.0000  15.9994
    225    3 O     8     18.792734      2.286613      3.949389   6.0000  15.9994
    226    3 O     8     11.374752      9.905185      6.527287   6.0000  15.9994
    227    3 O     8      5.027381     10.356900      3.960169   6.0000  15.9994
    228    3 O     8     12.178122      3.677519      7.288824   6.0000  15.9994
    229    3 O     8     13.120690      4.245778      1.355491   6.0000  15.9994
    230    3 O     8      7.018046     10.445646      5.295664   6.0000  15.9994
    231    3 O     8     10.564108      8.161734      1.271195   6.0000  15.9994
    232    3 O     8     16.896069      2.457469      5.400737   6.0000  15.9994
    233    3 O     8     14.510402      8.354032      2.278642   6.0000  15.9994
    234    3 O     8     21.037556      2.291423      5.944095   6.0000  15.9994
    235    3 O     8      9.795106      4.934477      1.947254   6.0000  15.9994
    236    3 O     8      2.847609     10.517872      6.055676   6.0000  15.9994
    237    3 O     8     14.434084      7.883347      4.650608   6.0000  15.9994
    238    3 O     8     20.539701      1.416079      1.435839   6.0000  15.9994
    239    3 O     8      9.320613      4.541847      4.313871   6.0000  15.9994
    240    3 O     8      3.877648     11.519129      1.320859   6.0000  15.9994
    241    3 O     8     15.858019      6.496632      3.220226   6.0000  15.9994
    242    3 O     8     21.982456      0.239689      6.933428   6.0000  15.9994
    243    3 O     8      8.086080      6.299102      3.126723   6.0000  15.9994
    244    3 O     8      1.934530     12.594397      6.983537   6.0000  15.9994
    245    3 O     8     13.489966      6.263637      3.067539   6.0000  15.9994
    246    3 O     8     19.614222      0.300919      6.457868   6.0000  15.9994
    247    3 O     8     10.442453      6.606436      3.557979   6.0000  15.9994
    248    3 O     8      4.321126     12.495344      6.508603   6.0000  15.9994
    249    3 O     8     17.199487      4.142053      3.640330   6.0000  15.9994
    250    3 O     8     10.762444      9.625897      7.715315   6.0000  15.9994
    251    3 O     8      6.737907      8.642052      3.610201   6.0000  15.9994
    252    3 O     8     12.593984      2.559659      6.649057   6.0000  15.9994
    253    3 O     8     18.050957     -0.126861      2.331365   6.0000  15.9994
    254    3 O     8     11.889621      6.306032      5.849996   6.0000  15.9994
    255    3 O     8     12.674603     10.446042      4.325354   6.0000  15.9994
    256    3 O     8     19.347629      1.988289      0.979435   6.0000  15.9994
    257    3 O     8     11.376577      2.411458      4.335850   6.0000  15.9994
    258    3 O     8      4.230517     10.078065      1.218471   6.0000  15.9994
    259    4 H     1     12.860218     11.052089      5.068598   1.0000   1.0079
    260    4 H     1     18.674897      1.435053      1.450673   1.0000   1.0079
    261    4 H     1     11.675260      2.280844      5.287565   1.0000   1.0079
    262    4 H     1      5.084481     10.037094      1.684739   1.0000   1.0079
    263    4 H     1     11.720866     10.574598      4.129707   1.0000   1.0079
    264    4 H     1     16.114774      4.265830      8.034432   1.0000   1.0079
    265    4 H     1     12.212718      2.288900      3.857748   1.0000   1.0079
    266    4 H     1      6.940676      8.617576      7.217492   1.0000   1.0079
    267    4 H     1     18.775974     -0.682570      2.002859   1.0000   1.0079
    268    4 H     1     12.688407      5.780975      5.637422   1.0000   1.0079
    269    4 H     1      5.146619     12.209366      1.883845   1.0000   1.0079
    270    4 H     1     11.482906      6.509011      4.978736   1.0000   1.0079
    271    1 Ca   20      2.779814     16.806480      3.300510  10.0000  40.0780
    272    1 Ca   20     -3.132769     23.669134      6.237014  10.0000  40.0780
    273    1 Ca   20     -3.082421     21.248064      3.194705  10.0000  40.0780
    274    1 Ca   20      2.994942     14.451316      6.318219  10.0000  40.0780
    275    1 Ca   20     -9.467167     23.370242      3.486452  10.0000  40.0780
    276    1 Ca   20     -3.159227     16.974279      6.240659  10.0000  40.0780
    277    1 Ca   20      9.114721     14.900789      3.569859  10.0000  40.0780
    278    1 Ca   20      1.074063     21.894661      6.222405  10.0000  40.0780
    279    1 Ca   20      5.990341     12.682924      4.807042  10.0000  40.0780
    280    1 Ca   20     -0.169144     18.999999      2.074178  10.0000  40.0780
    281    1 Ca   20     -0.058654     12.561193      1.094419  10.0000  40.0780
    282    1 Ca   20     -6.176552     18.937097      4.458055  10.0000  40.0780
    283    2 S    16      2.607931     13.777362      3.133364   6.0000  32.0650
    284    2 S    16     -3.547244     20.179516      6.597506   6.0000  32.0650
    285    2 S    16     -2.796943     24.301873      3.126944   6.0000  32.0650
    286    2 S    16      3.128777     17.718986      6.745941   6.0000  32.0650
    287    2 S    16      0.668010     16.138294      0.321413   6.0000  32.0650
    288    2 S    16     -6.127255     22.103703      4.627716   6.0000  32.0650
    289    2 S    16     -0.786762     21.933448      0.379244   6.0000  32.0650
    290    2 S    16      5.898503     15.978907      4.627771   6.0000  32.0650
    291    2 S    16      2.337704     19.906063      3.331079   6.0000  32.0650
    292    2 S    16      9.002928     13.798800      6.949380   6.0000  32.0650
    293    2 S    16     -2.829446     18.176313      3.020080   6.0000  32.0650
    294    2 S    16     -9.074918     24.230559      6.999729   6.0000  32.0650
    295    3 O     8      3.583738     12.919128      3.839645   6.0000  15.9994
    296    3 O     8     -2.535547     19.597052      7.464745   6.0000  15.9994
    297    3 O     8     -3.719360     25.125776      3.952097   6.0000  15.9994
    298    3 O     8      2.071447     18.253910      7.556098   6.0000  15.9994
    299    3 O     8      1.556367     12.858967      2.586449   6.0000  15.9994
    300    3 O     8     -4.281222     19.106555      5.870294   6.0000  15.9994
    301    3 O     8     -1.764762     25.225602      2.575151   6.0000  15.9994
    302    3 O     8      4.135154     18.665040      6.265954   6.0000  15.9994
    303    3 O     8      3.165110     14.681940      2.108321   6.0000  15.9994
    304    3 O     8     -3.057658     21.209065      5.649167   6.0000  15.9994
    305    3 O     8     -3.476339     23.471971      2.106400   6.0000  15.9994
    306    3 O     8      2.638927     16.804754      5.661787   6.0000  15.9994
    307    3 O     8      1.946166     14.695535      4.170584   6.0000  15.9994
    308    3 O     8     -4.602149     20.914690      7.529835   6.0000  15.9994
    309    3 O     8     -2.111382     23.313676      4.073312   6.0000  15.9994
    310    3 O     8      3.943779     16.640535      7.696453   6.0000  15.9994
    311    3 O     8      0.048843     14.807848      0.713385   6.0000  15.9994
    312    3 O     8     -6.652457     21.134042      5.629407   6.0000  15.9994
    313    3 O     8     -0.193329     23.219696      0.950591   6.0000  15.9994
    314    3 O     8      6.516409     16.882893      5.617537   6.0000  15.9994
    315    3 O     8      6.855601     15.196341      3.800771   6.0000  15.9994
    316    3 O     8     -0.627693     22.240231      7.810683   6.0000  15.9994
    317    3 O     8     -7.151828     22.864953      3.876770   6.0000  15.9994
    318    3 O     8     -0.879563     17.058632      6.829052   6.0000  15.9994
    319    3 O     8      1.015573     16.990861      1.575099   6.0000  15.9994
    320    3 O     8     -5.243159     23.114257      5.297563   6.0000  15.9994
    321    3 O     8     -1.323827     21.015224      1.522106   6.0000  15.9994
    322    3 O     8      5.030144     14.952130      5.306126   6.0000  15.9994
    323    3 O     8      1.781604     20.302429      2.007359   6.0000  15.9994
    324    3 O     8      9.060531     15.068526      6.043680   6.0000  15.9994
    325    3 O     8     -2.204137     17.809234      1.725148   6.0000  15.9994
    326    3 O     8     -9.228081     23.087634      5.934401   6.0000  15.9994
    327    3 O     8      2.310599     21.075654      4.256838   6.0000  15.9994
    328    3 O     8      8.512075     14.261802      1.363890   6.0000  15.9994
    329    3 O     8     -2.958363     16.984343      3.909188   6.0000  15.9994
    330    3 O     8     -8.283477     23.892245      1.531430   6.0000  15.9994
    331    3 O     8      3.699860     19.306827      3.225051   6.0000  15.9994
    332    3 O     8     10.207874     12.925041      6.447690   6.0000  15.9994
    333    3 O     8     -4.144592     18.871941      2.878872   6.0000  15.9994
    334    3 O     8    -10.288087     25.154643      6.752646   6.0000  15.9994
    335    3 O     8      1.419276     18.794987      3.846075   6.0000  15.9994
    336    3 O     8      7.788361     12.935151      6.482790   6.0000  15.9994
    337    3 O     8     -1.892118     19.184447      3.685803   6.0000  15.9994
    338    3 O     8     -7.878697     25.130480      6.506778   6.0000  15.9994
    339    3 O     8      5.057342     16.860361      3.718384   6.0000  15.9994
    340    3 O     8     -0.966759     22.799399      6.629939   6.0000  15.9994
    341    3 O     8     -5.345491     21.256744      3.639018   6.0000  15.9994
    342    3 O     8     -0.272293     15.914174      6.681609   6.0000  15.9994
    343    3 O     8      5.998998     12.613627      2.322022   6.0000  15.9994
    344    3 O     8     -0.064542     19.887666      5.970004   6.0000  15.9994
    345    3 O     8      0.667094     23.651351      4.517465   6.0000  15.9994
    346    3 O     8      7.284197     14.553430      0.825029   6.0000  15.9994
    347    3 O     8     -0.805253     14.814764      4.132607   6.0000  15.9994
    348    3 O     8     -7.528225     22.794971      1.002318   6.0000  15.9994
    349    4 H     1      0.840076     24.405165      5.145970   1.0000   1.0079
    350    4 H     1      6.653428     14.081660      1.437547   1.0000   1.0079
    351    4 H     1     -0.905304     14.897977      5.101561   1.0000   1.0079
    352    4 H     1     -7.119613     22.426775      1.811854   1.0000   1.0079
    353    4 H     1     -0.279253     23.695112      4.278333   1.0000   1.0079
    354    4 H     1      4.873012     16.669608      7.387666   1.0000   1.0079
    355    4 H     1      0.151281     14.685490      4.006188   1.0000   1.0079
    356    4 H     1     -5.433462     21.037488      6.983242   1.0000   1.0079
    357    4 H     1      6.745044     12.076096      2.010084   1.0000   1.0079
    358    4 H     1      0.357892     19.026549      5.830680   1.0000   1.0079
    359    4 H     1     -6.980257     24.795214      1.978544   1.0000   1.0079
    360    4 H     1     -0.767269     19.732643      6.626531   1.0000   1.0079



 SCF PARAMETERS         Density guess:                                    ATOMIC
                        --------------------------------------------------------
                        max_scf:                                             200
                        max_scf_history:                                       0
                        max_diis:                                              4
                        --------------------------------------------------------
                        eps_scf:                                        1.00E-06
                        eps_scf_history:                                0.00E+00
                        eps_diis:                                       0.00E+00
                        eps_eigval:                                     1.00E-05
                        --------------------------------------------------------
                        level_shift [a.u.]:                             0.000000
                        --------------------------------------------------------
                        Outer loop SCF in use 
                        No variables optimised in outer loop
                        eps_scf                                         1.00E-06
                        max_scf                                               10
                        No outer loop optimization
                        step_size                                       5.00E-01

 PW_GRID| Information for grid number                                          1
 PW_GRID| Grid distributed over                                   192 processors
 PW_GRID| Real space group dimensions                                   192    1
 PW_GRID| the grid is blocked:                                                NO
 PW_GRID| Cutoff [a.u.]                                                    420.0
 PW_GRID| spherical cutoff:                                                   NO
 PW_GRID|   Bounds   1           -210     209                Points:         420
 PW_GRID|   Bounds   2           -308     307                Points:         616
 PW_GRID|   Bounds   3           -192     191                Points:         384
 PW_GRID| Volume element (a.u.^3)  0.9004E-03     Volume (a.u.^3)     89449.3720
 PW_GRID| Grid span                                                    FULLSPACE
 PW_GRID|   Distribution                         Average         Max         Min
 PW_GRID|   G-Vectors                           517440.0      517440      517440
 PW_GRID|   G-Rays                                1232.0        1232        1232
 PW_GRID|   Real Space Points                   517440.0      709632      473088

 PW_GRID| Information for grid number                                          2
 PW_GRID| Number of the reference grid                                         1
 PW_GRID| Grid distributed over                                   192 processors
 PW_GRID| Real space group dimensions                                   192    1
 PW_GRID| the grid is blocked:                                                NO
 PW_GRID| Cutoff [a.u.]                                                    210.0
 PW_GRID| spherical cutoff:                                                   NO
 PW_GRID|   Bounds   1           -148     148                Points:         297
 PW_GRID|   Bounds   2           -216     215                Points:         432
 PW_GRID|   Bounds   3           -135     134                Points:         270
 PW_GRID| Volume element (a.u.^3)  0.2582E-02     Volume (a.u.^3)     89449.3720
 PW_GRID| Grid span                                                    FULLSPACE
 PW_GRID|   Distribution                         Average         Max         Min
 PW_GRID|   G-Vectors                           180427.5      189783      160677
 PW_GRID|   G-Rays                                 607.5         639         541
 PW_GRID|   Real Space Points                   180427.5      233280      116640

 PW_GRID| Information for grid number                                          3
 PW_GRID| Number of the reference grid                                         2
 PW_GRID| Grid distributed over                                   192 processors
 PW_GRID| Real space group dimensions                                    12   16
 PW_GRID| the grid is blocked:                                                NO
 PW_GRID| Cutoff [a.u.]                                                     70.0
 PW_GRID| spherical cutoff:                                                   NO
 PW_GRID|   Bounds   1            -87      87                Points:         175
 PW_GRID|   Bounds   2           -126     125                Points:         252
 PW_GRID|   Bounds   3            -80      79                Points:         160
 PW_GRID| Volume element (a.u.^3)  0.1268E-01     Volume (a.u.^3)     89449.3720
 PW_GRID| Grid span                                                    FULLSPACE
 PW_GRID|   Distribution                         Average         Max         Min
 PW_GRID|   G-Vectors                            36750.0       37800       34650
 PW_GRID|   G-Rays                                 210.0         216         198
 PW_GRID|   Real Space Points                    36750.0       38400       33600

 PW_GRID| Information for grid number                                          4
 PW_GRID| Number of the reference grid                                         2
 PW_GRID| Grid distributed over                                   192 processors
 PW_GRID| Real space group dimensions                                    12   16
 PW_GRID| the grid is blocked:                                                NO
 PW_GRID| Cutoff [a.u.]                                                     23.3
 PW_GRID| spherical cutoff:                                                   NO
 PW_GRID|   Bounds   1            -49      49                Points:          99
 PW_GRID|   Bounds   2            -72      71                Points:         144
 PW_GRID|   Bounds   3            -45      44                Points:          90
 PW_GRID| Volume element (a.u.^3)  0.6972E-01     Volume (a.u.^3)     89449.3720
 PW_GRID| Grid span                                                    FULLSPACE
 PW_GRID|   Distribution                         Average         Max         Min
 PW_GRID|   G-Vectors                             6682.5        7326        6039
 PW_GRID|   G-Rays                                  67.5          74          61
 PW_GRID|   Real Space Points                     6682.5        7290        6480

 PW_GRID| Information for grid number                                          5
 PW_GRID| Number of the reference grid                                         2
 PW_GRID| Grid distributed over                                   192 processors
 PW_GRID| Real space group dimensions                                    12   16
 PW_GRID| the grid is blocked:                                                NO
 PW_GRID| Cutoff [a.u.]                                                      7.8
 PW_GRID| spherical cutoff:                                                   NO
 PW_GRID|   Bounds   1            -30      29                Points:          60
 PW_GRID|   Bounds   2            -42      41                Points:          84
 PW_GRID|   Bounds   3            -27      26                Points:          54
 PW_GRID| Volume element (a.u.^3)  0.3287         Volume (a.u.^3)     89449.3720
 PW_GRID| Grid span                                                    FULLSPACE
 PW_GRID|   Distribution                         Average         Max         Min
 PW_GRID|   G-Vectors                             1417.5        1620        1200
 PW_GRID|   G-Rays                                  23.6          27          20
 PW_GRID|   Real Space Points                     1417.5        1620        1350

 POISSON| Solver                                          Martyna-Tuckerman (MT)
 POISSON| MT| Alpha                                                        7.000
 POISSON| MT| Relative cutoff                                                2.0
 POISSON| Periodicity                                                         XY

 RS_GRID| Information for grid number                                          2
 RS_GRID|   Bounds   1           -148     148                Points:         297
 RS_GRID|   Bounds   2           -216     215                Points:         432
 RS_GRID|   Bounds   3           -135     134                Points:         270
 RS_GRID| Real space distribution over                                  6 groups
 RS_GRID| Real space distribution along direction                              1
 RS_GRID| Border size                                                         52
 RS_GRID| Real space distribution over                                  8 groups
 RS_GRID| Real space distribution along direction                              2
 RS_GRID| Border size                                                         52
 RS_GRID| Real space distribution over                                  4 groups
 RS_GRID| Real space distribution along direction                              3
 RS_GRID| Border size                                                         52
 RS_GRID|   Distribution                         Average         Max         Min
 RS_GRID|   Planes                                 153.5         154         153
 RS_GRID|   Distribution                         Average         Max         Min
 RS_GRID|   Planes                                 158.0         158         158
 RS_GRID|   Distribution                         Average         Max         Min
 RS_GRID|   Planes                                 171.5         172         171

 RS_GRID| Information for grid number                                          3
 RS_GRID|   Bounds   1            -87      87                Points:         175
 RS_GRID|   Bounds   2           -126     125                Points:         252
 RS_GRID|   Bounds   3            -80      79                Points:         160
 RS_GRID| Real space distribution over                                  6 groups
 RS_GRID| Real space distribution along direction                              1
 RS_GRID| Border size                                                         55
 RS_GRID| Real space distribution over                                  8 groups
 RS_GRID| Real space distribution along direction                              2
 RS_GRID| Border size                                                         55
 RS_GRID| Real space distribution over                                  4 groups
 RS_GRID| Real space distribution along direction                              3
 RS_GRID| Border size                                                         55
 RS_GRID|   Distribution                         Average         Max         Min
 RS_GRID|   Planes                                 139.2         140         139
 RS_GRID|   Distribution                         Average         Max         Min
 RS_GRID|   Planes                                 141.5         142         141
 RS_GRID|   Distribution                         Average         Max         Min
 RS_GRID|   Planes                                 150.0         150         150

 RS_GRID| Information for grid number                                          4
 RS_GRID|   Bounds   1            -49      49                Points:          99
 RS_GRID|   Bounds   2            -72      71                Points:         144
 RS_GRID|   Bounds   3            -45      44                Points:          90
 RS_GRID| Real space fully replicated
 RS_GRID| Group size                                                           1

 RS_GRID| Information for grid number                                          5
 RS_GRID|   Bounds   1            -30      29                Points:          60
 RS_GRID|   Bounds   2            -42      41                Points:          84
 RS_GRID|   Bounds   3            -27      26                Points:          54
 RS_GRID| Real space fully replicated
 RS_GRID| Group size                                                           1

 MD_PAR| Molecular dynamics protocol (MD input parameters)
 MD_PAR| Ensemble type                                                       NVT
 MD_PAR| Number of time steps                                              30000
 MD_PAR| Time step [fs]                                                 0.500000
 MD_PAR| Temperature [K]                                              453.150000
 MD_PAR| Temperature tolerance [K]                                      0.000000
 MD_PAR| Print MD information every                                    1 step(s)
 MD_PAR| File type   Print frequency [steps]                          File names
 MD_PAR| Coordinates          1                       gypsum_slab_aimd-pos-1.xyz
 MD_PAR| Velocities           1                       gypsum_slab_aimd-vel-1.xyz
 MD_PAR| Energies             1                          gypsum_slab_aimd-1.ener
 MD_PAR| Dump               100                       gypsum_slab_aimd-1.restart

 ROT| Rotational analysis information
 ROT| Principal axes and moments of inertia [a.u.]
 ROT|                           1                   2                   3
 ROT| Eigenvalues      1.05729981500E+09   6.11843676010E+09   6.79640927164E+09
 ROT|      x             -0.829665351874      0.558189781984     -0.008920268407
 ROT|      y              0.558243219881      0.829405212170     -0.021248564236
 ROT|      z              0.004462214328      0.022608876881      0.999734428401
 ROT| Number of rotovibrational vectors                                        6

 DOF| Calculation of degrees of freedom
 DOF| Number of atoms                                                        360
 DOF| Number of intramolecular constraints                                     0
 DOF| Number of intermolecular constraints                                     0
 DOF| Invariants (translations + rotations)                                    4
 DOF| Degrees of freedom                                                    1076

 DOF| Restraints information
 DOF| Number of intramolecular restraints                                      0
 DOF| Number of intermolecular restraints                                      0

 THERMOSTAT| Thermostat information for PARTICLES
 THERMOSTAT| Type of thermostat            Canonical Sampling/Velocity Rescaling
 THERMOSTAT| CSVR time constant [fs]                                   20.000000
 THERMOSTAT| Initial kinetic energy                           0.000000000000E+00
 THERMOSTAT| End of thermostat information for PARTICLES

 MD_VEL| Velocities initialization
 MD_VEL| Initial temperature [K]                                      453.150000
 MD_VEL| COM velocity            -0.0000000000    -0.0000000000     0.0000000000

 PW_GRID| Information for grid number                                          6
 PW_GRID| Grid distributed over                                   192 processors
 PW_GRID| Real space group dimensions                                   192    1
 PW_GRID| the grid is blocked:                                                NO
 PW_GRID| Cutoff [a.u.]                                                      1.7
 PW_GRID| spherical cutoff:                                                  YES
 PW_GRID| Grid points within cutoff                                         4664
 PW_GRID|   Bounds   1            -13      13                Points:          27
 PW_GRID|   Bounds   2            -22      22                Points:          45
 PW_GRID|   Bounds   3            -12      12                Points:          25
 PW_GRID| Volume element (a.u.^3)   2.945         Volume (a.u.^3)     89449.3720
 PW_GRID| Grid span                                                    HALFSPACE
 PW_GRID|   Distribution                         Average         Max         Min
 PW_GRID|   G-Vectors                               24.3          32          10
 PW_GRID|   G-Rays                                   3.8           4           1
 PW_GRID|   Real Space Points                      158.2        1125           0

 RS_GRID| Information for grid number                                          6
 RS_GRID|   Bounds   1            -13      13                Points:          27
 RS_GRID|   Bounds   2            -22      22                Points:          45
 RS_GRID|   Bounds   3            -12      12                Points:          25
 RS_GRID| Real space distribution over                                  6 groups
 RS_GRID| Real space distribution along direction                              1
 RS_GRID| Border size                                                          2
 RS_GRID| Real space distribution over                                  8 groups
 RS_GRID| Real space distribution along direction                              2
 RS_GRID| Border size                                                          2
 RS_GRID| Real space distribution over                                  4 groups
 RS_GRID| Real space distribution along direction                              3
 RS_GRID| Border size                                                          2
 RS_GRID|   Distribution                         Average         Max         Min
 RS_GRID|   Planes                                   8.5           9           8
 RS_GRID|   Distribution                         Average         Max         Min
 RS_GRID|   Planes                                   9.6          10           9
 RS_GRID|   Distribution                         Average         Max         Min
 RS_GRID|   Planes                                  10.2          11          10
 EEQ| Iterative PBC guess time[s]                                          0.409
 EEQ| PBC solver: iterations/accuracy              81                0.57525E-10
 EEQ| Iterative PBC solver: time[s]                                        1.779

 PW_GRID| Information for grid number                                          7
 PW_GRID| Grid distributed over                                   192 processors
 PW_GRID| Real space group dimensions                                   192    1
 PW_GRID| the grid is blocked:                                                NO
 PW_GRID| Cutoff [a.u.]                                                      1.7
 PW_GRID| spherical cutoff:                                                  YES
 PW_GRID| Grid points within cutoff                                         4664
 PW_GRID|   Bounds   1            -13      13                Points:          27
 PW_GRID|   Bounds   2            -22      22                Points:          45
 PW_GRID|   Bounds   3            -12      12                Points:          25
 PW_GRID| Volume element (a.u.^3)   2.945         Volume (a.u.^3)     89449.3720
 PW_GRID| Grid span                                                    HALFSPACE
 PW_GRID|   Distribution                         Average         Max         Min
 PW_GRID|   G-Vectors                               24.3          32          10
 PW_GRID|   G-Rays                                   3.8           4           1
 PW_GRID|   Real Space Points                      158.2        1125           0

 RS_GRID| Information for grid number                                          7
 RS_GRID|   Bounds   1            -13      13                Points:          27
 RS_GRID|   Bounds   2            -22      22                Points:          45
 RS_GRID|   Bounds   3            -12      12                Points:          25
 RS_GRID| Real space distribution over                                  6 groups
 RS_GRID| Real space distribution along direction                              1
 RS_GRID| Border size                                                          2
 RS_GRID| Real space distribution over                                  8 groups
 RS_GRID| Real space distribution along direction                              2
 RS_GRID| Border size                                                          2
 RS_GRID| Real space distribution over                                  4 groups
 RS_GRID| Real space distribution along direction                              3
 RS_GRID| Border size                                                          2
 RS_GRID|   Distribution                         Average         Max         Min
 RS_GRID|   Planes                                   8.5           9           8
 RS_GRID|   Distribution                         Average         Max         Min
 RS_GRID|   Planes                                   9.6          10           9
 RS_GRID|   Distribution                         Average         Max         Min
 RS_GRID|   Planes                                  10.2          11          10
 EEQ| Iterative PBC guess time[s]                                          0.369
 EEQ| PBC solver: iterations/accuracy              58                0.88617E-10
 EEQ| Iterative PBC solver: time[s]                                        1.506

 Extrapolation method: initial_guess

 Atomic guess: The first density matrix is obtained in terms of atomic orbitals
               and electronic configurations assigned to each atomic kind

 Guess for atomic kind: Ca

 Electronic structure
    Total number of core electrons                                         10.00
    Total number of valence electrons                                      10.00
    Total number of electrons                                              20.00
    Multiplicity                                                   not specified
    S   [  2.00  2.00] 2.00  2.00
    P   [  6.00] 6.00


 *******************************************************************************
                  Iteration          Convergence                     Energy [au]
 *******************************************************************************
                          1        0.725355E-01                 -36.393884619408
                          2        0.123207E-01                 -36.395711682757
                          3        0.128495E-02                 -36.395744162553
                          4        0.731645E-06                 -36.395744607949

 Energy components [Hartree]           Total Energy ::          -36.395744607949
                                        Band Energy ::           -9.644227378186
                                     Kinetic Energy ::           13.123424057151
                                   Potential Energy ::          -49.519168665100
                                      Virial (-V/T) ::            3.773342113266
                                        Core Energy ::          -59.814344612977
                                          XC Energy ::           -4.835872968395
                                     Coulomb Energy ::           28.254472973423
                       Total Pseudopotential Energy ::          -73.001396548907
                       Local Pseudopotential Energy ::          -81.361924160483
                    Nonlocal Pseudopotential Energy ::            8.360527611576
                                        Confinement ::            0.636278787794

 Orbital energies  State     L     Occupation   Energy[a.u.]          Energy[eV]

                       1     0          2.000      -1.697575          -46.193361
                       2     0          2.000      -0.112601           -3.064030

                       1     1          6.000      -1.003979          -27.319665


 Total Electron Density at R=0:                                         0.001471

 Guess for atomic kind: S

 Electronic structure
    Total number of core electrons                                         10.00
    Total number of valence electrons                                       6.00
    Total number of electrons                                              16.00
    Multiplicity                                                   not specified
    S   [  2.00  2.00] 2.00
    P   [  6.00] 4.00


 *******************************************************************************
                  Iteration          Convergence                     Energy [au]
 *******************************************************************************
                          1        0.310920E-01                  -9.953654865563
                          2        0.160679E-01                  -9.953844958089
                          3        0.369215E-04                  -9.953918931862
                          4        0.141017E-07                  -9.953918932232

 Energy components [Hartree]           Total Energy ::           -9.953918932232
                                        Band Energy ::           -2.168143369773
                                     Kinetic Energy ::            3.759147472190
                                   Potential Energy ::          -13.713066404422
                                      Virial (-V/T) ::            3.647919243890
                                        Core Energy ::          -16.319815649785
                                          XC Energy ::           -2.046505707149
                                     Coulomb Energy ::            8.412402424702
                       Total Pseudopotential Energy ::          -20.136947794773
                       Local Pseudopotential Energy ::          -22.203587869902
                    Nonlocal Pseudopotential Energy ::            2.066640075129
                                        Confinement ::            0.579846727981

 Orbital energies  State     L     Occupation   Energy[a.u.]          Energy[eV]

                       1     0          2.000      -0.608874          -16.568297

                       1     1          4.000      -0.237599           -6.465397


 Total Electron Density at R=0:                                         0.000267

 Guess for atomic kind: O

 Electronic structure
    Total number of core electrons                                          2.00
    Total number of valence electrons                                       6.00
    Total number of electrons                                               8.00
    Multiplicity                                                   not specified
    S   [  2.00] 2.00
    P      4.00


 *******************************************************************************
                  Iteration          Convergence                     Energy [au]
 *******************************************************************************
                          1        0.694771                     -15.553383427337
                          2        0.553154                     -15.571793898809
                          3        0.112891E-01                 -15.637908473650
                          4        0.526768E-03                 -15.637932248177
                          5        0.236396E-03                 -15.637932289639
                          6        0.151150E-03                 -15.637932295819
                          7        0.449780E-06                 -15.637932300094

 Energy components [Hartree]           Total Energy ::          -15.637932300094
                                        Band Energy ::           -2.990188974532
                                     Kinetic Energy ::           11.751317060099
                                   Potential Energy ::          -27.389249360193
                                      Virial (-V/T) ::            2.330738692533
                                        Core Energy ::          -26.114111504293
                                          XC Energy ::           -3.152173285141
                                     Coulomb Energy ::           13.628352489341
                       Total Pseudopotential Energy ::          -37.900372809735
                       Local Pseudopotential Energy ::          -39.121491651458
                    Nonlocal Pseudopotential Energy ::            1.221118841723
                                        Confinement ::            0.349442453424

 Orbital energies  State     L     Occupation   Energy[a.u.]          Energy[eV]

                       1     0          2.000      -0.855318          -23.274396

                       1     1          4.000      -0.319888           -8.704597


 Total Electron Density at R=0:                                         0.000297

 Guess for atomic kind: H

 Electronic structure
    Total number of core electrons                                          0.00
    Total number of valence electrons                                       1.00
    Total number of electrons                                               1.00
    Multiplicity                                                   not specified
    S      1.00


 *******************************************************************************
                  Iteration          Convergence                     Energy [au]
 *******************************************************************************
                          1        0.364523E-02                  -0.422484553466
                          2        0.146100E-03                  -0.422490428911
                          3        0.266755E-04                  -0.422490480125
                          4        0.362968E-08                  -0.422490480723

 Energy components [Hartree]           Total Energy ::           -0.422490480723
                                        Band Energy ::           -0.192735382727
                                     Kinetic Energy ::            0.477952444388
                                   Potential Energy ::           -0.900442925111
                                      Virial (-V/T) ::            1.883959242566
                                        Core Energy ::           -0.479166166213
                                          XC Energy ::           -0.248560768168
                                     Coulomb Energy ::            0.305236453657
                       Total Pseudopotential Energy ::           -0.975131101124
                       Local Pseudopotential Energy ::           -0.975131101124
                    Nonlocal Pseudopotential Energy ::            0.000000000000
                                        Confinement ::            0.180124905236

 Orbital energies  State     L     Occupation   Energy[a.u.]          Energy[eV]

                       1     0          1.000      -0.192735           -5.244596


 Total Electron Density at R=0:                                         0.249202
 Re-scaling the density matrix to get the right number of electrons
                  # Electrons              Trace(P)               Scaling factor
                         2112              2112.000                        1.000

 Number of electrons:                                                       2112
 Number of occupied orbitals:                                               1056
 Number of molecular orbitals:                                              1056

 Number of orbital functions:                                               4776
 Number of independent orbital functions:                                   4776


 SCF WAVEFUNCTION OPTIMIZATION

  ----------------------------------- OT ---------------------------------------
  Minimizer      : DIIS                : direct inversion
                                         in the iterative subspace
                                         using   7 DIIS vectors
                                         safer DIIS on
  Preconditioner : FULL_SINGLE_INVERSE : inversion of 
                                         H + eS - 2*(Sc)(c^T*H*c+const)(Sc)^T
  Precond_solver : INVERSE_UPDATE
  stepsize       :    0.15000000                  energy_gap     :    0.00100000
  eps_taylor     :   0.10000E-15                  max_taylor     :             4
  ----------------------------------- OT ---------------------------------------

  Step     Update method      Time    Convergence         Total energy    Change
  ------------------------------------------------------------------------------
     1 OT DIIS     0.15E+00   17.2     0.01719146     -5547.9091041053 -5.55E+03
     2 OT DIIS     0.15E+00    4.5     0.02074148     -5614.1918137633 -6.63E+01
     3 OT DIIS     0.15E+00    4.4     0.02060192     -5641.2007685932 -2.70E+01
     4 OT DIIS     0.15E+00    4.4     0.01088744     -5673.2378743113 -3.20E+01
     5 OT DIIS     0.15E+00    4.4     0.00756818     -5689.6523386064 -1.64E+01
     6 OT DIIS     0.15E+00    4.4     0.00701755     -5698.9979002816 -9.35E+00
     7 OT DIIS     0.15E+00    4.5     0.00550367     -5707.2309098713 -8.23E+00
     8 OT DIIS     0.15E+00    4.5     0.00478082     -5713.7139667184 -6.48E+00
     9 OT DIIS     0.15E+00    4.3     0.00370163     -5718.7045236112 -4.99E+00
    10 OT DIIS     0.15E+00    4.1     0.00366150     -5722.5253997566 -3.82E+00
    11 OT DIIS     0.15E+00    4.1     0.00291771     -5726.0815146300 -3.56E+00
    12 OT DIIS     0.15E+00    4.1     0.00255805     -5728.7800771816 -2.70E+00
    13 OT DIIS     0.15E+00    4.1     0.00236380     -5731.0323751751 -2.25E+00
    14 OT DIIS     0.15E+00    4.1     0.00198687     -5732.8558484019 -1.82E+00
    15 OT DIIS     0.15E+00    4.1     0.00187993     -5734.2209257448 -1.37E+00
    16 OT DIIS     0.15E+00    4.1     0.00168619     -5735.4859031623 -1.26E+00
    17 OT DIIS     0.15E+00    4.1     0.00144174     -5736.5583408220 -1.07E+00
    18 OT DIIS     0.15E+00    4.1     0.00136295     -5737.4205813520 -8.62E-01
    19 OT DIIS     0.15E+00    4.0     0.00119595     -5738.2117894802 -7.91E-01
    20 OT DIIS     0.15E+00    4.0     0.00110851     -5738.8171448474 -6.05E-01
    21 OT DIIS     0.15E+00    3.9     0.00105177     -5739.3545811997 -5.37E-01
    22 OT DIIS     0.15E+00    3.7     0.00096276     -5739.8187708113 -4.64E-01
    23 OT DIIS     0.15E+00    3.6     0.00087502     -5740.2051125765 -3.86E-01
    24 OT DIIS     0.15E+00    3.6     0.00080737     -5740.5572227195 -3.52E-01
    25 OT DIIS     0.15E+00    3.6     0.00075622     -5740.8530776896 -2.96E-01
    26 OT DIIS     0.15E+00    3.6     0.00071364     -5741.0869013197 -2.34E-01
    27 OT DIIS     0.15E+00    3.6     0.00068057     -5741.3039760379 -2.17E-01
    28 OT DIIS     0.15E+00    3.6     0.00061512     -5741.4932649222 -1.89E-01
    29 OT DIIS     0.15E+00    3.6     0.00059400     -5741.6542808295 -1.61E-01
    30 OT DIIS     0.15E+00    3.5     0.00059016     -5741.7934020650 -1.39E-01
    31 OT DIIS     0.15E+00    3.5     0.00056582     -5741.9115231604 -1.18E-01
    32 OT DIIS     0.15E+00    3.5     0.00053897     -5742.0074934651 -9.60E-02
    33 OT DIIS     0.15E+00    3.5     0.00053650     -5742.0887160097 -8.12E-02
    34 OT DIIS     0.15E+00    3.5     0.00053351     -5742.1638469872 -7.51E-02
    35 OT DIIS     0.15E+00    3.5     0.00051543     -5742.2242987672 -6.05E-02
    36 OT DIIS     0.15E+00    3.5     0.00049467     -5742.2586823545 -3.44E-02
    37 OT DIIS     0.15E+00    3.5     0.00046694     -5742.2983256831 -3.96E-02
    38 OT DIIS     0.15E+00    3.5     0.00044781     -5742.3312168363 -3.29E-02
    39 OT DIIS     0.15E+00    3.5     0.00041118     -5742.3534426390 -2.22E-02
    40 OT DIIS     0.15E+00    3.5     0.00036762     -5742.3753887648 -2.19E-02
    41 OT DIIS     0.15E+00    3.6     0.00034157     -5742.4004135243 -2.50E-02
    42 OT DIIS     0.15E+00    3.5     0.00032696     -5742.4247938651 -2.44E-02
    43 OT DIIS     0.15E+00    3.5     0.00031809     -5742.4490679296 -2.43E-02
    44 OT DIIS     0.15E+00    3.5     0.00031739     -5742.4727193642 -2.37E-02
    45 OT DIIS     0.15E+00    3.5     0.00031816     -5742.5009824985 -2.83E-02
    46 OT DIIS     0.15E+00    3.5     0.00033162     -5742.5279442600 -2.70E-02
    47 OT DIIS     0.15E+00    3.5     0.00033762     -5742.5486044160 -2.07E-02
    48 OT DIIS     0.15E+00    3.5     0.00032673     -5742.5678890656 -1.93E-02
    49 OT DIIS     0.15E+00    3.5     0.00031464     -5742.5885877261 -2.07E-02
    50 OT DIIS     0.15E+00    3.5     0.00030292     -5742.6036421896 -1.51E-02
    51 OT DIIS     0.15E+00    3.5     0.00028197     -5742.6162457751 -1.26E-02
    52 OT DIIS     0.15E+00    3.5     0.00026349     -5742.6301781299 -1.39E-02
    53 OT DIIS     0.15E+00    3.5     0.00024847     -5742.6449917054 -1.48E-02
    54 OT DIIS     0.15E+00    3.5     0.00024592     -5742.6598992201 -1.49E-02
    55 OT DIIS     0.15E+00    3.5     0.00024688     -5742.6736503302 -1.38E-02
    56 OT DIIS     0.15E+00    3.5     0.00024579     -5742.6885221396 -1.49E-02
    57 OT DIIS     0.15E+00    3.5     0.00024822     -5742.7063360928 -1.78E-02
    58 OT DIIS     0.15E+00    3.4     0.00025684     -5742.7206589927 -1.43E-02
    59 OT DIIS     0.15E+00    3.5     0.00025600     -5742.7318933343 -1.12E-02
    60 OT DIIS     0.15E+00    3.5     0.00024880     -5742.7451329340 -1.32E-02
    61 OT DIIS     0.15E+00    3.5     0.00023681     -5742.7554633133 -1.03E-02
    62 OT DIIS     0.15E+00    3.5     0.00022866     -5742.7642968520 -8.83E-03
    63 OT DIIS     0.15E+00    3.5     0.00021691     -5742.7723659155 -8.07E-03
    64 OT DIIS     0.15E+00    3.5     0.00020298     -5742.7807839322 -8.42E-03
    65 OT DIIS     0.15E+00    3.5     0.00019440     -5742.7910298368 -1.02E-02
    66 OT DIIS     0.15E+00    3.5     0.00019512     -5742.8001376116 -9.11E-03
    67 OT DIIS     0.15E+00    3.5     0.00019596     -5742.8086086247 -8.47E-03
    68 OT DIIS     0.15E+00    3.5     0.00019696     -5742.8200673819 -1.15E-02
    69 OT DIIS     0.15E+00    3.5     0.00019939     -5742.8297900815 -9.72E-03
    70 OT DIIS     0.15E+00    3.5     0.00020525     -5742.8379319729 -8.14E-03
    71 OT DIIS     0.15E+00    3.5     0.00020397     -5742.8455363215 -7.60E-03
    72 OT DIIS     0.15E+00    3.5     0.00019506     -5742.8522540972 -6.72E-03
    73 OT DIIS     0.15E+00    3.5     0.00018319     -5742.8590644830 -6.81E-03
    74 OT DIIS     0.15E+00    3.5     0.00017616     -5742.8646214968 -5.56E-03
    75 OT DIIS     0.15E+00    3.5     0.00016721     -5742.8694503130 -4.83E-03
    76 OT DIIS     0.15E+00    3.5     0.00015906     -5742.8764860910 -7.04E-03
    77 OT DIIS     0.15E+00    3.5     0.00015656     -5742.8827563107 -6.27E-03
    78 OT DIIS     0.15E+00    3.5     0.00015980     -5742.8887540984 -6.00E-03
    79 OT DIIS     0.15E+00    3.5     0.00016267     -5742.8954638103 -6.71E-03
    80 OT DIIS     0.15E+00    3.5     0.00016436     -5742.9021646098 -6.70E-03
    81 OT DIIS     0.15E+00    3.5     0.00016346     -5742.9083747377 -6.21E-03
    82 OT DIIS     0.15E+00    3.5     0.00016492     -5742.9135222524 -5.15E-03
    83 OT DIIS     0.15E+00    3.5     0.00016095     -5742.9176028032 -4.08E-03
    84 OT DIIS     0.15E+00    3.5     0.00015113     -5742.9227182814 -5.12E-03
    85 OT DIIS     0.15E+00    3.5     0.00014347     -5742.9267115873 -3.99E-03
    86 OT DIIS     0.15E+00    3.5     0.00013923     -5742.9302498067 -3.54E-03
    87 OT DIIS     0.15E+00    3.5     0.00013435     -5742.9345122968 -4.26E-03
    88 OT DIIS     0.15E+00    3.4     0.00013147     -5742.9390603548 -4.55E-03
    89 OT DIIS     0.15E+00    3.5     0.00013062     -5742.9434698906 -4.41E-03
    90 OT DIIS     0.15E+00    3.5     0.00013384     -5742.9480507729 -4.58E-03
    91 OT DIIS     0.15E+00    3.5     0.00013672     -5742.9525177327 -4.47E-03
    92 OT DIIS     0.15E+00    3.5     0.00013558     -5742.9572098546 -4.69E-03
    93 OT DIIS     0.15E+00    3.5     0.00013443     -5742.9610251821 -3.82E-03
    94 OT DIIS     0.15E+00    3.5     0.00013428     -5742.9639068946 -2.88E-03
    95 OT DIIS     0.15E+00    3.5     0.00012889     -5742.9670617743 -3.15E-03
    96 OT DIIS     0.15E+00    3.5     0.00012198     -5742.9702921416 -3.23E-03
    97 OT DIIS     0.15E+00    3.5     0.00011604     -5742.9729242395 -2.63E-03
    98 OT DIIS     0.15E+00    3.5     0.00011287     -5742.9758581164 -2.93E-03
    99 OT DIIS     0.15E+00    3.5     0.00011148     -5742.9790889560 -3.23E-03
   100 OT DIIS     0.15E+00    3.5     0.00011035     -5742.9824808996 -3.39E-03
   101 OT DIIS     0.15E+00    3.5     0.00011149     -5742.9858911384 -3.41E-03
   102 OT DIIS     0.15E+00    3.5     0.00011562     -5742.9890167044 -3.13E-03
   103 OT DIIS     0.15E+00    3.5     0.00011681     -5742.9922089989 -3.19E-03
   104 OT DIIS     0.15E+00    3.5     0.00011515     -5742.9953405934 -3.13E-03
   105 OT DIIS     0.15E+00    3.5     0.00011233     -5742.9973888796 -2.05E-03
   106 OT DIIS     0.15E+00    3.5     0.00010854     -5742.9995351293 -2.15E-03
   107 OT DIIS     0.15E+00    3.5     0.00010417     -5743.0019632074 -2.43E-03
   108 OT DIIS     0.15E+00    3.5     0.00009900     -5743.0040694760 -2.11E-03
   109 OT DIIS     0.15E+00    3.5     0.00009575     -5743.0063323060 -2.26E-03
   110 OT DIIS     0.15E+00    3.5     0.00009586     -5743.0086295463 -2.30E-03
   111 OT DIIS     0.15E+00    3.4     0.00009622     -5743.0111163124 -2.49E-03
   112 OT DIIS     0.15E+00    3.5     0.00009679     -5743.0138888974 -2.77E-03
   113 OT DIIS     0.15E+00    3.5     0.00009854     -5743.0161071988 -2.22E-03
   114 OT DIIS     0.15E+00    3.5     0.00009960     -5743.0183367797 -2.23E-03
   115 OT DIIS     0.15E+00    3.5     0.00009921     -5743.0208317038 -2.49E-03
   116 OT DIIS     0.15E+00    3.5     0.00009632     -5743.0224710825 -1.64E-03
   117 OT DIIS     0.15E+00    3.5     0.00009216     -5743.0241178031 -1.65E-03
   118 OT DIIS     0.15E+00    3.5     0.00008980     -5743.0257666749 -1.65E-03
   119 OT DIIS     0.15E+00    3.4     0.00008668     -5743.0274367554 -1.67E-03
   120 OT DIIS     0.15E+00    3.4     0.00008383     -5743.0293393103 -1.90E-03
   121 OT DIIS     0.15E+00    3.5     0.00008329     -5743.0309973287 -1.66E-03
   122 OT DIIS     0.15E+00    3.5     0.00008369     -5743.0328347415 -1.84E-03
   123 OT DIIS     0.15E+00    3.5     0.00008474     -5743.0351542074 -2.32E-03
   124 OT DIIS     0.15E+00    3.5     0.00008599     -5743.0368748745 -1.72E-03
   125 OT DIIS     0.15E+00    3.5     0.00008575     -5743.0385957642 -1.72E-03
   126 OT DIIS     0.15E+00    3.5     0.00008644     -5743.0402739290 -1.68E-03
   127 OT DIIS     0.15E+00    3.5     0.00008490     -5743.0416514978 -1.38E-03
   128 OT DIIS     0.15E+00    3.4     0.00008095     -5743.0430723712 -1.42E-03
   129 OT DIIS     0.15E+00    3.5     0.00007819     -5743.0442251614 -1.15E-03
   130 OT DIIS     0.15E+00    3.5     0.00007565     -5743.0454474342 -1.22E-03
   131 OT DIIS     0.15E+00    3.5     0.00007380     -5743.0471222594 -1.67E-03
   132 OT DIIS     0.15E+00    3.5     0.00007364     -5743.0484598899 -1.34E-03
   133 OT DIIS     0.15E+00    3.5     0.00007355     -5743.0499295375 -1.47E-03
   134 OT DIIS     0.15E+00    3.5     0.00007534     -5743.0516253798 -1.70E-03
   135 OT DIIS     0.15E+00    3.4     0.00007703     -5743.0531099056 -1.48E-03
   136 OT DIIS     0.15E+00    3.4     0.00007639     -5743.0545104387 -1.40E-03
   137 OT DIIS     0.15E+00    3.5     0.00007597     -5743.0556507287 -1.14E-03
   138 OT DIIS     0.15E+00    3.5     0.00007428     -5743.0566323265 -9.82E-04
   139 OT DIIS     0.15E+00    3.4     0.00007118     -5743.0579495607 -1.32E-03
   140 OT DIIS     0.15E+00    3.5     0.00006906     -5743.0588765310 -9.27E-04
   141 OT DIIS     0.15E+00    3.5     0.00006658     -5743.0598704121 -9.94E-04
